 $CONTRL SCFTYP=MCSCF RUNTYP=ENERGY ICHARG=0 MULT=1 MPLEVL=2 EXETYP=RUN
      INTTYP=HONDO ICUT=13 ITOL=30 D5=.T. MAXIT=100 GENCON=.F. WIDE=1 FSTINT=.T.
 $END
 $SYSTEM TIMLIM=60000 MWORDS=200 MASMEM=200000000 MXBCST=-1 KDIAG=0 NOJAC=1 $END
 $MOORTH NOSTF=.T. NOZERO=.T. SYMS=.T. SYMDEN=.T. SYMVEC=.T. SYMVX=.T.
      TOLE=0.0D0 TOLZ=0.0D0 $END
 $GUESS GUESS=MOREAD NORB=160 IORDER(22)=-23 IORDER(32)=-45 NORDER=1 $END
 $DET NCORE=22 NACT=10 NELS=12 CVGTOL=1D-8 ITERMX=1000 NSTATE=15
      WSTATE(1)=1,1,1,1,1 $END
 $MCSCF MAXIT=200 ACURCY=5D-2 CISTEP=ALDET ENGTOL=1D-2 IFORB=1 ISTATE=1
      SOSCF=.T. $END
 $XMCQDPT NSTATE=5 EDSHFT=2D-2 GENZRO=1D-20 ISTATE(1)=1 THRCON=1D-8 THRERI=1D-20
      THRGEN=1D-20 WSTATE(1)=1,1,1,1,1 $END
 $MCQGENS GEN1=3 GEN2=3 GEN3=1 USEGEN1=.T. $END
 $DATA
p_bq XMCQDPT2/ALDET-CASSCF(12,10) Andrew-style geometry
C1
C      6.0    -0.0000055534     1.4472962000     0.0000000000
S   8
  1    6665.0000000       0.0006920
  2    1000.0000000       0.0053290
  3     228.0000000       0.0270770
  4      64.7100000       0.1017180
  5      21.0600000       0.2747400
  6       7.4950000       0.4485640
  7       2.7970000       0.2850740
  8       0.5215000       0.0152040
S   8
  1    6665.0000000      -0.0001460
  2    1000.0000000      -0.0011540
  3     228.0000000      -0.0057250
  4      64.7100000      -0.0233120
  5      21.0600000      -0.0639550
  6       7.4950000      -0.1499810
  7       2.7970000      -0.1272620
  8       0.5215000       0.5445290
S   1
  1       0.1596000       1.0000000
P   3
  1       9.4390000       0.0381090
  2       2.0020000       0.2094800
  3       0.5456000       0.5085570
P   1
  1       0.1517000       1.0000000
D   1
  1       0.5500000       1.0000000

C      6.0     1.2722795915     0.6794681136     0.0000000000
S   8
  1    6665.0000000       0.0006920
  2    1000.0000000       0.0053290
  3     228.0000000       0.0270770
  4      64.7100000       0.1017180
  5      21.0600000       0.2747400
  6       7.4950000       0.4485640
  7       2.7970000       0.2850740
  8       0.5215000       0.0152040
S   8
  1    6665.0000000      -0.0001460
  2    1000.0000000      -0.0011540
  3     228.0000000      -0.0057250
  4      64.7100000      -0.0233120
  5      21.0600000      -0.0639550
  6       7.4950000      -0.1499810
  7       2.7970000      -0.1272620
  8       0.5215000       0.5445290
S   1
  1       0.1596000       1.0000000
P   3
  1       9.4390000       0.0381090
  2       2.0020000       0.2094800
  3       0.5456000       0.5085570
P   1
  1       0.1517000       1.0000000
D   1
  1       0.5500000       1.0000000

C      6.0     1.2722626501    -0.6794641394     0.0000000000
S   8
  1    6665.0000000       0.0006920
  2    1000.0000000       0.0053290
  3     228.0000000       0.0270770
  4      64.7100000       0.1017180
  5      21.0600000       0.2747400
  6       7.4950000       0.4485640
  7       2.7970000       0.2850740
  8       0.5215000       0.0152040
S   8
  1    6665.0000000      -0.0001460
  2    1000.0000000      -0.0011540
  3     228.0000000      -0.0057250
  4      64.7100000      -0.0233120
  5      21.0600000      -0.0639550
  6       7.4950000      -0.1499810
  7       2.7970000      -0.1272620
  8       0.5215000       0.5445290
S   1
  1       0.1596000       1.0000000
P   3
  1       9.4390000       0.0381090
  2       2.0020000       0.2094800
  3       0.5456000       0.5085570
P   1
  1       0.1517000       1.0000000
D   1
  1       0.5500000       1.0000000

C      6.0    -0.0000034461    -1.4472849290     0.0000000000
S   8
  1    6665.0000000       0.0006920
  2    1000.0000000       0.0053290
  3     228.0000000       0.0270770
  4      64.7100000       0.1017180
  5      21.0600000       0.2747400
  6       7.4950000       0.4485640
  7       2.7970000       0.2850740
  8       0.5215000       0.0152040
S   8
  1    6665.0000000      -0.0001460
  2    1000.0000000      -0.0011540
  3     228.0000000      -0.0057250
  4      64.7100000      -0.0233120
  5      21.0600000      -0.0639550
  6       7.4950000      -0.1499810
  7       2.7970000      -0.1272620
  8       0.5215000       0.5445290
S   1
  1       0.1596000       1.0000000
P   3
  1       9.4390000       0.0381090
  2       2.0020000       0.2094800
  3       0.5456000       0.5085570
P   1
  1       0.1517000       1.0000000
D   1
  1       0.5500000       1.0000000

C      6.0    -1.2722606742    -0.6794564425     0.0000000000
S   8
  1    6665.0000000       0.0006920
  2    1000.0000000       0.0053290
  3     228.0000000       0.0270770
  4      64.7100000       0.1017180
  5      21.0600000       0.2747400
  6       7.4950000       0.4485640
  7       2.7970000       0.2850740
  8       0.5215000       0.0152040
S   8
  1    6665.0000000      -0.0001460
  2    1000.0000000      -0.0011540
  3     228.0000000      -0.0057250
  4      64.7100000      -0.0233120
  5      21.0600000      -0.0639550
  6       7.4950000      -0.1499810
  7       2.7970000      -0.1272620
  8       0.5215000       0.5445290
S   1
  1       0.1596000       1.0000000
P   3
  1       9.4390000       0.0381090
  2       2.0020000       0.2094800
  3       0.5456000       0.5085570
P   1
  1       0.1517000       1.0000000
D   1
  1       0.5500000       1.0000000

C      6.0    -1.2722654859     0.6794529813     0.0000000000
S   8
  1    6665.0000000       0.0006920
  2    1000.0000000       0.0053290
  3     228.0000000       0.0270770
  4      64.7100000       0.1017180
  5      21.0600000       0.2747400
  6       7.4950000       0.4485640
  7       2.7970000       0.2850740
  8       0.5215000       0.0152040
S   8
  1    6665.0000000      -0.0001460
  2    1000.0000000      -0.0011540
  3     228.0000000      -0.0057250
  4      64.7100000      -0.0233120
  5      21.0600000      -0.0639550
  6       7.4950000      -0.1499810
  7       2.7970000      -0.1272620
  8       0.5215000       0.5445290
S   1
  1       0.1596000       1.0000000
P   3
  1       9.4390000       0.0381090
  2       2.0020000       0.2094800
  3       0.5456000       0.5085570
P   1
  1       0.1517000       1.0000000
D   1
  1       0.5500000       1.0000000

O      8.0     0.0000015568     2.6882585379     0.0000000000
S   8
  1   11720.0000000       0.0007100
  2    1759.0000000       0.0054700
  3     400.8000000       0.0278370
  4     113.7000000       0.1048000
  5      37.0300000       0.2830620
  6      13.2700000       0.4487190
  7       5.0250000       0.2709520
  8       1.0130000       0.0154580
S   8
  1   11720.0000000      -0.0001600
  2    1759.0000000      -0.0012630
  3     400.8000000      -0.0062670
  4     113.7000000      -0.0257160
  5      37.0300000      -0.0709240
  6      13.2700000      -0.1654110
  7       5.0250000      -0.1169550
  8       1.0130000       0.5573680
S   1
  1       0.3023000       1.0000000
S   1
  1       0.0789600       1.0000000
P   3
  1      17.7000000       0.0430180
  2       3.8540000       0.2289130
  3       1.0460000       0.5087280
P   1
  1       0.2753000       1.0000000
P   1
  1       0.0685600       1.0000000
D   1
  1       1.1850000       1.0000000
D   1
  1       0.3320000       1.0000000

O      8.0     0.0000004499    -2.6882664571     0.0000000000
S   8
  1   11720.0000000       0.0007100
  2    1759.0000000       0.0054700
  3     400.8000000       0.0278370
  4     113.7000000       0.1048000
  5      37.0300000       0.2830620
  6      13.2700000       0.4487190
  7       5.0250000       0.2709520
  8       1.0130000       0.0154580
S   8
  1   11720.0000000      -0.0001600
  2    1759.0000000      -0.0012630
  3     400.8000000      -0.0062670
  4     113.7000000      -0.0257160
  5      37.0300000      -0.0709240
  6      13.2700000      -0.1654110
  7       5.0250000      -0.1169550
  8       1.0130000       0.5573680
S   1
  1       0.3023000       1.0000000
S   1
  1       0.0789600       1.0000000
P   3
  1      17.7000000       0.0430180
  2       3.8540000       0.2289130
  3       1.0460000       0.5087280
P   1
  1       0.2753000       1.0000000
P   1
  1       0.0685600       1.0000000
D   1
  1       1.1850000       1.0000000
D   1
  1       0.3320000       1.0000000

H      1.0     2.1960628686     1.2673738570     0.0000000000
S   3
  1      13.0100000       0.0196850
  2       1.9620000       0.1379770
  3       0.4446000       0.4781480
S   1
  1       0.1220000       1.0000000
P   1
  1       0.7270000       1.0000000

H      1.0     2.1960717785    -1.2673783899     0.0000000000
S   3
  1      13.0100000       0.0196850
  2       1.9620000       0.1379770
  3       0.4446000       0.4781480
S   1
  1       0.1220000       1.0000000
P   1
  1       0.7270000       1.0000000

H      1.0    -2.1960723153    -1.2673793292     0.0000000000
S   3
  1      13.0100000       0.0196850
  2       1.9620000       0.1379770
  3       0.4446000       0.4781480
S   1
  1       0.1220000       1.0000000
P   1
  1       0.7270000       1.0000000

H      1.0    -2.1960714206     1.2673799973     0.0000000000
S   3
  1      13.0100000       0.0196850
  2       1.9620000       0.1379770
  3       0.4446000       0.4781480
S   1
  1       0.1220000       1.0000000
P   1
  1       0.7270000       1.0000000

 $END
 $VEC
 1  1  5.09746980333406200D-01  1.98728358040188500D-03 -4.69370657690586100D-03 -3.00533466134761300D-07  2.13844126943535700D-04
 1  2  0.00000000000000000D+00 -3.27226177437483900D-05 -2.98640470416996000D-03  0.00000000000000000D+00 -1.69854118053857000D-04
 1  3  5.77508685978313300D-04 -4.07654567924299700D-04 -3.88665476238146300D-06  0.00000000000000000D+00  0.00000000000000000D+00
 1  4 -9.00174951895597200D-03  1.75653771164587700D-04 -2.50155117120885700D-03 -5.61971036100509600D-05 -4.35369743507216900D-06
 1  5  0.00000000000000000D+00  7.36741123311609800D-04  1.81415622109794700D-03  0.00000000000000000D+00 -3.42999496122734500D-04
 1  6  8.99630478495487200D-05  2.53036448272899600D-04 -1.86611570563347000D-04  0.00000000000000000D+00  0.00000000000000000D+00
 1  7  1.03904644592907000D-02 -1.93035419783815400D-04  2.57812619469877700D-03  6.55359859276873900D-05 -7.01142750696854400D-06
 1  8  0.00000000000000000D+00 -8.16140924933697000D-04  1.86573003355076700D-03  0.00000000000000000D+00  3.39626075863159200D-04
 1  9 -8.87581820941251200D-05 -2.50867893769035900D-04 -2.04360968137330700D-04  0.00000000000000000D+00  0.00000000000000000D+00
 1 10 -4.63633669219761500D-01 -1.73084693145298200D-03  4.53124743313619600D-03  1.95582715547396100D-07  1.52715407185213300D-04
 1 11  0.00000000000000000D+00  3.95337154751674200D-05 -3.27520652214879200D-03  0.00000000000000000D+00  1.87527826235998400D-04
 1 12 -5.62736738422046200D-04  3.75208912185762700D-04 -4.42511712344556400D-06  0.00000000000000000D+00  0.00000000000000000D+00
 1 13 -3.46304525834641000D-03 -2.59885651793757500D-04  2.76627977728528900D-03 -6.88586295614860800D-05 -6.65033925626166600D-06
 1 14  0.00000000000000000D+00  8.69227447049477700D-04  1.87058260990440100D-03  0.00000000000000000D+00  3.35400077744655900D-04
 1 15 -9.40198040154247000D-05 -2.41380273729170700D-04  2.00340708374647500D-04  0.00000000000000000D+00  0.00000000000000000D+00
 1 16  1.53133971334604400D-03  2.28688443829548700D-04 -2.66162837029180900D-03  5.87091273557447100D-05 -4.23372194417917400D-06
 1 17  0.00000000000000000D+00 -7.84757915514698800D-04  1.82390535196304100D-03  0.00000000000000000D+00 -3.38680788169154900D-04
 1 18  9.47734498546290700D-05  2.43907338314507500D-04  1.83103797643661700D-04  0.00000000000000000D+00  0.00000000000000000D+00
 1 19 -4.93004735187143400D-01 -7.64436787516819700D-04  3.51453994744263900D-03  1.66823440337095200D-03 -4.13003276399362400D-07
 1 20  6.42431414777710800D-04  0.00000000000000000D+00  7.13386284015624300D-06 -7.28358303698200700D-04  0.00000000000000000D+00
 1 21  8.39807925448613800D-07 -8.77678391090982800D-04  0.00000000000000000D+00 -8.12789659912892000D-05  2.71311156834954300D-05
 1 22  5.41478503076344500D-05  1.51527634423818400D-07  0.00000000000000000D+00  0.00000000000000000D+00 -5.37944954229872000D-05
 1 23 -1.77894778576304300D-04  2.31689273999046300D-04 -3.16977860838344300D-06  0.00000000000000000D+00  0.00000000000000000D+00
 1 24  5.34200735360418000D-01  8.94558313565158900D-04 -3.95760116983877400D-03 -1.69607880359243900D-03  4.81001345754030600D-07
 1 25  7.35735509761546900D-04  0.00000000000000000D+00 -8.28389875278080300D-06 -9.47890182528501500D-04  0.00000000000000000D+00
 1 26 -6.11252560520108100D-07 -8.59277365415377100D-04  0.00000000000000000D+00  7.57526629115851100D-05 -4.33445174570117900D-06
 1 27 -7.14182111658460300D-05  2.03972458509355800D-07  0.00000000000000000D+00  0.00000000000000000D+00  9.06453871995167600D-05
 1 28  9.32910803634101900D-05 -1.83936467562904000D-04 -3.51971113097915200D-06  0.00000000000000000D+00  0.00000000000000000D+00
 1 29  1.69525714278376000D-04 -6.33271552869097900D-04 -1.25265873428423100D-04 -1.34821434585158400D-04  0.00000000000000000D+00
 1 30 -1.67409294361243700D-04  6.66430314622587300D-04  1.28569320290839700D-04 -1.35370883191335000D-04  0.00000000000000000D+00
 1 31 -1.60351235069605700D-04  6.62713754969661800D-04 -1.21742037203486200D-04 -1.31008682773081100D-04  0.00000000000000000D+00
 1 32  1.62817986859390900D-04 -6.32814600567501600D-04  1.19433624354063800D-04 -1.31003536785888300D-04  0.00000000000000000D+00
 2  1  4.90988945446022600D-01  2.79411220840164000D-03 -1.46613121293051800D-03 -1.70411303595338800D-07  6.83846620903214400D-04
 2  2  0.00000000000000000D+00  2.20300998008949500D-05  3.46828470027133700D-03  0.00000000000000000D+00  2.11228425159008400D-04
 2  3  1.25247311482079700D-04 -3.36475736641156700D-04  2.00838030747496500D-06  0.00000000000000000D+00  0.00000000000000000D+00
 2  4  9.72740617197331300D-03 -2.34574065038351000D-04  1.00178058734057800D-03  1.14010381906853300D-04  2.98077679402933500D-05
 2  5  0.00000000000000000D+00 -9.49267124573140200D-04 -6.52535198109158100D-04  0.00000000000000000D+00 -1.52171070793896100D-05
 2  6  9.18896999224519700D-06  6.02813708713346500D-06  2.10956253464576600D-04  0.00000000000000000D+00  0.00000000000000000D+00
 2  7  7.37246105673101600D-04 -2.60407399221144700D-04  9.26641086757953000D-04  1.10444879100302400D-04 -2.97099365698806200D-05
 2  8  0.00000000000000000D+00 -9.24876434319808200D-04  5.23325312979677200D-04  0.00000000000000000D+00 -4.69148454459048000D-05
 2  9  1.22848664244535000D-05  3.46299790214767300D-05 -1.91455427595532800D-04  0.00000000000000000D+00  0.00000000000000000D+00
 2 10  5.33239968929839800D-01  2.95594309377495600D-03 -1.91032332834215100D-03 -2.62432037338783700D-07 -7.00384451177303100D-04
 2 11  0.00000000000000000D+00  7.00167302834254800D-06 -3.24191326849128800D-03  0.00000000000000000D+00  1.98042717688471300D-04
 2 12  1.76972246988654900D-04 -3.75014964677219200D-04 -2.70551727614237200D-07  0.00000000000000000D+00  0.00000000000000000D+00
 2 13 -3.87254086589982200D-03 -2.77664165369275900D-04  9.50804107724540600D-04 -1.11532279477651200D-04 -2.92330890511384600D-05
 2 14  0.00000000000000000D+00  9.25169667869534800D-04  5.11445306836459600D-04  0.00000000000000000D+00 -4.58357102813376900D-05
 2 15  1.23550870978262700D-05  3.34806231836234200D-05  1.91119323181844000D-04  0.00000000000000000D+00  0.00000000000000000D+00
 2 16  7.01261161512480200D-05 -2.76666741091753100D-04  1.09806332745619200D-03 -1.16317381701297200D-04  2.92279886864440700D-05
 2 17  0.00000000000000000D+00  9.70557492432893400D-04 -6.43591598807471300D-04  0.00000000000000000D+00 -1.59007074503157800D-05
 2 18  7.16566992534350100D-06  8.73503752502275200D-06 -2.09070589378055300D-04  0.00000000000000000D+00  0.00000000000000000D+00
 2 19  5.11446910444192300D-01  1.54899646357395500D-03 -5.33299507618342900D-03 -4.13376543548921200D-04  2.22265132011548100D-07
 2 20 -1.12131377520187100D-03  0.00000000000000000D+00 -4.02549773857232600D-06  2.56837715186986000D-03  0.00000000000000000D+00
 2 21  3.48478061020581200D-07 -1.60772455406418300D-04  0.00000000000000000D+00 -5.69007773283209600D-05  2.59973500654796000D-04
 2 22 -2.03072723326568800D-04 -1.49719557609228100D-07  0.00000000000000000D+00  0.00000000000000000D+00  4.27194679870858200D-04
 2 23 -9.57510102870128200D-04  5.30315422999333900D-04  1.42901434873496400D-06  0.00000000000000000D+00  0.00000000000000000D+00
 2 24  4.66530422494483000D-01  1.47860218795072300D-03 -5.02009227309129100D-03 -2.86956455586891700D-04  3.91077680455675000D-08
 2 25  1.06088453448241900D-03  0.00000000000000000D+00 -8.23518218066782700D-07 -2.49980658330595900D-03  0.00000000000000000D+00
 2 26  6.51991932953154700D-07  2.26734351601735700D-04  0.00000000000000000D+00 -6.36621153839556200D-05  2.60887254186587000D-04
 2 27 -1.97225138802684000D-04  7.83493363464757300D-08  0.00000000000000000D+00  0.00000000000000000D+00  4.20462299553147300D-04
 2 28 -9.69570777100805900D-04  5.49108477547686900D-04 -4.08217675416033900D-08  0.00000000000000000D+00  0.00000000000000000D+00
 2 29  1.49828342487520800D-05  4.04880292439219400D-04  4.39586512809555700D-05  1.31614760500843700D-05  0.00000000000000000D+00
 2 30  3.47996534515932500D-05  3.55237476845261200D-04  2.86598329904150300D-05  7.38622162883243300D-07  0.00000000000000000D+00
 2 31  3.41776925349617000D-05  3.48616196497988800D-04 -2.78230069898246900D-05  1.06921117267111900D-06  0.00000000000000000D+00
 2 32  1.72064658967366300D-05  3.97389196012675000D-04 -4.05021667773347700D-05  1.11395254599971400D-05  0.00000000000000000D+00
 3  1 -1.39004336475274000D-03  6.77776998604540800D-05 -1.13144693247396400D-03 -4.53068586048164800D-06  6.01477308500792200D-05
 3  2  0.00000000000000000D+00  2.62565103292087400D-03  2.70792755197914100D-03  0.00000000000000000D+00  1.90425933666322700D-04
 3  3  5.91760091855620100D-05 -2.49601942851853800D-04  2.63563756958239300D-04  0.00000000000000000D+00  0.00000000000000000D+00
 3  4  1.01152371470658500D-01  5.37649235972337400D-04 -1.50571432384499800D-03 -4.51499340339729700D-05 -2.54163716143140800D-05
 3  5  0.00000000000000000D+00  2.34202465611200000D-04 -6.32348525931484200D-04  0.00000000000000000D+00  6.91237901864780300D-05
 3  6 -3.00854043987091300D-05 -3.90383857876829700D-05  5.62225591469753900D-05  0.00000000000000000D+00  0.00000000000000000D+00
 3  7 -2.34470882263588300D-01 -1.05549494582997000D-03  2.35290017498577700D-03  4.37260096125130500D-05  5.04771438385584100D-05
 3  8  0.00000000000000000D+00 -8.65025097033037200D-04 -2.76802499423259300D-07  0.00000000000000000D+00 -7.53558912836989000D-05
 3  9 -1.27568950597651900D-04  2.02924841881418700D-04  4.62618908154105000D-05  0.00000000000000000D+00  0.00000000000000000D+00
 3 10  2.70365183063614500D-03  7.33193944052815100D-05  2.51571090096604600D-04 -2.57569355131579800D-05 -4.26901719236864000D-05
 3 11  0.00000000000000000D+00 -5.41864678571577900D-04 -1.26367252885926200D-03  0.00000000000000000D+00  1.16471342809498400D-04
 3 12 -9.82322110132144600D-06 -1.06648121708154400D-04  1.01848160332022500D-04  0.00000000000000000D+00  0.00000000000000000D+00
 3 13 -2.13471574696804800D-01 -5.64054592908096300D-04 -9.31940122106201000D-04 -3.67396483853983700D-05  7.70020041076873400D-05
 3 14  0.00000000000000000D+00 -5.71647960371430600D-04 -1.06024801610107700D-03  0.00000000000000000D+00  1.26426318135131100D-04
 3 15  2.24825631794068600D-05 -1.48908881314575500D-04  3.87493822146538900D-05  0.00000000000000000D+00  0.00000000000000000D+00
 3 16 -9.45158890322446000D-01 -4.21730565566585800D-03  1.04282055491682300D-02 -2.05004187904869100D-04 -7.34951210804987400D-05
 3 17  0.00000000000000000D+00  2.75307654205407400D-03 -1.94519716217266300D-04  0.00000000000000000D+00 -1.04203464275698900D-04
 3 18 -3.20308696638119200D-04  4.24512160914017700D-04  1.88849802385335100D-04  0.00000000000000000D+00  0.00000000000000000D+00
 3 19 -7.55268271426911200D-03  2.36738474699244900D-04 -1.10327117355335200D-03 -1.72135713163739800D-03  2.97568174540347200D-05
 3 20 -2.12816867478809500D-05  0.00000000000000000D+00 -5.12942434222843500D-04  5.62359789610592700D-04  0.00000000000000000D+00
 3 21  4.10774198477154600D-06  8.57626760200577200D-04  0.00000000000000000D+00  1.23083248907656200D-05 -1.62921805857272500D-05
 3 22  3.98385569509344200D-06 -1.60422459719494500D-05  0.00000000000000000D+00  0.00000000000000000D+00 -4.43114767163950900D-05
 3 23 -8.43962255863742700D-05  1.28707702302849600D-04  1.99650179237604300D-04  0.00000000000000000D+00  0.00000000000000000D+00
 3 24  4.22604416036228900D-03  1.89571471750106500D-04 -7.53770626902003100D-04 -1.08910108685884400D-03 -9.87022627669067000D-06
 3 25  4.36556707125447200D-05  0.00000000000000000D+00  1.63679660395108200D-04 -4.38636550791224800D-04  0.00000000000000000D+00
 3 26  6.79655939227600200D-05 -5.51330903774107700D-04  0.00000000000000000D+00  1.07216548149254800D-05 -1.70208467429125200D-06
 3 27 -9.01957014057410500D-06  7.29801317887087600D-07  0.00000000000000000D+00  0.00000000000000000D+00 -2.77383938193654900D-05
 3 28 -7.97272651508974700D-05  1.07465658970268700D-04  9.37417485829739500D-05  0.00000000000000000D+00  0.00000000000000000D+00
 3 29 -3.66175115914097200D-05  3.67098877790223500D-04  5.92102343220765800D-05  5.81688749698599600D-05  0.00000000000000000D+00
 3 30  1.33834001299384600D-04  4.63435983586537600D-05 -1.13675934522399200D-04  7.29124944471479500D-05  0.00000000000000000D+00
 3 31 -1.09721287126240200D-04 -3.68200020001269300D-04 -9.40046071829826700D-06 -2.16341152478248800D-05  0.00000000000000000D+00
 3 32  3.21525163598586500D-04 -2.31096341485105500D-04  3.71947882898288600D-04 -2.05774120742923100D-04  0.00000000000000000D+00
 4  1  2.52039414016783100D-03  9.12569729746683400D-05  1.00855469426973400D-04  3.81195820991913100D-06  5.63452597366121700D-05
 4  2  0.00000000000000000D+00 -2.20988354256953900D-03  1.76034424652904100D-03  0.00000000000000000D+00  1.51719619344552300D-04
 4  3 -3.16507258146044200D-06 -1.48554546763102000D-04 -2.21825478050967100D-04  0.00000000000000000D+00  0.00000000000000000D+00
 4  4 -7.37086670424732700D-01 -3.12615374041548800D-03  6.46126487375663100D-03  1.60379902011642000D-04 -9.33692851509480400D-05
 4  5  0.00000000000000000D+00 -1.61529507779855600D-03  6.56567926557261300D-04  0.00000000000000000D+00 -4.81975809323989100D-05
 4  6 -2.04019951945130500D-04  2.52217532877636900D-04 -1.16391366520076400D-04  0.00000000000000000D+00  0.00000000000000000D+00
 4  7 -4.60316051445916800D-01 -1.81477931815752500D-03  3.32295663476267300D-03  8.67722879968023400D-05  7.19828620716687700D-05
 4  8  0.00000000000000000D+00 -7.22640744289149500D-04 -9.73638235160852400D-05  0.00000000000000000D+00  7.16974875979161600D-05
 4  9 -1.25631644931890700D-04  5.39341573339553800D-05  3.13342113088127300D-05  0.00000000000000000D+00  0.00000000000000000D+00
 4 10  4.66847654235042900D-04  9.46431948319883700D-05 -1.10762241916165200D-03  2.16881476929968300D-05 -7.30103903556645500D-05
 4 11  0.00000000000000000D+00  4.55147862032295700D-04 -3.02250532663363400D-03  0.00000000000000000D+00  2.16436882245904600D-04
 4 12  5.75802402267503900D-05 -2.74017122472825800D-04 -8.56201835647966700D-05  0.00000000000000000D+00  0.00000000000000000D+00
 4 13 -4.77629825358022000D-01 -2.22680687657863300D-03  6.08368953116423900D-03 -9.25706945519343500D-05  4.96178091585518600D-05
 4 14  0.00000000000000000D+00  1.93082754444700400D-03  7.95014829516543700D-04  0.00000000000000000D+00 -9.80376323241995500D-05
 4 15 -2.51899449014827200D-04  3.49937081339017800D-04 -1.02828085905973300D-04  0.00000000000000000D+00  0.00000000000000000D+00
 4 16  1.43608261692232300D-01  8.76028532710836400D-04 -3.58260545994368500D-03  5.01378901009517200D-05 -5.28741426206512500D-05
 4 17  0.00000000000000000D+00 -8.98550440867894800D-04  2.87649612623743500D-04  0.00000000000000000D+00  9.76794373604822900D-05
 4 18  4.01572262449309100D-05 -1.37836663605479500D-04 -8.99047645610998900D-05  0.00000000000000000D+00  0.00000000000000000D+00
 4 19  9.35181313400498500D-03  2.46079910602019900D-04 -1.00125103907055100D-03 -1.40258084168091900D-03 -2.50438994705101900D-05
 4 20 -5.90838776802528300D-05  0.00000000000000000D+00  4.31712460517603500D-04  5.59634541151239500D-04  0.00000000000000000D+00
 4 21 -3.47318703048636600D-06  7.05905371290191000D-04  0.00000000000000000D+00  1.31921962861364400D-05 -2.89029795954827800D-06
 4 22 -1.03018983264438300D-05  1.35023136896053400D-05  0.00000000000000000D+00  0.00000000000000000D+00 -3.27110659536695500D-05
 4 23 -1.00190745997075700D-04  1.32901811950821000D-04 -1.68026332295389500D-04  0.00000000000000000D+00  0.00000000000000000D+00
 4 24 -2.14811818649411500D-04  2.90080615493202000D-04 -1.31482970543453200D-03 -1.95251417899158000D-03  8.29722286818519700D-06
 4 25  4.15404883314740700D-05  0.00000000000000000D+00 -1.37580873851406100D-04 -6.72707095012064000D-04  0.00000000000000000D+00
 4 26 -5.72075575598390300D-05 -9.71407682661896300D-04  0.00000000000000000D+00  1.43781170529375800D-05 -1.50040577143261500D-05
 4 27  6.25940661347346400D-07 -6.18483883932920600D-07  0.00000000000000000D+00  0.00000000000000000D+00 -4.62094139123490200D-05
 4 28 -1.06536799516248700D-04  1.52746213428593200D-04 -7.88289539427871500D-05  0.00000000000000000D+00  0.00000000000000000D+00
 4 29  1.85835308288273000D-04 -4.01224697320434800D-04 -2.59156410234730300D-04 -1.48680679937581700D-04  0.00000000000000000D+00
 4 30  4.60541952874318600D-05 -1.24891336947262000D-04 -1.16629457657167800D-04  3.98591567969287900D-05  0.00000000000000000D+00
 4 31  2.50932132931006800D-04  2.24237386723704700D-04  2.20093821153967100D-04  1.19335297568074800D-04  0.00000000000000000D+00
 4 32 -1.15573003289005000D-04  1.02507989809537200D-04 -1.03710533760714100D-04  7.34558392172798600D-05  0.00000000000000000D+00
 5  1  3.49129339419724900D-03 -4.65985559142557300D-05  2.94214413469933000D-03 -1.70978711752543900D-05 -5.62318404636998400D-05
 5  2  0.00000000000000000D+00  5.67761730626139600D-04 -3.38076776089952100D-03  0.00000000000000000D+00 -1.75047050601062800D-04
 5  3 -1.41432782030064400D-04  3.16479832631035000D-04  2.83169413731267600D-05  0.00000000000000000D+00  0.00000000000000000D+00
 5  4  6.06917213635575900D-01  2.93064238696041800D-03 -9.37364939537794700D-03 -1.30771297778880700D-04 -1.37714670756031200D-05
 5  5  0.00000000000000000D+00  2.55412149610751600D-03  1.73652482857401600D-03  0.00000000000000000D+00  5.69570528449587200D-05
 5  6  2.78213533194682700D-04 -3.35170586039472200D-04  1.39357456693759500D-04  0.00000000000000000D+00  0.00000000000000000D+00
 5  7 -1.18825772592622200D-01 -8.95707138364251800D-04  5.24212882493078900D-03  1.27423892450447700D-05 -4.92767284374058900D-05
 5  8  0.00000000000000000D+00 -1.79391145695934700D-03  2.43016576729929800D-03  0.00000000000000000D+00 -7.17350126536761400D-05
 5  9 -2.10267676820939000D-04  2.82002689474627500D-04  6.66444783711704000D-05  0.00000000000000000D+00  0.00000000000000000D+00
 5 10 -8.02005343027439700D-03  1.28282335042249500D-05 -2.95186815849866500D-03 -1.15328800165308500D-05 -4.55755572800783800D-05
 5 11  0.00000000000000000D+00  1.40188668330292100D-03 -3.28209630036997700D-03  0.00000000000000000D+00  1.68820132649106200D-04
 5 12  1.43076583576113700D-04 -3.11896716225237400D-04 -1.24544748840674300D-04  0.00000000000000000D+00  0.00000000000000000D+00
 5 13 -7.43915437143857700D-01 -3.60148457447168300D-03  1.13339076756562300D-02 -1.61541786367639500D-04 -1.12047696654519300D-05
 5 14  0.00000000000000000D+00  3.10938865912863400D-03  1.80434487320059500D-03  0.00000000000000000D+00 -1.07704536879593300D-04
 5 15 -3.34453093856511400D-04  4.42157630736175800D-04 -1.85710548812534400D-04  0.00000000000000000D+00  0.00000000000000000D+00
 5 16  2.62900429857712800D-01  1.60659237404349200D-03 -7.29037047555668500D-03  4.97506706879041800D-05 -4.62240073910861000D-05
 5 17  0.00000000000000000D+00 -2.40393886026111700D-03  2.52644852679468800D-03  0.00000000000000000D+00  1.19762222955285900D-04
 5 18  2.69982679519534900D-04 -3.89744902474829800D-04 -1.07126615846901000D-04  0.00000000000000000D+00  0.00000000000000000D+00
 5 19 -5.04406185861523900D-03 -1.83183341507725700D-04  1.06438940084645700D-03  1.45414490854252400D-03  4.18226155503407200D-06
 5 20  8.53273144291416400D-06  0.00000000000000000D+00 -7.59826395303381000D-05 -3.91791498638356100D-04  0.00000000000000000D+00
 5 21  4.24611791434249900D-05 -6.92213800339482700D-04  0.00000000000000000D+00 -3.53819313632125900D-06  2.33210314287224500D-05
 5 22 -1.97828382922333500D-05 -5.91073518575095700D-06  0.00000000000000000D+00  0.00000000000000000D+00  1.92762633175984500D-05
 5 23  4.19805957942063400D-05 -6.12568591116437900D-05  1.14287535099629400D-05  0.00000000000000000D+00  0.00000000000000000D+00
 5 24 -7.67033020004837300D-03  1.48368256179310300D-04 -9.36351007886631600D-04 -1.41926466193066900D-03  1.46169262884267300D-05
 5 25 -1.62582001246248900D-05  0.00000000000000000D+00 -2.54145795075443700D-04 -3.36121957605512200D-04  0.00000000000000000D+00
 5 26  2.56561552822271100D-05 -6.80624743981421900D-04  0.00000000000000000D+00  3.62811734643499100D-06 -2.74664943083659100D-05
 5 27  2.38383769618878000D-05  9.94313899998347900D-06  0.00000000000000000D+00  0.00000000000000000D+00 -2.64221750084566300D-05
 5 28 -2.57655166120097600D-05  5.21876916204711600D-05 -8.86812669941444700D-05  0.00000000000000000D+00  0.00000000000000000D+00
 5 29 -2.68094585952087600D-04 -2.97191235918600200D-04  2.60569252401609600D-04  1.18742489488478400D-04  0.00000000000000000D+00
 5 30  2.12559035180533600D-04  7.66190285885248100D-04 -1.14840411068970900D-04  3.86593972893981300D-05  0.00000000000000000D+00
 5 31  3.45931031987195700D-04  2.63460788440487500D-04  3.33403044315577200D-04  1.65930550316906300D-04  0.00000000000000000D+00
 5 32 -2.93135822916387700D-04 -7.51682268160743200D-04 -1.87954281638938000D-04  8.58956738690001000D-05  0.00000000000000000D+00
 6  1  8.27874152322095200D-04 -3.39880511834173000D-05  1.44906807170623800D-03  3.07549906015579300D-05 -3.07115942631131100D-05
 6  2  0.00000000000000000D+00  9.47215826952440900D-04 -1.72902095738083400D-03  0.00000000000000000D+00 -8.98969486720965100D-05
 6  3 -6.84024153027965600D-05  1.58299363974891900D-04  1.52626866349391600D-04  0.00000000000000000D+00  0.00000000000000000D+00
 6  4  2.87192017319823900D-01  1.69168321066149300D-03 -6.84475916633928500D-03 -6.29870333305318300D-05 -2.78884961182311300D-05
 6  5  0.00000000000000000D+00  2.27865118492493000D-03  1.70136409853573500D-03  0.00000000000000000D+00  1.74383024865188600D-04
 6  6  2.45276421209730100D-04 -4.19659446075073700D-04  1.22243504227046100D-04  0.00000000000000000D+00  0.00000000000000000D+00
 6  7 -8.50546428071491300D-01 -4.03520643803640700D-03  1.15966549133390400D-02  1.97245555891069200D-04  1.29944172661041600D-05
 6  8  0.00000000000000000D+00 -3.13252712269365400D-03  8.80390389720155000D-04  0.00000000000000000D+00 -1.57068019005108600D-04
 6  9 -3.22413092248579600D-04  4.79481111253534700D-04  2.10308367173258700D-04  0.00000000000000000D+00  0.00000000000000000D+00
 6 10 -4.66935621889837000D-03  1.89996657129357400D-05 -1.40688696238955300D-03  2.67481315028556500D-06 -2.88278317431373000D-05
 6 11  0.00000000000000000D+00 -3.24520503491608400D-03 -1.73478283053598600D-03  0.00000000000000000D+00  8.99132023130314000D-05
 6 12  6.41493835241596400D-05 -1.54062585837367000D-04  3.30964772837776000D-04  0.00000000000000000D+00  0.00000000000000000D+00
 6 13  4.21086794329483400D-01  1.78738264086886600D-03 -3.24316335266191300D-03  1.07023636883128100D-04 -4.24186649641722800D-05
 6 14  0.00000000000000000D+00 -6.50107584460014500D-04  1.29481734805728500D-03  0.00000000000000000D+00  7.54947118729379900D-05
 6 15  4.61658935074755000D-05 -1.21660605380421400D-04  9.63266920166743600D-05  0.00000000000000000D+00  0.00000000000000000D+00
 6 16  1.46273033202885200D-01  5.70892712766746800D-04 -1.54328933105062400D-03  2.69330151489245800D-05 -1.03649687590613700D-06
 6 17  0.00000000000000000D+00 -2.06019848097372500D-04  4.64028162444720000D-04  0.00000000000000000D+00 -8.95097515862590400D-05
 6 18  3.12042694534077800D-05  5.83054821327901300D-05  7.92557064606576300D-06  0.00000000000000000D+00  0.00000000000000000D+00
 6 19 -7.75695755681544300D-03 -1.05793565602510900D-04  5.85513771209948100D-04  7.38053679693619300D-04  1.52595740965171800D-05
 6 20  1.41468507733870000D-05  0.00000000000000000D+00 -2.55187862317667100D-04 -2.16907538274370900D-04  0.00000000000000000D+00
 6 21 -8.20006257277901500D-05 -3.49037329048752600D-04  0.00000000000000000D+00 -1.67002143755892500D-06  1.01520492325222300D-05
 6 22 -8.48202779497940300D-06 -8.85268702649414200D-07  0.00000000000000000D+00  0.00000000000000000D+00  6.40645068323875400D-06
 6 23  2.62871590143442800D-05 -3.26936096976753600D-05  1.35755622865618000D-04  0.00000000000000000D+00  0.00000000000000000D+00
 6 24  1.17987661440197300D-02  1.10599210576535000D-04 -6.06917146815101100D-04 -7.41604968123765100D-04 -3.71921774699620000D-05
 6 25  1.93075238042144000D-05  0.00000000000000000D+00  6.40324259889134800D-04 -2.20244980458271500D-04  0.00000000000000000D+00
 6 26  2.51278556070141400D-06 -3.51176998235570300D-04  0.00000000000000000D+00  2.33901756740013700D-06 -1.02699057889723400D-05
 6 27  7.93088822154710800D-06 -1.93855047115777700D-05  0.00000000000000000D+00  0.00000000000000000D+00 -5.87259269437055300D-06
 6 28 -2.47873022768417600D-05  3.06598949712174100D-05  2.52542193272544100D-04  0.00000000000000000D+00  0.00000000000000000D+00
 6 29 -3.04765556207013200D-04 -4.84113899255374400D-04  2.08894164360488700D-04  1.21759614690578800D-04  0.00000000000000000D+00
 6 30  3.67489710199450800D-04 -7.06398752130322000D-05 -3.77736975335348600D-04  2.14476177307839300D-04  0.00000000000000000D+00
 6 31 -9.38284867553957700D-05  6.09279935857505800D-04 -1.58863439085098400D-04 -1.16162667266339400D-04  0.00000000000000000D+00
 6 32  3.02255708460935300D-05 -4.71868092518682700D-05 -1.20287146005080800D-05 -2.20554122438999500D-05  0.00000000000000000D+00
 7  1 -5.15684206974967400D-01 -3.06706516382214100D-03  8.85551575774638100D-04 -2.57258923843365500D-07 -6.20977114190762100D-04
 7  2  0.00000000000000000D+00 -3.53718133654492900D-05 -3.84592942111542400D-03  0.00000000000000000D+00 -2.31762414760761700D-04
 7  3 -1.44218232122635000D-04  3.75980646883451500D-04 -4.15841602760512300D-06  0.00000000000000000D+00  0.00000000000000000D+00
 7  4 -2.39458276771952600D-03  1.00902674795740100D-05 -1.72582713052675900D-03 -1.79256481222557500D-05  4.50015173953108700D-05
 7  5  0.00000000000000000D+00  4.95480918857873900D-04  7.27203923539216500D-04  0.00000000000000000D+00  8.17743192741348600D-05
 7  6  1.07330652274348000D-04 -1.89104971548645000D-04 -2.93163225928288400D-04  0.00000000000000000D+00  0.00000000000000000D+00
 7  7  3.89115762047410900D-03 -4.32910349541706200D-06  1.71332293560682600D-03  1.78465380034351700D-05  4.48672833346713500D-05
 7  8  0.00000000000000000D+00 -4.94312497236753700D-04  7.30468307262597100D-04  0.00000000000000000D+00 -8.11502452096402400D-05
 7  9 -1.07219187251762100D-04  1.88369432461382300D-04 -2.93392807833930400D-04  0.00000000000000000D+00  0.00000000000000000D+00
 7 10  5.14310575990099400D-01  3.06190309095136600D-03 -8.69641194592145300D-04  2.22152092305382900D-07 -6.20400751621692300D-04
 7 11  0.00000000000000000D+00  3.85843393483475800D-05 -3.84973590176639800D-03  0.00000000000000000D+00  2.31876819472641000D-04
 7 12  1.42602515234955400D-04 -3.74479334707750500D-04 -4.39419665233560600D-06  0.00000000000000000D+00  0.00000000000000000D+00
 7 13 -9.35114824287322500D-03 -6.88308894069298100D-05  1.89754611868703700D-03 -2.10332501818250700D-05  4.51667654204693200D-05
 7 14  0.00000000000000000D+00  5.47119378020592700D-04  7.36529123338935900D-04  0.00000000000000000D+00 -8.54961672394161200D-05
 7 15 -1.12476066785958700D-04  1.97972234025528400D-04  2.89426308839071900D-04  0.00000000000000000D+00  0.00000000000000000D+00
 7 16  9.25513781197340700D-03  6.79739132012531500D-05 -1.89665530869672800D-03  2.07400334252326300D-05  4.51968583350609600D-05
 7 17  0.00000000000000000D+00 -5.45861352267541000D-04  7.35579237751872100D-04  0.00000000000000000D+00  8.61692284498088600D-05
 7 18  1.12373027166279900D-04 -1.98542255616042900D-04  2.89446142921903500D-04  0.00000000000000000D+00  0.00000000000000000D+00
 7 19 -4.86191445039232000D-01 -1.64254384127935800D-03  5.69382986778716800D-03  6.25207825920020800D-04 -4.36726242894727400D-07
 7 20  1.10666628112751400D-03  0.00000000000000000D+00  7.61342384703592900D-06 -2.77360744878168500D-03  0.00000000000000000D+00
 7 21  8.01326369060691300D-07  9.68156465681394000D-05  0.00000000000000000D+00  5.98724130167521300D-05 -2.54115468452218300D-04
 7 22  1.94243055435183200D-04  1.61568864310384200D-07  0.00000000000000000D+00  0.00000000000000000D+00 -4.37078408359394500D-04
 7 23  9.86635150948609100D-04 -5.49556742589232400D-04 -3.33687645946393500D-06  0.00000000000000000D+00  0.00000000000000000D+00
 7 24  4.87914374844077700D-01  1.64485003748404100D-03 -5.70383434641891700D-03 -6.27074040823797500D-04  4.72445563829130200D-07
 7 25  1.10896486069448800D-03  0.00000000000000000D+00 -8.15575564891542100D-06 -2.77569870163429400D-03  0.00000000000000000D+00
 7 26 -6.87887424537773500D-07  9.58333003046128000D-05  0.00000000000000000D+00 -5.96010792892327300D-05  2.54096540889346000D-04
 7 27 -1.94495461600038900D-04  1.89785931030214700D-07  0.00000000000000000D+00  0.00000000000000000D+00  4.37381561207250600D-04
 7 28 -9.86301264444479500D-04  5.48919703237248100D-04 -3.50052351678132100D-06  0.00000000000000000D+00  0.00000000000000000D+00
 7 29  6.47209684118020200D-05 -1.74454953037552600D-04 -4.18757122576589100D-05 -5.87404311153732100D-06  0.00000000000000000D+00
 7 30 -6.49348413130045000D-05  1.76787640652841000D-04  4.24928687951351000D-05 -6.26897411080558300D-06  0.00000000000000000D+00
 7 31 -5.78320797337220800D-05  1.73853408520940000D-04 -3.57903258782687700D-05 -1.95933748047520500D-06  0.00000000000000000D+00
 7 32  5.77913139364885300D-05 -1.73077821859786600D-04  3.56484430485662500D-05 -1.82797313690754400D-06  0.00000000000000000D+00
 8  1 -4.88074116134282300D-01 -1.85327507965909600D-03  5.02248042793310100D-03 -2.05387309066016800D-07 -1.98958289098822300D-04
 8  2  0.00000000000000000D+00  1.19190259217318700D-05  2.28804367084046300D-03  0.00000000000000000D+00  1.22969542783929000D-04
 8  3 -5.22614121304391500D-04  3.99644578520448500D-04  8.20865917639492800D-07  0.00000000000000000D+00  0.00000000000000000D+00
 8  4  4.01589097462612300D-03 -9.13676055946323500D-05 -2.02151514686096900D-04  6.42302975595884900D-05 -1.23555098247600200D-05
 8  5  0.00000000000000000D+00 -4.06908823844914300D-04 -5.78278885920882400D-04  0.00000000000000000D+00  2.15361243619818900D-04
 8  6 -7.76113464885706400D-05 -1.37749897131272600D-04 -7.38132843513031800D-06  0.00000000000000000D+00  0.00000000000000000D+00
 8  7  3.73085148101866400D-03 -9.36634965499911300D-05 -1.90840059983543600D-04  6.43722970221504000D-05  1.21122523238659000D-05
 8  8  0.00000000000000000D+00 -4.10465201615221500D-04  5.85827352116694900D-04  0.00000000000000000D+00  2.16636848143915800D-04
 8  9 -7.78670572616212700D-05 -1.38769790882090500D-04  7.81580175458047000D-06  0.00000000000000000D+00  0.00000000000000000D+00
 8 10 -4.91090281208002400D-01 -1.86806669055249800D-03  5.03155028712610900D-03 -1.90688200784053700D-07  2.01227313264819700D-04
 8 11  0.00000000000000000D+00  1.60291941803116600D-05 -2.29274762500917800D-03  0.00000000000000000D+00  1.23116370292345600D-04
 8 12 -5.24325642988730400D-04  4.01209272696358400D-04 -1.31264366275361900D-06  0.00000000000000000D+00  0.00000000000000000D+00
 8 13 -3.84736341988601700D-03 -1.25686153707881800D-04 -1.22978984728482900D-04 -6.61638525314509800D-05  1.26246151004427300D-05
 8 14  0.00000000000000000D+00  4.23726111356034800D-04  5.76166254949305500D-04  0.00000000000000000D+00  2.16585314297762100D-04
 8 15 -7.90969414715057500D-05 -1.37488372826232100D-04 -9.10543857945598400D-06  0.00000000000000000D+00  0.00000000000000000D+00
 8 16 -2.17898490667066400D-03 -1.16599561494499500D-04 -1.53877744523526300D-04 -6.56774014889558900D-05 -1.28328239527500500D-05
 8 17  0.00000000000000000D+00  4.14491542394716300D-04 -5.67887283167858500D-04  0.00000000000000000D+00  2.15808756121643300D-04
 8 18 -7.82740954913232700D-05 -1.37534660630358000D-04  8.25034744522261400D-06  0.00000000000000000D+00  0.00000000000000000D+00
 8 19  5.11854122809510000D-01  7.77307301808091000D-04 -3.44502275452250000D-03 -1.55628567264842500D-03  1.01546867993532900D-07
 8 20 -6.80167092468562300D-04  0.00000000000000000D+00 -1.88537130713362700D-06  8.14048413943506400D-04  0.00000000000000000D+00
 8 21  5.31353295878918800D-07  8.25843961625723200D-04  0.00000000000000000D+00  9.39884767467224400D-05 -2.20777521236518900D-05
 8 22 -7.19107246231399800D-05 -1.06896440721358200D-07  0.00000000000000000D+00  0.00000000000000000D+00  3.87879358935203200D-05
 8 23  1.27451031817251700D-04 -1.66238967711005400D-04  5.11963730132761500D-07  0.00000000000000000D+00  0.00000000000000000D+00
 8 24  5.11801704136380200D-01  7.74900758806334700D-04 -3.44025982399473000D-03 -1.56244825645789500D-03  1.55330232226858400D-07
 8 25  6.78670059751788100D-04  0.00000000000000000D+00 -2.77122805614041100D-06 -8.08676539159632000D-04  0.00000000000000000D+00
 8 26  4.47698526687220200D-07 -8.30210801052277100D-04  0.00000000000000000D+00  9.44015799066131100D-05 -2.29627647428867100D-05
 8 27 -7.14388151637770300D-05  1.24053007796777500D-07  0.00000000000000000D+00  0.00000000000000000D+00  3.75906554789118100D-05
 8 28  1.30818393171469600D-04 -1.68409048650430000D-04 -8.96352726004299800D-07  0.00000000000000000D+00  0.00000000000000000D+00
 8 29  6.17299627862538800D-06  4.34968598636813700D-04  4.86860316802692400D-05  5.05926131350660700D-05  0.00000000000000000D+00
 8 30  6.15095647413959600D-06  4.37606180670652600D-04  4.87658465113846300D-05 -5.09570863306622600D-05  0.00000000000000000D+00
 8 31  7.31456816201680100D-06  4.30682449487693100D-04 -4.63371860659572700D-05 -4.95839752470910000D-05  0.00000000000000000D+00
 8 32  6.56293484186483100D-06  4.28292822588740000D-04 -4.69755806574880100D-05  4.96858795603064200D-05  0.00000000000000000D+00
 9  1 -8.78939606941490200D-03  1.21222159164626200D-01  6.17540081334723200D-02 -1.20350745800773900D-06 -5.66352317959152900D-02
 9  2  0.00000000000000000D+00  7.10728033851421500D-07 -1.45408340105914100D-02  0.00000000000000000D+00  6.42319589381348000D-03
 9  3  4.93744897164240200D-03 -1.13606448654559400D-02  3.72642443729514100D-07  0.00000000000000000D+00  0.00000000000000000D+00
 9  4 -1.01809545645215400D-02  1.62794318892953300D-01  1.00176039006487400D-01 -7.33486044559375300D-03 -5.95141871522416600D-03
 9  5  0.00000000000000000D+00 -1.35521380784310600D-03  3.66902945776166600D-03  0.00000000000000000D+00  1.44427457464374300D-03
 9  6  5.40394611834186700D-03 -6.84822069298561600D-03 -3.26037496093930600D-03  0.00000000000000000D+00  0.00000000000000000D+00
 9  7 -1.01804120365770200D-02  1.62791992857594100D-01  1.00169661374694500D-01 -7.33716050134203400D-03  5.95318638334381800D-03
 9  8  0.00000000000000000D+00 -1.34984016600563100D-03 -3.67003342199890100D-03  0.00000000000000000D+00  1.44373338984472200D-03
 9  9  5.40442076372345900D-03 -6.84815415356815100D-03  3.26146274786858100D-03  0.00000000000000000D+00  0.00000000000000000D+00
 9 10 -8.78890662298587200D-03  1.21230502302584600D-01  6.17625605478259700D-02 -2.56333212904641300D-07  5.66244631209198000D-02
 9 11  0.00000000000000000D+00  4.65227891888398300D-07  1.45405137422728000D-02  0.00000000000000000D+00  6.42250004121267700D-03
 9 12  4.93829971728763100D-03 -1.13607997585003800D-02 -4.74740219087426600D-08  0.00000000000000000D+00  0.00000000000000000D+00
 9 13 -1.01806280554859700D-02  1.62790761440056200D-01  1.00169356881394800D-01  7.33802047763611000D-03  5.95163539241328100D-03
 9 14  0.00000000000000000D+00  1.35023349341099200D-03 -3.67179021214012300D-03  0.00000000000000000D+00  1.44377143541203900D-03
 9 15  5.40427515852326100D-03 -6.84804659393536600D-03 -3.26122908461145500D-03  0.00000000000000000D+00  0.00000000000000000D+00
 9 16 -1.01807746204540900D-02  1.62793337857922200D-01  1.00175767064072200D-01  7.33793548586545600D-03 -5.95013212502296300D-03
 9 17  0.00000000000000000D+00  1.35327414547893600D-03  3.67215011435725900D-03  0.00000000000000000D+00  1.44404452020145400D-03
 9 18  5.40406778848610000D-03 -6.84811230868771200D-03  3.26087994854335700D-03  0.00000000000000000D+00  0.00000000000000000D+00
 9 19 -2.62487776715438100D-03  1.72638416488372100D-01  1.84650643609373600D-01  6.39529017091541200D-03  1.11602538332006500D-06
 9 20  5.53901109910482100D-02  0.00000000000000000D+00  7.36557073344939900D-07  4.48761638339003100D-02  0.00000000000000000D+00
 9 21  1.73155221800164700D-07  1.21023762762884800D-02  0.00000000000000000D+00 -3.64300293428186600D-04  1.18877785667250400D-03
 9 22 -8.24477563244271200D-04  2.52832224370579400D-08  0.00000000000000000D+00  0.00000000000000000D+00  9.53566919589355500D-04
 9 23 -2.11043814141365800D-03  1.15687122182434200D-03 -3.82492024451605200D-08  0.00000000000000000D+00  0.00000000000000000D+00
 9 24 -2.62469024343337100D-03  1.72615835096167700D-01  1.84621085855220400D-01  6.39117799874414400D-03  1.84863675605896200D-07
 9 25 -5.53620522611992800D-02  0.00000000000000000D+00  1.08353323489355100D-07 -4.48596683687596600D-02  0.00000000000000000D+00
 9 26  1.11936098317726800D-07 -1.21012269256888700D-02  0.00000000000000000D+00 -3.64876056034309000D-04  1.18983211168711500D-03
 9 27 -8.24956055652962000D-04 -1.15197441002014500D-08  0.00000000000000000D+00  0.00000000000000000D+00  9.53183395509423600D-04
 9 28 -2.10982542927249200D-03  1.15664203376308200D-03  4.26007792190255200D-08  0.00000000000000000D+00  0.00000000000000000D+00
 9 29  8.22994949735546300D-02  1.53680339129923000D-02 -9.37025238372587800D-03 -5.59943570809047000D-03  0.00000000000000000D+00
 9 30  8.22931460864947300D-02  1.53658146060927500D-02 -9.36998006449034400D-03  5.59914843347020100D-03  0.00000000000000000D+00
 9 31  8.22924342991217900D-02  1.53661558285894500D-02  9.36985217745522200D-03  5.59921248427815300D-03  0.00000000000000000D+00
 9 32  8.22949972097923200D-02  1.53672158967063700D-02  9.36996542035980200D-03 -5.59937057752947800D-03  0.00000000000000000D+00
10  1 -5.24456441644610800D-03 -6.97900080187816700D-02 -7.31864812754078300D-02 -1.87108703522528800D-07 -1.21516606968220700D-01
10  2  0.00000000000000000D+00 -1.89167894063242700D-07 -3.65109501443696100D-02  0.00000000000000000D+00  4.41246893824792700D-03
10  3 -6.71935848036418900D-03  2.30688954211632600D-03  3.25030396542657500D-07  0.00000000000000000D+00  0.00000000000000000D+00
10  4 -3.61324602356739200D-04  1.87350777925868000D-02  2.24522298475772200D-02 -5.51484116626823700D-03  6.12139882176352000D-03
10  5  0.00000000000000000D+00 -1.29242079230416400D-02  8.27033246846783600D-03  0.00000000000000000D+00  3.50282238384057400D-03
10  6 -3.44231824262166400D-03 -6.05041412188656000D-05  2.24115203806524300D-03  0.00000000000000000D+00  0.00000000000000000D+00
10  7  3.81893018008873300D-04 -1.91277850745109500D-02 -2.26594622159455700D-02  5.42380252959003300D-03  6.02507295903920900D-03
10  8  0.00000000000000000D+00  1.28549285817543400D-02  8.21814258892020200D-03  0.00000000000000000D+00 -3.48527206146714700D-03
10  9  3.41423305942108000D-03  7.10390020460400500D-05  2.21627210872635900D-03  0.00000000000000000D+00  0.00000000000000000D+00
10 10  5.23614479686007000D-03  6.90998287227041200D-02  7.26662377545991300D-02  1.47007973120862500D-07 -1.20938127822433200D-01
10 11  0.00000000000000000D+00  4.08686308368148500D-07 -3.63380505670248200D-02  0.00000000000000000D+00 -4.40169203560740800D-03
10 12  6.66545204815759100D-03 -2.26376001255011700D-03  1.92126570495996500D-08  0.00000000000000000D+00  0.00000000000000000D+00
10 13  3.81898770772257100D-04 -1.91276327821324800D-02 -2.26591495123575000D-02 -5.42373617227369000D-03  6.02598348310474200D-03
10 14  0.00000000000000000D+00 -1.28544009069701500D-02  8.21785046523811200D-03  0.00000000000000000D+00 -3.48534738514401900D-03
10 15  3.41433019092513600D-03  7.10171942187265800D-05 -2.21619037311665800D-03  0.00000000000000000D+00  0.00000000000000000D+00
10 16 -3.61313031909988900D-04  1.87358320199437100D-02  2.24531944186982700D-02  5.51605195629547800D-03  6.12141979642771600D-03
10 17  0.00000000000000000D+00  1.29240865677574600D-02  8.27000867916545200D-03  0.00000000000000000D+00  3.50286091051977000D-03
10 18 -3.44240270333115900D-03 -6.04582071886553100D-05 -2.24104330053215300D-03  0.00000000000000000D+00  0.00000000000000000D+00
10 19 -2.16453278820892500D-03  2.63064885006850100D-01  3.58108044498829000D-01  5.83188067116728100D-02  4.09569478476315800D-06
10 20  2.86282014150132600D-01  0.00000000000000000D+00  2.66222987401414400D-06  1.60589696498649100D-01  0.00000000000000000D+00
10 21  2.30993515732374900D-07  8.21115358444514700D-03  0.00000000000000000D+00  5.89940338599880900D-03 -1.04012226034587200D-02
10 22  4.50181921745990200D-03 -2.03954733986483000D-07  0.00000000000000000D+00  0.00000000000000000D+00  3.80914721243005500D-03
10 23 -5.37775777597698000D-03  1.56861056354681900D-03 -1.38717963131199600D-07  0.00000000000000000D+00  0.00000000000000000D+00
10 24  2.15957186978965300D-03 -2.62109879673396700D-01 -3.56656177483600600D-01 -5.80161070899278800D-02 -1.22320433981215000D-06
10 25  2.84815486611629800D-01  0.00000000000000000D+00 -7.60474050517914500D-07  1.59809514069744800D-01  0.00000000000000000D+00
10 26 -1.75495483522127400D-08  8.18963275977044200D-03  0.00000000000000000D+00 -5.86477964225374800D-03  1.03382410184453400D-02
10 27 -4.47346137619167400D-03 -8.43626471329132500D-08  0.00000000000000000D+00  0.00000000000000000D+00 -3.79024130325162500D-03
10 28  5.35490130078794800D-03 -1.56465999753631500D-03 -6.73095243835359000D-08  0.00000000000000000D+00  0.00000000000000000D+00
10 29  1.22341769415039200D-02  3.73884175640074900D-03 -8.23123129414004300D-04 -3.04872267488386200D-04  0.00000000000000000D+00
10 30 -1.24275508707902000D-02 -3.73841236862405900D-03  8.46549523995615000D-04 -3.24909612748718000D-04  0.00000000000000000D+00
10 31 -1.24278961680280300D-02 -3.73850660535906600D-03 -8.46588934844455700D-04 -3.24914863276684600D-04  0.00000000000000000D+00
10 32  1.22338224757545900D-02  3.73884307968702000D-03  8.23093545795980600D-04 -3.04923915612925000D-04  0.00000000000000000D+00
11  1  1.75318136762447500D-03  1.39330511611166900D-01  1.06161922607806900D-01 -7.98299985028667800D-08  1.20088927973083100D-01
11  2  0.00000000000000000D+00  6.79182593706698100D-07  3.57498520070409900D-02  0.00000000000000000D+00 -2.36593581117615700D-03
11  3  1.10032801099870700D-02 -8.63734429881092700D-03 -9.47085760525077200D-08  0.00000000000000000D+00  0.00000000000000000D+00
11  4 -3.96957566269801400D-03  7.65495460766749800D-02  3.98496806193480900D-02  1.90328934592572300D-02 -1.83357191806949200D-02
11  5  0.00000000000000000D+00  1.43984993201837500D-02 -1.04355373538612000D-02  0.00000000000000000D+00 -3.59660827507799400D-03
11  6  5.59265950450392900D-03 -1.99605122942570600D-03 -5.08748259363339300D-03  0.00000000000000000D+00  0.00000000000000000D+00
11  7 -3.96709655679317300D-03  7.64511271577284200D-02  3.97294645828410500D-02  1.90555657187619400D-02  1.83688480817023300D-02
11  8  0.00000000000000000D+00  1.44643398628488000D-02  1.04754156031009900D-02  0.00000000000000000D+00 -3.61432915615922100D-03
11  9  5.60990414545964100D-03 -1.99557498930046600D-03  5.09942881659744900D-03  0.00000000000000000D+00  0.00000000000000000D+00
11 10  1.77851862761719300D-03  1.39666894173745900D-01  1.06524124584116700D-01  1.38672064743490300D-07 -1.20678805711626400D-01
11 11  0.00000000000000000D+00  6.43039682048028100D-07 -3.59264277665192500D-02  0.00000000000000000D+00 -2.38810405638969000D-03
11 12  1.10361662793747400D-02 -8.64806222298518400D-03 -6.43761743835311900D-08  0.00000000000000000D+00  0.00000000000000000D+00
11 13 -3.96734711918600800D-03  7.64517717498743200D-02  3.97313721498551400D-02 -1.90556517239718500D-02  1.83703830531177400D-02
11 14  0.00000000000000000D+00 -1.44635617648926700D-02  1.04750926866847600D-02  0.00000000000000000D+00 -3.61447432077831400D-03
11 15  5.61004508994802700D-03 -1.99557076916965800D-03 -5.09935513299344300D-03  0.00000000000000000D+00  0.00000000000000000D+00
11 16 -3.96953251798467100D-03  7.65500527066034800D-02  3.98498018659997400D-02 -1.90338821694420500D-02 -1.83369740477551100D-02
11 17  0.00000000000000000D+00 -1.44003466926266600D-02 -1.04336858612336900D-02  0.00000000000000000D+00 -3.59698788466530000D-03
11 18  5.59300366257141700D-03 -1.99601577790588900D-03  5.08766658387504800D-03  0.00000000000000000D+00  0.00000000000000000D+00
11 19  9.84616624136016100D-04 -1.97318424434803500D-01 -2.98566671896769000D-01 -6.17721797099724000D-02 -4.08810919501003800D-06
11 20 -3.00406373805648400D-01  0.00000000000000000D+00 -2.70458961272235700D-06 -1.60365413764942500D-01  0.00000000000000000D+00
11 21 -2.23109320093040700D-07 -4.68768216103162100D-03  0.00000000000000000D+00 -7.06542769738242600D-03  1.28437484409870900D-02
11 22 -5.77832074360458400D-03  2.48481585294878900D-07  0.00000000000000000D+00  0.00000000000000000D+00 -3.92791349038189400D-03
11 23  4.81154583185815700D-03 -8.83632341476435300D-04  1.57885415804340000D-07  0.00000000000000000D+00  0.00000000000000000D+00
11 24  9.95056218886350000D-04 -1.98607160293667600D-01 -3.00314084941592300D-01 -6.20545192287232500D-02 -1.21843653448635400D-06
11 25  3.01796245100180300D-01  0.00000000000000000D+00 -7.80848556483067600D-07  1.61148126835679500D-01  0.00000000000000000D+00
11 26  8.00537361730810000D-09  4.72852607887432400D-03  0.00000000000000000D+00 -7.09388961020062500D-03  1.28938545258514900D-02
11 27 -5.79996491565087400D-03 -1.04636270040160100D-07  0.00000000000000000D+00  0.00000000000000000D+00 -3.94675794540736000D-03
11 28  4.83837826739759700D-03 -8.91620321990210600D-04 -6.83706535530144300D-08  0.00000000000000000D+00  0.00000000000000000D+00
11 29  3.82439126036116900D-02 -4.12926318574976400D-04 -4.64297758796888100D-03 -3.97457914070774000D-03  0.00000000000000000D+00
11 30  3.81738151135548500D-02 -4.35178754540188600D-04 -4.63839670805071300D-03  3.97254995386688100D-03  0.00000000000000000D+00
11 31  3.81731425458266700D-02 -4.35265161872002600D-04  4.63834099602011000D-03  3.97261813411435400D-03  0.00000000000000000D+00
11 32  3.82423582967206200D-02 -4.13769091598601600D-04  4.64295411564288400D-03 -3.97459544995915100D-03  0.00000000000000000D+00
12  1  9.37527808074513900D-03 -2.41034280512365400D-01 -1.17838930803488600D-01  8.05118680806184100D-07 -1.01634375594801200D-02
12  2  0.00000000000000000D+00 -1.30349515321242200D-06  1.45337066352972100D-02  0.00000000000000000D+00 -4.97180279866713200D-03
12  3 -1.07758158230094800D-02  1.57476186216766900D-02  3.12917181113382600D-07  0.00000000000000000D+00  0.00000000000000000D+00
12  4  7.08100375913088600D-03 -1.21017494168483600D-01 -1.04132615908052500D-01  2.64221526104580600D-02 -8.26153041177920400D-02
12  5  0.00000000000000000D+00  2.34079069206867000D-02 -1.32926165422783400D-02  0.00000000000000000D+00 -1.06242150998402500D-02
12  6  5.18330327186869000D-03  5.44091182797152100D-03  1.11235306551532000D-02  0.00000000000000000D+00  0.00000000000000000D+00
12  7 -7.08422377040788900D-03  1.21064554280611400D-01  1.04176861464875700D-01 -2.63801081399783100D-02 -8.25016959345338100D-02
12  8  0.00000000000000000D+00 -2.34036015605558000D-02 -1.32556609391380000D-02  0.00000000000000000D+00  1.06164433332230400D-02
12  9 -5.17505279868054600D-03 -5.44139053454235800D-03  1.11203151765424500D-02  0.00000000000000000D+00  0.00000000000000000D+00
12 10 -9.37261701108596900D-03  2.40913290170777500D-01  1.17741390677724900D-01 -1.42240630620317400D-06 -1.01494559140786000D-02
12 11  0.00000000000000000D+00 -2.92236866006783300D-07  1.45021609257811000D-02  0.00000000000000000D+00  4.97048791674079100D-03
12 12  1.07724446857089200D-02 -1.57429326024497300D-02 -9.68531456624736400D-07  0.00000000000000000D+00  0.00000000000000000D+00
12 13 -7.08569168537007400D-03  1.21084165773013200D-01  1.04188709486659400D-01  2.63754087017461500D-02 -8.24910422664235800D-02
12 14  0.00000000000000000D+00  2.34015108487251100D-02 -1.32518467304748400D-02  0.00000000000000000D+00  1.06151782406045500D-02
12 15 -5.17302239796787200D-03 -5.44215584263670800D-03 -1.11210086536550600D-02  0.00000000000000000D+00  0.00000000000000000D+00
12 16  7.07946359040112300D-03 -1.20996562660573100D-01 -1.04123341311731900D-01 -2.64311732249235100D-02 -8.26283067010523000D-02
12 17  0.00000000000000000D+00 -2.34079526708106500D-02 -1.32989014478680400D-02  0.00000000000000000D+00 -1.06245450705261300D-02
12 18  5.18419470250111600D-03  5.44035036802499500D-03 -1.11244301410872900D-02  0.00000000000000000D+00  0.00000000000000000D+00
12 19  4.62474608443410000D-03 -8.29880654213557400D-02 -5.26274481359934300D-02  2.23712338496823100D-02  1.46448547165846800D-06
12 20  1.24536580019825900D-01  0.00000000000000000D+00  1.02195070421137100D-06  5.58385030470635100D-02  0.00000000000000000D+00
12 21  5.50923668002020800D-09 -9.08175134768035200D-03  0.00000000000000000D+00  5.11666072295614400D-03 -9.99458331220620700D-03
12 22  4.87792258924999100D-03 -1.48726115198429300D-07  0.00000000000000000D+00  0.00000000000000000D+00  2.42196776501949100D-03
12 23 -2.21259980408206800D-03 -2.09367960937545500D-04 -2.52065133438491900D-08  0.00000000000000000D+00  0.00000000000000000D+00
12 24 -4.62187750483214300D-03  8.29271010742717900D-02  5.25810961823836400D-02 -2.23666956095736500D-02 -1.23345584802865700D-07
12 25  1.24479353256421100D-01  0.00000000000000000D+00 -2.30641192710745300D-07  5.58176016250596400D-02  0.00000000000000000D+00
12 26 -1.76235100727888100D-07 -9.07842668770636500D-03  0.00000000000000000D+00 -5.11388820645238300D-03  9.98910138898074700D-03
12 27 -4.87521318252817000D-03 -9.68677896525963400D-08  0.00000000000000000D+00  0.00000000000000000D+00 -2.42112957717188700D-03
12 28  2.21187490386830700D-03  2.09254673303596500D-04 -1.91802659152585500D-07  0.00000000000000000D+00  0.00000000000000000D+00
12 29 -8.26892251693940600D-02 -2.18293376068448900D-02  1.00410158345389300D-02  3.63058748485102300D-03  0.00000000000000000D+00
12 30  8.26906315020291000D-02  2.18258453664877200D-02 -1.00409440320140200D-02  3.63378691556758500D-03  0.00000000000000000D+00
12 31  8.26992289649637500D-02  2.18263620767900500D-02  1.00419963352833100D-02  3.63487582846044900D-03  0.00000000000000000D+00
12 32 -8.26752371081521700D-02 -2.18265560330255100D-02 -1.00398154411596800D-02  3.62977092492651600D-03  0.00000000000000000D+00
13  1  3.02221870384575000D-07 -2.57637588699015200D-05 -2.14050940564298100D-05 -2.62835148905672800D-02 -1.00807227073188500D-05
13  2  0.00000000000000000D+00 -5.50338510428662700D-03  5.69406074820724300D-06  0.00000000000000000D+00  2.64903398832124100D-07
13  3 -8.44635681879526100D-07  5.79732283042861800D-07  1.50584744162965800D-02  0.00000000000000000D+00  0.00000000000000000D+00
13  4  1.45997482575780200D-02 -2.07080979532412500D-01 -1.26858107440504400D-01 -5.65113930226959900D-02  1.07202245971755200D-01
13  5  0.00000000000000000D+00 -1.30660208577337500D-02  3.91494655202671400D-02  0.00000000000000000D+00  8.13467457768639200D-03
13  6 -1.52528597684815400D-02  7.11818519079508500D-03 -1.73199055739485600D-05  0.00000000000000000D+00  0.00000000000000000D+00
13  7  1.45993543130531300D-02 -2.07075952689354300D-01 -1.26854552155757300D-01 -5.64996751849945500D-02 -1.07204788033969900D-01
13  8  0.00000000000000000D+00 -1.30622617051606000D-02 -3.91472889097523000D-02  0.00000000000000000D+00  8.13424691878727100D-03
13  9 -1.52527426720454000D-02  7.11849575325815200D-03  1.45547976280953600D-05  0.00000000000000000D+00  0.00000000000000000D+00
13 10  1.21860155069508600D-06 -4.85707152210557700D-05 -3.25747220899289800D-05 -2.62788446470129200D-02  8.81110659674946900D-06
13 11  0.00000000000000000D+00 -5.50200383613481300D-03 -6.78249616695283400D-06  0.00000000000000000D+00 -4.90368464713208600D-07
13 12 -1.56668931692717800D-06  2.05705778167124500D-06 -1.50575378098179900D-02  0.00000000000000000D+00  0.00000000000000000D+00
13 13 -1.46020696407869200D-02  2.07104891789111800D-01  1.26871548193917700D-01 -5.65267608146302500D-02  1.07291429662446000D-01
13 14  0.00000000000000000D+00 -1.30668394257922200D-02  3.91713151637686600D-02  0.00000000000000000D+00 -8.14064596177722200D-03
13 15  1.52592683926101000D-02 -7.11862243083294200D-03  1.78082150400098900D-05  0.00000000000000000D+00  0.00000000000000000D+00
13 16 -1.46037868109773000D-02  2.07137403704394100D-01  1.26903802273018900D-01 -5.65372421495651800D-02 -1.07269830645873600D-01
13 17  0.00000000000000000D+00 -1.30685760575260000D-02 -3.91703907942959500D-02  0.00000000000000000D+00 -8.13872261886122000D-03
13 18  1.52583147504786600D-02 -7.11959213161744000D-03 -1.83962263346677000D-05  0.00000000000000000D+00  0.00000000000000000D+00
13 19  6.73021256827704200D-07 -1.51270504261322800D-05 -1.12979938490496700D-05  6.92444198522481300D-07  2.98322897127095100D-03
13 20  1.76382531019978100D-05  0.00000000000000000D+00  6.02166855553922700D-06  7.94839667542462900D-06  0.00000000000000000D+00
13 21 -2.53169815427280800D-03 -3.83912776122703800D-08  0.00000000000000000D+00  7.78326689716178900D-07 -1.51266677147659500D-06
13 22  7.34340081743088900D-07  5.93803587214662600D-04  0.00000000000000000D+00  0.00000000000000000D+00  3.14903502671299600D-07
13 23 -5.42916945749067600D-07  2.28013443113221500D-07  2.56496757372188000D-03  0.00000000000000000D+00  0.00000000000000000D+00
13 24  1.05482876934536300D-06 -2.07965128935270700D-05 -1.39452626897334900D-05  3.03071265142727300D-06  2.98130057702165800D-03
13 25 -2.79487398085315700D-05  0.00000000000000000D+00  4.17059617298023200D-06 -1.24664670266829200D-05  0.00000000000000000D+00
13 26 -2.53196776109605200D-03  1.05998460341543500D-06  0.00000000000000000D+00  1.18648573841772200D-06 -2.31915252884266200D-06
13 27  1.13266679040663000D-06 -5.93775564519735000D-04  0.00000000000000000D+00  0.00000000000000000D+00  5.45017614414049200D-07
13 28 -7.79768558498743500D-07  2.34750944084667200D-07 -2.56477966295182500D-03  0.00000000000000000D+00  0.00000000000000000D+00
13 29 -1.01853696454915000D-01 -1.40919354338990000D-02  1.04112236215795100D-02  9.72315954342453300D-03  0.00000000000000000D+00
13 30 -1.01836996091410600D-01 -1.40868634673193600D-02  1.04105108309476400D-02 -9.72208722491368200D-03  0.00000000000000000D+00
13 31  1.01832750390811600D-01  1.40827390235176300D-02  1.04099693706914000D-02  9.72420792126769100D-03  0.00000000000000000D+00
13 32  1.01868788241267900D-01  1.40937065968510300D-02  1.04129090638988400D-02 -9.72597396507917300D-03  0.00000000000000000D+00
14  1  4.59684503841712800D-03 -2.00732643988623400D-01 -1.52186587810502800D-01  7.36767220664980900D-06 -4.39010823662607600D-02
14  2  0.00000000000000000D+00  1.64277634676601600D-06  4.59720373530303300D-02  0.00000000000000000D+00 -2.44544374290907700D-05
14  3 -7.88253819276594900D-03  7.90699263019509400D-03 -3.08521511394634600D-06  0.00000000000000000D+00  0.00000000000000000D+00
14  4 -7.76561153591342500D-03  1.04768393908898500D-01  8.57422916210023000D-02  7.68207733838254500D-02 -1.89250729982938200D-01
14  5  0.00000000000000000D+00  5.22215478738916700D-03 -6.39077441598032800D-02  0.00000000000000000D+00 -1.27695120684922600D-02
14  6  1.46735811764825400D-02 -1.90406910799030600D-03  5.86312866008796400D-03  0.00000000000000000D+00  0.00000000000000000D+00
14  7 -7.75909802008347900D-03  1.04662257742710800D-01  8.56275827021598100D-02  7.68198348023571700D-02  1.89321629643791100D-01
14  8  0.00000000000000000D+00  5.24203103437976800D-03  6.39147840683245300D-02  0.00000000000000000D+00 -1.27785717421430100D-02
14  9  1.46790043048154900D-02 -1.90043256267245200D-03 -5.86475712216788800D-03  0.00000000000000000D+00  0.00000000000000000D+00
14 10  4.60210252900695800D-03 -2.00847986684323400D-01 -1.52219928263818700D-01  5.52177904809242100D-06  4.38594377553090400D-02
14 11  0.00000000000000000D+00  2.11348608141224800D-06 -4.59675200586734300D-02  0.00000000000000000D+00 -3.66578605824796400D-05
14 12 -7.87851618242057200D-03  7.91517404300306900D-03  2.78782249762031900D-06  0.00000000000000000D+00  0.00000000000000000D+00
14 13 -7.75374384295264400D-03  1.04582077598676100D-01  8.55749191999437700D-02 -7.67915532966011200D-02  1.89291775836816500D-01
14 14  0.00000000000000000D+00 -5.23438952546856100D-03  6.38989346440205500D-02  0.00000000000000000D+00 -1.27760126900128500D-02
14 15  1.46735675365770700D-02 -1.89755484656412400D-03  5.86460499280833300D-03  0.00000000000000000D+00  0.00000000000000000D+00
14 16 -7.76046935772053100D-03  1.04692224516164800D-01  8.56974275191650000D-02 -7.68019910114216400D-02 -1.89217787412338200D-01
14 17  0.00000000000000000D+00 -5.21780958607316000D-03 -6.38931634317936600D-02  0.00000000000000000D+00 -1.27664487646612100D-02
14 18  1.46678145983134800D-02 -1.90136583365233500D-03 -5.86371072431195600D-03  0.00000000000000000D+00  0.00000000000000000D+00
14 19  4.98392482865773800D-03 -9.84531480947589100D-02 -7.58742533855807900D-02  7.95640855402014000D-03  9.69552005171574400D-07
14 20  1.16429482796953500D-01  0.00000000000000000D+00  9.44805904043508900D-07  5.14135812089715300D-02  0.00000000000000000D+00
14 21  6.88850579523902800D-07 -3.49645957160310900D-03  0.00000000000000000D+00  5.00689885833012600D-03 -9.93735672407956500D-03
14 22  4.93045786574941200D-03 -2.73247429790960100D-07  0.00000000000000000D+00  0.00000000000000000D+00  2.16374121366994700D-03
14 23 -2.56505764937087800D-03  4.01316435700964000D-04 -6.13967939560596100D-07  0.00000000000000000D+00  0.00000000000000000D+00
14 24  4.98511284896308000D-03 -9.84644421234168700D-02 -7.58772274974583000D-02  7.96861953647157900D-03 -4.29587081010927900D-07
14 25 -1.16451460103964700D-01  0.00000000000000000D+00 -1.66149377317870800D-07 -5.14252337748344500D-02  0.00000000000000000D+00
14 26  6.05489707656013600D-07  3.50359096803013600D-03  0.00000000000000000D+00  5.00800414918471500D-03 -9.93951230897785100D-03
14 27  4.93150815979320900D-03  1.41254919441107900D-07  0.00000000000000000D+00  0.00000000000000000D+00  2.16590604803743300D-03
14 28 -2.56819900762833300D-03  4.02292959590949900D-04  5.00431941149790300D-07  0.00000000000000000D+00  0.00000000000000000D+00
14 29  2.56915390961266000D-02 -4.40809169355779700D-05 -2.06067000995898400D-03 -6.48720022566278000D-03  0.00000000000000000D+00
14 30  2.55985663435187100D-02 -7.31737757364535300D-05 -2.05198389258036900D-03  6.48316124181639400D-03  0.00000000000000000D+00
14 31  2.55495077964721100D-02 -8.14473932759939200D-05  2.04735526132010300D-03  6.47920424663138000D-03  0.00000000000000000D+00
14 32  2.56515156831053700D-02 -4.91770385000949000D-05  2.05658900301736300D-03 -6.48343365188751500D-03  0.00000000000000000D+00
15  1  0.00000000000000000D+00  0.00000000000000000D+00  0.00000000000000000D+00  0.00000000000000000D+00  0.00000000000000000D+00
15  2 -2.35761404235701200D-01  0.00000000000000000D+00  0.00000000000000000D+00 -1.15693872432812800D-01  0.00000000000000000D+00
15  3  0.00000000000000000D+00  0.00000000000000000D+00  0.00000000000000000D+00  5.69104084686415900D-08 -1.73228066655303100D-02
15  4  0.00000000000000000D+00  0.00000000000000000D+00  0.00000000000000000D+00  0.00000000000000000D+00  0.00000000000000000D+00
15  5 -1.06032954788377400D-01  0.00000000000000000D+00  0.00000000000000000D+00 -5.16037503079619000D-02  0.00000000000000000D+00
15  6  0.00000000000000000D+00  0.00000000000000000D+00  0.00000000000000000D+00  1.05136640137581600D-02  2.58560139238504900D-03
15  7  0.00000000000000000D+00  0.00000000000000000D+00  0.00000000000000000D+00  0.00000000000000000D+00  0.00000000000000000D+00
15  8 -1.05830644272915200D-01  0.00000000000000000D+00  0.00000000000000000D+00 -5.14897440466785100D-02  0.00000000000000000D+00
15  9  0.00000000000000000D+00  0.00000000000000000D+00  0.00000000000000000D+00  1.04675514776736300D-02 -2.62538216695089200D-03
15 10  0.00000000000000000D+00  0.00000000000000000D+00  0.00000000000000000D+00  0.00000000000000000D+00  0.00000000000000000D+00
15 11 -2.34603122919659700D-01  0.00000000000000000D+00  0.00000000000000000D+00 -1.15105108663396500D-01  0.00000000000000000D+00
15 12  0.00000000000000000D+00  0.00000000000000000D+00  0.00000000000000000D+00  1.32876956773018600D-08  1.71974487534986700D-02
15 13  0.00000000000000000D+00  0.00000000000000000D+00  0.00000000000000000D+00  0.00000000000000000D+00  0.00000000000000000D+00
15 14 -1.05833134207749000D-01  0.00000000000000000D+00  0.00000000000000000D+00 -5.14900948035805800D-02  0.00000000000000000D+00
15 15  0.00000000000000000D+00  0.00000000000000000D+00  0.00000000000000000D+00 -1.04676830046435100D-02 -2.62571010693963500D-03
15 16  0.00000000000000000D+00  0.00000000000000000D+00  0.00000000000000000D+00  0.00000000000000000D+00  0.00000000000000000D+00
15 17 -1.06036596438194000D-01  0.00000000000000000D+00  0.00000000000000000D+00 -5.16044898749075800D-02  0.00000000000000000D+00
15 18  0.00000000000000000D+00  0.00000000000000000D+00  0.00000000000000000D+00 -1.05138404232643100D-02  2.58566278102850100D-03
15 19  0.00000000000000000D+00  0.00000000000000000D+00  0.00000000000000000D+00  0.00000000000000000D+00  0.00000000000000000D+00
15 20  0.00000000000000000D+00 -2.90326429722718000D-01  0.00000000000000000D+00  0.00000000000000000D+00 -2.06467507743280400D-01
15 21  0.00000000000000000D+00  0.00000000000000000D+00 -2.13323410655579700D-02  0.00000000000000000D+00  0.00000000000000000D+00
15 22  0.00000000000000000D+00  0.00000000000000000D+00  1.01731484833487100D-07  1.56202298937054100D-02  0.00000000000000000D+00
15 23  0.00000000000000000D+00  0.00000000000000000D+00  0.00000000000000000D+00  6.72511408509059700D-08  1.93506959161077400D-02
15 24  0.00000000000000000D+00  0.00000000000000000D+00  0.00000000000000000D+00  0.00000000000000000D+00  0.00000000000000000D+00
15 25  0.00000000000000000D+00 -2.88730134028668200D-01  0.00000000000000000D+00  0.00000000000000000D+00 -2.05322559599404000D-01
15 26  0.00000000000000000D+00  0.00000000000000000D+00 -2.11950858448655100D-02  0.00000000000000000D+00  0.00000000000000000D+00
15 27  0.00000000000000000D+00  0.00000000000000000D+00  5.34658823581036500D-08 -1.55385593070748700D-02  0.00000000000000000D+00
15 28  0.00000000000000000D+00  0.00000000000000000D+00  0.00000000000000000D+00  6.75764008802551600D-08 -1.92448814883621500D-02
15 29  0.00000000000000000D+00  0.00000000000000000D+00  0.00000000000000000D+00  0.00000000000000000D+00 -3.64202241403280600D-03
15 30  0.00000000000000000D+00  0.00000000000000000D+00  0.00000000000000000D+00  0.00000000000000000D+00 -3.63301257114417900D-03
15 31  0.00000000000000000D+00  0.00000000000000000D+00  0.00000000000000000D+00  0.00000000000000000D+00 -3.63303526412912800D-03
15 32  0.00000000000000000D+00  0.00000000000000000D+00  0.00000000000000000D+00  0.00000000000000000D+00 -3.64190672192190500D-03
16  1  0.00000000000000000D+00  0.00000000000000000D+00  0.00000000000000000D+00  0.00000000000000000D+00  0.00000000000000000D+00
16  2  2.39973622651031400D-01  0.00000000000000000D+00  0.00000000000000000D+00  1.22414718363151500D-01  0.00000000000000000D+00
16  3  0.00000000000000000D+00  0.00000000000000000D+00  0.00000000000000000D+00  2.08430535209651000D-07  2.57262244177967700D-02
16  4  0.00000000000000000D+00  0.00000000000000000D+00  0.00000000000000000D+00  0.00000000000000000D+00  0.00000000000000000D+00
16  5  4.23769271121230800D-02  0.00000000000000000D+00  0.00000000000000000D+00  2.38101128779937100D-02  0.00000000000000000D+00
16  6  0.00000000000000000D+00  0.00000000000000000D+00  0.00000000000000000D+00 -9.60278548295435300D-03  8.35884501920510500D-03
16  7  0.00000000000000000D+00  0.00000000000000000D+00  0.00000000000000000D+00  0.00000000000000000D+00  0.00000000000000000D+00
16  8 -4.29189722135191500D-02  0.00000000000000000D+00  0.00000000000000000D+00 -2.40816112293957900D-02  0.00000000000000000D+00
16  9  0.00000000000000000D+00  0.00000000000000000D+00  0.00000000000000000D+00  9.65448347560434600D-03  8.34345932108716700D-03
16 10  0.00000000000000000D+00  0.00000000000000000D+00  0.00000000000000000D+00  0.00000000000000000D+00  0.00000000000000000D+00
16 11 -2.41102244662179200D-01  0.00000000000000000D+00  0.00000000000000000D+00 -1.22969242921776300D-01  0.00000000000000000D+00
16 12  0.00000000000000000D+00  0.00000000000000000D+00  0.00000000000000000D+00 -1.38634843243940300D-08  2.58030257764758200D-02
16 13  0.00000000000000000D+00  0.00000000000000000D+00  0.00000000000000000D+00  0.00000000000000000D+00  0.00000000000000000D+00
16 14 -4.29209611712409400D-02  0.00000000000000000D+00  0.00000000000000000D+00 -2.40834932174390100D-02  0.00000000000000000D+00
16 15  0.00000000000000000D+00  0.00000000000000000D+00  0.00000000000000000D+00 -9.65461064058616500D-03  8.34354243876049200D-03
16 16  0.00000000000000000D+00  0.00000000000000000D+00  0.00000000000000000D+00  0.00000000000000000D+00  0.00000000000000000D+00
16 17  4.23753281824114700D-02  0.00000000000000000D+00  0.00000000000000000D+00  2.38086791388645300D-02  0.00000000000000000D+00
16 18  0.00000000000000000D+00  0.00000000000000000D+00  0.00000000000000000D+00  9.60299678850783400D-03  8.35938812784221700D-03
16 19  0.00000000000000000D+00  0.00000000000000000D+00  0.00000000000000000D+00  0.00000000000000000D+00  0.00000000000000000D+00
16 20  0.00000000000000000D+00  3.30454542994728200D-01  0.00000000000000000D+00  0.00000000000000000D+00  2.37347154706623400D-01
16 21  0.00000000000000000D+00  0.00000000000000000D+00  2.86951116435124000D-02  0.00000000000000000D+00  0.00000000000000000D+00
16 22  0.00000000000000000D+00  0.00000000000000000D+00 -1.04419443020891400D-07 -1.68043244313599600D-02  0.00000000000000000D+00
16 23  0.00000000000000000D+00  0.00000000000000000D+00  0.00000000000000000D+00 -1.08779681096523900D-07 -2.20218830079106400D-02
16 24  0.00000000000000000D+00  0.00000000000000000D+00  0.00000000000000000D+00  0.00000000000000000D+00  0.00000000000000000D+00
16 25  0.00000000000000000D+00 -3.31815279455938700D-01  0.00000000000000000D+00  0.00000000000000000D+00 -2.38313678046201700D-01
16 26  0.00000000000000000D+00  0.00000000000000000D+00 -2.87934955782105500D-02  0.00000000000000000D+00  0.00000000000000000D+00
16 27  0.00000000000000000D+00  0.00000000000000000D+00  6.18022789794580700D-08 -1.68778139763903100D-02  0.00000000000000000D+00
16 28  0.00000000000000000D+00  0.00000000000000000D+00  0.00000000000000000D+00  8.76275456518260600D-08 -2.21132779327991800D-02
16 29  0.00000000000000000D+00  0.00000000000000000D+00  0.00000000000000000D+00  0.00000000000000000D+00  1.84290532027341000D-03
16 30  0.00000000000000000D+00  0.00000000000000000D+00  0.00000000000000000D+00  0.00000000000000000D+00 -1.86133018219383800D-03
16 31  0.00000000000000000D+00  0.00000000000000000D+00  0.00000000000000000D+00  0.00000000000000000D+00 -1.86138611763139500D-03
16 32  0.00000000000000000D+00  0.00000000000000000D+00  0.00000000000000000D+00  0.00000000000000000D+00  1.84276673173674500D-03
17  1  2.34535840574505300D-03 -4.84275211592709800D-02 -5.53845656663355900D-02 -2.62061007574414900D-06 -2.51846013011077600D-01
17  2  0.00000000000000000D+00  8.19079771480784200D-07  1.26735767052732600D-02  0.00000000000000000D+00  3.24750064243461200D-02
17  3 -3.69699297842835000D-02  4.49492335993738900D-03  3.60735201137653300D-07  0.00000000000000000D+00  0.00000000000000000D+00
17  4 -7.21369527826569000D-03  1.02091726895451000D-01  1.68918486819445500D-01  3.11179737478261600D-03  6.44773632672344400D-02
17  5  0.00000000000000000D+00 -4.29789456529610000D-02 -1.13722645467240700D-02  0.00000000000000000D+00  1.36586997570384500D-02
17  6 -1.06203075584512100D-02 -3.03839219858720700D-03  8.72241606579395000D-03  0.00000000000000000D+00  0.00000000000000000D+00
17  7  7.19485261771209800D-03 -1.02062391548628400D-01 -1.68758844030737000D-01 -2.90466317081485700D-03  6.27092899921783800D-02
17  8  0.00000000000000000D+00  4.30260152571177600D-02 -1.19541946512543600D-02  0.00000000000000000D+00 -1.35354825871180800D-02
17  9  1.05086081252891100D-02  3.02687446182899800D-03  8.71171317074954200D-03  0.00000000000000000D+00  0.00000000000000000D+00
17 10 -2.33923785034944100D-03  4.83764118291719800D-02  5.56835336718568400D-02  1.38397703659815400D-06 -2.50286648136990600D-01
17 11  0.00000000000000000D+00  4.99373529485809100D-07  1.28542019958911000D-02  0.00000000000000000D+00 -3.22105179431523400D-02
17 12  3.66607009102586000D-02 -4.45018296710623600D-03  5.73006946760489000D-08  0.00000000000000000D+00  0.00000000000000000D+00
17 13  7.19532004874165600D-03 -1.02064693076192500D-01 -1.68764241388272500D-01  2.90568820343892300D-03  6.27115113349843600D-02
17 14  0.00000000000000000D+00 -4.30252380999088500D-02 -1.19554093902346500D-02  0.00000000000000000D+00 -1.35356844725043200D-02
17 15  1.05086233952791700D-02  3.02706107722497800D-03 -8.71152413680702900D-03  0.00000000000000000D+00  0.00000000000000000D+00
17 16 -7.21365804564425700D-03  1.02089688810413900D-01  1.68925870796991300D-01 -3.10598587296423500D-03  6.44789239089714100D-02
17 17  0.00000000000000000D+00  4.29786008000606300D-02 -1.13715962569237300D-02  0.00000000000000000D+00  1.36588914457737600D-02
17 18 -1.06205670328353000D-02 -3.03832441293850600D-03 -8.72202930276796600D-03  0.00000000000000000D+00  0.00000000000000000D+00
17 19  6.28285152200920500D-03 -1.89445304870685900D-01 -1.66301383727836600D-01  3.65999531717518500D-04  2.98264013658964500D-06
17 20  2.01571527274546100D-01  0.00000000000000000D+00  1.69796860381109000D-06  9.63074477758599800D-02  0.00000000000000000D+00
17 21  1.71369047731607000D-07  9.34256654828552100D-03  0.00000000000000000D+00  7.29961445140968600D-03 -1.46980685695532700D-02
17 22  7.39845411814374000D-03 -1.74231843990519300D-07  0.00000000000000000D+00  0.00000000000000000D+00 -1.66701539336868000D-03
17 23  3.44372634360849000D-03 -1.77671095023985800D-03  4.22898273954542700D-08  0.00000000000000000D+00  0.00000000000000000D+00
17 24 -6.24841140788917900D-03  1.88271676284865300D-01  1.65211670804356000D-01 -3.18713665702088600D-04 -8.95712489322435000D-07
17 25  2.00324829905101100D-01  0.00000000000000000D+00 -5.56582935769664500D-07  9.56885547767860500D-02  0.00000000000000000D+00
17 26 -2.28069921734495400D-08  9.28832698806021500D-03  0.00000000000000000D+00 -7.25614500694601700D-03  1.46120123264133600D-02
17 27 -7.35586731946729000D-03 -7.97032342361569000D-08  0.00000000000000000D+00  0.00000000000000000D+00  1.65387947474532600D-03
17 28 -3.40346387384727600D-03  1.74958439910193100D-03  1.36771329614152400D-08  0.00000000000000000D+00  0.00000000000000000D+00
17 29  8.88124850941385000D-02  3.63801899363208000D-02 -6.23493965079009300D-03 -2.09913501161303300D-03  0.00000000000000000D+00
17 30 -8.78552748167254100D-02 -3.60414219525401100D-02  6.16026721484300800D-03 -2.10015455289850300D-03  0.00000000000000000D+00
17 31 -8.78581248450044400D-02 -3.60420621066063700D-02 -6.16055068548422000D-03 -2.10027211758017700D-03  0.00000000000000000D+00
17 32  8.88074197462315600D-02  3.63788008348336900D-02  6.23458290542337100D-03 -2.09897241704302700D-03  0.00000000000000000D+00
18  1  9.92151160160064400D-04 -1.65515273259207700D-02  3.01368978139241100D-02 -4.55898594050733000D-06 -1.93300087160279900D-01
18  2  0.00000000000000000D+00 -1.16858490917163700D-07 -2.01239386894993800D-02  0.00000000000000000D+00  3.38317602972183100D-02
18  3 -3.99567847606183000D-02  6.12502446340003200D-03 -1.25999237168001600D-07  0.00000000000000000D+00  0.00000000000000000D+00
18  4 -2.60543444945784300D-03  6.13641786523688500D-03  2.39163078377816900D-02  3.73064155491963600D-02  2.24734125872518900D-01
18  5  0.00000000000000000D+00  9.64701176397898100D-03  7.43382885949302200D-02  0.00000000000000000D+00  1.51729951071019500D-02
18  6 -1.38526060796928900D-02 -1.32038902740902500D-03  1.56408484255532300D-03  0.00000000000000000D+00  0.00000000000000000D+00
18  7 -2.66115703698647200D-03  6.92865125656698800D-03  2.52295221815986000D-02  3.73512220490231100D-02 -2.25229717774567100D-01
18  8  0.00000000000000000D+00  9.32663300417826300D-03 -7.42550992228166300D-02  0.00000000000000000D+00  1.52771016615165100D-02
18  9 -1.39337157105972400D-02 -1.34338595091922800D-03 -1.63463292385295400D-03  0.00000000000000000D+00  0.00000000000000000D+00
18 10  1.01035361404284100D-03 -1.69368306618391400D-02  2.96832101156897600D-02 -1.74379450313010500D-06  1.95200058135194100D-01
18 11  0.00000000000000000D+00 -1.83238337536520700D-06  2.00144306876755900D-02  0.00000000000000000D+00  3.40814517813321900D-02
18 12 -4.02404568000690000D-02  6.15900501873676200D-03  4.88574658972888800D-07  0.00000000000000000D+00  0.00000000000000000D+00
18 13 -2.66120482141023900D-03  6.93242278430650500D-03  2.52353084662647300D-02 -3.73654564237781200D-02 -2.25248521047899300D-01
18 14  0.00000000000000000D+00 -9.33306458429861000D-03 -7.42569281306623000D-02  0.00000000000000000D+00  1.52780609436463500D-02
18 15 -1.39344987763843400D-02 -1.34356216726204500D-03  1.63464668501072100D-03  0.00000000000000000D+00  0.00000000000000000D+00
18 16 -2.60494266004504000D-03  6.13186768529937300D-03  2.39171733783329400D-02 -3.73064752369461300D-02  2.24747973063524600D-01
18 17  0.00000000000000000D+00 -9.65069252839495300D-03  7.43433803448977500D-02  0.00000000000000000D+00  1.51737986488192300D-02
18 18 -1.38532318486139100D-02 -1.32056680020517000D-03 -1.56280849752226200D-03  0.00000000000000000D+00  0.00000000000000000D+00
18 19  4.51979374238889500D-03 -1.50096985351174600D-01 -1.40056115446678600D-01  6.66032313810502700D-03  2.31242417596148300D-06
18 20  1.60935485919365900D-01  0.00000000000000000D+00  1.77080220215993100D-06  8.03708372096680900D-02  0.00000000000000000D+00
18 21  2.29821848129398700D-07  6.38480172437387500D-03  0.00000000000000000D+00  5.60100059248740600D-03 -1.10738889179350700D-02
18 22  5.47288832544768300D-03 -1.12128551822113600D-07  0.00000000000000000D+00  0.00000000000000000D+00 -1.42139248857180600D-03
18 23  4.92048999909579700D-03 -3.49909751052401500D-03 -9.18902279549075300D-08  0.00000000000000000D+00  0.00000000000000000D+00
18 24  4.56776484054187200D-03 -1.51541914353244500D-01 -1.41329486390812600D-01  6.66001557392333800D-03  8.04410810332852100D-07
18 25 -1.62468536789964100D-01  0.00000000000000000D+00  1.03731682270781600D-06 -8.11060268399658400D-02  0.00000000000000000D+00
18 26  1.02044575018440500D-07 -6.45648951323210200D-03  0.00000000000000000D+00  5.65639490558102300D-03 -1.11853007311981100D-02
18 27  5.52890582561707900D-03  9.40365695416988500D-08  0.00000000000000000D+00  0.00000000000000000D+00 -1.43357358673224600D-03
18 28  4.94584732274584300D-03 -3.51227373601361000D-03  1.29684338283275600D-07  0.00000000000000000D+00  0.00000000000000000D+00
18 29  1.29892605421170400D-01  4.46520603384295200D-02 -1.00665568009039400D-02 -3.65530296157063600D-04  0.00000000000000000D+00
18 30  1.30596196710995800D-01  4.49396806666145600D-02 -1.01153476396013400D-02  3.83090803065767000D-04  0.00000000000000000D+00
18 31  1.30615714260763000D-01  4.49454292480716100D-02  1.01166906694750000D-02  3.83831319917340000D-04  0.00000000000000000D+00
18 32  1.29895168708421000D-01  4.46534371647028900D-02  1.00667309484176800D-02 -3.65601995331879700D-04  0.00000000000000000D+00
19  1 -2.61326527019080400D-05  8.70920439413774600D-02  7.02268195372184600D-02 -9.48578372798613900D-07 -2.11103403168621900D-01
19  2  0.00000000000000000D+00  6.15885858379761700D-06 -4.20131325484348300D-02  0.00000000000000000D+00  9.30048203049005200D-03
19  3 -7.22411270043775900D-03 -2.07636933005224200D-03  2.18197957031673100D-06  0.00000000000000000D+00  0.00000000000000000D+00
19  4 -1.58648631860932800D-03  1.99337408748400100D-02 -5.59859063450740500D-03 -1.83449748236091500D-01 -4.67099686769235100D-02
19  5  0.00000000000000000D+00 -6.80239830950368200D-02 -1.56092266689225300D-02  0.00000000000000000D+00  7.89574712431085800D-03
19  6 -2.91157838647778000D-03 -4.98416873783301400D-03  2.53769247978287300D-05  0.00000000000000000D+00  0.00000000000000000D+00
19  7 -1.58999951248622600D-03  1.99774231827916200D-02 -5.53167384382386600D-03 -1.83440664689426900D-01  4.66846992785459900D-02
19  8  0.00000000000000000D+00 -6.80416469656780200D-02  1.56151493388432000D-02  0.00000000000000000D+00  7.90074105232347500D-03
19  9 -2.91541589925539200D-03 -4.98532515306808700D-03 -2.93505236104137400D-05  0.00000000000000000D+00  0.00000000000000000D+00
19 10 -2.51891493955871600D-05  8.70767028047279300D-02  7.01980879527830300D-02  7.43162981009676200D-07  2.11180527585247400D-01
19 11  0.00000000000000000D+00  5.33949892251722800D-06  4.20031322302458600D-02  0.00000000000000000D+00  9.31148740559578500D-03
19 12 -7.23637107622991200D-03 -2.07511632936580600D-03 -1.78882227465826900D-06  0.00000000000000000D+00  0.00000000000000000D+00
19 13 -1.58996298255985000D-03  1.99789821888757100D-02 -5.52829104887255600D-03  1.83479903397291400D-01  4.67359381696426400D-02
19 14  0.00000000000000000D+00  6.80589292336339600D-02  1.56290523282145700D-02  0.00000000000000000D+00  7.89845745210216100D-03
19 15 -2.91299859140569500D-03 -4.98545886069631500D-03  2.99086911650227200D-05  0.00000000000000000D+00  0.00000000000000000D+00
19 16 -1.58737934259301800D-03  1.99446198832117700D-02 -5.58708458747746200D-03  1.83485932809508900D-01 -4.67566671181544900D-02
19 17  0.00000000000000000D+00  6.80458029013265900D-02 -1.56243928397167400D-02  0.00000000000000000D+00  7.89389151289472300D-03
19 18 -2.90939892273408200D-03 -4.98449259016061600D-03 -2.60816157773547400D-05  0.00000000000000000D+00  0.00000000000000000D+00
19 19  1.65582274589515800D-03 -1.09944513272336100D-01 -8.86258500385560400D-02 -7.40947025900243900D-03  1.88476047452444800D-06
19 20  8.80105859604987800D-02  0.00000000000000000D+00 -1.00279082813023200D-06  4.19672699641457900D-02  0.00000000000000000D+00
19 21 -4.47445971586684000D-07  1.20780647689579700D-02  0.00000000000000000D+00  3.22573721269761100D-03 -6.58200252365560800D-03
19 22  3.35626531095794600D-03 -7.84204240063845800D-08  0.00000000000000000D+00  0.00000000000000000D+00 -2.58195961006496400D-03
19 23  6.52112834290815100D-04  1.92984677577412700D-03  5.67581824694715800D-07  0.00000000000000000D+00  0.00000000000000000D+00
19 24  1.65792337955274600D-03 -1.10010261318555200D-01 -8.86881281700009300D-02 -7.41118779839272000D-03  1.21810513056407700D-06
19 25 -8.80710850428157400D-02  0.00000000000000000D+00 -1.18743794103560800D-06 -4.19974246849681400D-02  0.00000000000000000D+00
19 26 -5.05510799283146900D-07 -1.20808936832150100D-02  0.00000000000000000D+00  3.22785817937107500D-03 -6.58628509643580800D-03
19 27  3.35842691706487100D-03  3.77158784441539900D-08  0.00000000000000000D+00  0.00000000000000000D+00 -2.58223114664780700D-03
19 28  6.52867203443678300D-04  1.92936394320412100D-03 -4.10806244460516000D-07  0.00000000000000000D+00  0.00000000000000000D+00
19 29 -1.22456808518809900D-01 -2.02805494720863000D-02  8.15028301882320600D-03  6.48584373867494400D-03  0.00000000000000000D+00
19 30 -1.22413083768378100D-01 -2.02641178269573700D-02  8.14737041029049000D-03 -6.48436240117250100D-03  0.00000000000000000D+00
19 31 -1.22459943003749600D-01 -2.02775341728876000D-02 -8.15066724339925900D-03 -6.48573552493391000D-03  0.00000000000000000D+00
19 32 -1.22493618923044000D-01 -2.02914653203258000D-02 -8.15280362131125800D-03  6.48664576067869500D-03  0.00000000000000000D+00
20  1 -6.58760080077481000D-08  1.01760044475596000D-05  8.37855225984320600D-06  1.67457555800010800D-04 -2.32699900637150200D-05
20  2  0.00000000000000000D+00 -5.31319151178383000D-02 -6.78755895970390000D-06  0.00000000000000000D+00  4.81967299293151100D-07
20  3 -2.69748182327608300D-07 -2.12219116976040900D-07 -1.65125550757525400D-02  0.00000000000000000D+00  0.00000000000000000D+00
20  4 -1.55951034175552600D-03  3.31477757932546100D-02  5.30706797039008400D-02 -1.49898901689122400D-01 -2.30399554992868200D-01
20  5  0.00000000000000000D+00 -7.83688328947842700D-02 -6.25324323264896000D-02  0.00000000000000000D+00 -9.89395709027792400D-03
20  6  1.13299143481628400D-02 -1.43595725788495300D-03  1.78199890118232700D-03  0.00000000000000000D+00  0.00000000000000000D+00
20  7 -1.55879376803155100D-03  3.31257880535180500D-02  5.30470033090742000D-02 -1.49904754839442200D-01  2.30415640293853500D-01
20  8  0.00000000000000000D+00 -7.83781214127681300D-02  6.25348698753458400D-02  0.00000000000000000D+00 -9.89544415459064000D-03
20  9  1.13305507865809900D-02 -1.43510663199036900D-03 -1.78069000728499700D-03  0.00000000000000000D+00  0.00000000000000000D+00
20 10  6.40505781081793700D-08  6.03981257660351400D-06  6.60250922394099800D-07  1.59561235381107300D-04  1.41298567026419400D-05
20 11  0.00000000000000000D+00 -5.31328247780845200D-02  1.94584959474692100D-06  0.00000000000000000D+00 -5.39014937937793300D-08
20 12  2.02778898484363500D-07 -1.48877404697284100D-07  1.65116619579292500D-02  0.00000000000000000D+00  0.00000000000000000D+00
20 13  1.55856997065492400D-03 -3.31196572027796400D-02 -5.30421181563588500D-02 -1.49870894035463100D-01 -2.30385834069542900D-01
20 14  0.00000000000000000D+00 -7.83623685166087600D-02 -6.25227444723971800D-02  0.00000000000000000D+00  9.89569282934502100D-03
20 15 -1.13297719817104700D-02  1.43407915236536800D-03 -1.78055629891660300D-03  0.00000000000000000D+00  0.00000000000000000D+00
20 16  1.55971990669395900D-03 -3.31433816654329700D-02 -5.30682423938671600D-02 -1.49849129068821200D-01  2.30369239304905700D-01
20 17  0.00000000000000000D+00 -7.83547907509717400D-02  6.25211582419296400D-02  0.00000000000000000D+00  9.89491457772631400D-03
20 18 -1.13293587493404100D-02  1.43444417161411100D-03  1.78295026668830700D-03  0.00000000000000000D+00  0.00000000000000000D+00
20 19  1.24344419882808700D-07 -1.07865294823006100D-05 -6.86945795031428000D-06  7.48819351448355600D-08 -6.16735424742730400D-03
20 20  9.64376322267344800D-06  0.00000000000000000D+00  1.29862269528719400D-02  4.37332140195796400D-06  0.00000000000000000D+00
20 21  4.27006483421150500D-03  1.12088493121334600D-06  0.00000000000000000D+00  3.33830690820984500D-07 -6.74434305354533600D-07
20 22  3.40603614418258100D-07 -2.81274502842960500D-04  0.00000000000000000D+00  0.00000000000000000D+00 -3.58697208387904900D-07
20 23 -1.07181711812216600D-07  4.65878920185755400D-07 -3.67297893387036700D-03  0.00000000000000000D+00  0.00000000000000000D+00
20 24  8.07196602468559700D-08 -8.03699756295349900D-06 -5.59562031601648800D-06 -8.22484941447684100D-07 -6.16630568391157800D-03
20 25 -4.18445940244916200D-06  0.00000000000000000D+00  1.29875463442605500D-02 -1.33734050221548200D-06  0.00000000000000000D+00
20 26  4.27011609049110200D-03 -7.92077871093977800D-07  0.00000000000000000D+00  1.77458949061182100D-07 -3.65312330117197000D-07
20 27  1.87853381074154000D-07  2.81154422827644600D-04  0.00000000000000000D+00  0.00000000000000000D+00 -3.25963232993107000D-07
20 28  3.07402957460972500D-09  3.22889203418490500D-07  3.67283622129656400D-03  0.00000000000000000D+00  0.00000000000000000D+00
20 29 -1.82840267137435600D-01 -5.16382048028467400D-02  1.28298252728091600D-02  4.11646134130914300D-03  0.00000000000000000D+00
20 30 -1.82865418080618500D-01 -5.16475418866249400D-02  1.28317812915378800D-02 -4.11763517034328000D-03  0.00000000000000000D+00
20 31  1.82834235096649100D-01  5.16418510336440100D-02  1.28294052667327900D-02  4.11671951166024200D-03  0.00000000000000000D+00
20 32  1.82796716399912400D-01  5.16298704820374400D-02  1.28267931740774500D-02 -4.11490280994899900D-03  0.00000000000000000D+00
21  1  0.00000000000000000D+00  0.00000000000000000D+00  0.00000000000000000D+00  0.00000000000000000D+00  0.00000000000000000D+00
21  2  1.11476846354283500D-02  0.00000000000000000D+00  0.00000000000000000D+00  1.85986050844465000D-02  0.00000000000000000D+00
21  3  0.00000000000000000D+00  0.00000000000000000D+00  0.00000000000000000D+00  1.17056184793117300D-06  3.64175572667994400D-02
21  4  0.00000000000000000D+00  0.00000000000000000D+00  0.00000000000000000D+00  0.00000000000000000D+00  0.00000000000000000D+00
21  5 -2.28824902781075600D-01  0.00000000000000000D+00  0.00000000000000000D+00 -1.79850453990354400D-01  0.00000000000000000D+00
21  6  0.00000000000000000D+00  0.00000000000000000D+00  0.00000000000000000D+00  6.01451965047516400D-03  2.19768409539545000D-02
21  7  0.00000000000000000D+00  0.00000000000000000D+00  0.00000000000000000D+00  0.00000000000000000D+00  0.00000000000000000D+00
21  8 -2.28819851807985600D-01  0.00000000000000000D+00  0.00000000000000000D+00 -1.79848511866555800D-01  0.00000000000000000D+00
21  9  0.00000000000000000D+00  0.00000000000000000D+00  0.00000000000000000D+00  6.01316491828713300D-03 -2.19781208206395600D-02
21 10  0.00000000000000000D+00  0.00000000000000000D+00  0.00000000000000000D+00  0.00000000000000000D+00  0.00000000000000000D+00
21 11  1.11768348632168100D-02  0.00000000000000000D+00  0.00000000000000000D+00  1.86171756249082200D-02  0.00000000000000000D+00
21 12  0.00000000000000000D+00  0.00000000000000000D+00  0.00000000000000000D+00  1.02507230553500800D-06 -3.64214839947832300D-02
21 13  0.00000000000000000D+00  0.00000000000000000D+00  0.00000000000000000D+00  0.00000000000000000D+00  0.00000000000000000D+00
21 14 -2.28844436530020400D-01  0.00000000000000000D+00  0.00000000000000000D+00 -1.79862793519245100D-01  0.00000000000000000D+00
21 15  0.00000000000000000D+00  0.00000000000000000D+00  0.00000000000000000D+00 -6.01374661652606100D-03 -2.19804029663358800D-02
21 16  0.00000000000000000D+00  0.00000000000000000D+00  0.00000000000000000D+00  0.00000000000000000D+00  0.00000000000000000D+00
21 17 -2.28850416267638100D-01  0.00000000000000000D+00  0.00000000000000000D+00 -1.79866317285971300D-01  0.00000000000000000D+00
21 18  0.00000000000000000D+00  0.00000000000000000D+00  0.00000000000000000D+00 -6.01499276517428800D-03  2.19791336777443700D-02
21 19  0.00000000000000000D+00  0.00000000000000000D+00  0.00000000000000000D+00  0.00000000000000000D+00  0.00000000000000000D+00
21 20  0.00000000000000000D+00  2.29139198608537100D-01  0.00000000000000000D+00  0.00000000000000000D+00  1.85383720332693700D-01
21 21  0.00000000000000000D+00  0.00000000000000000D+00  3.95796811920583700D-02  0.00000000000000000D+00  0.00000000000000000D+00
21 22  0.00000000000000000D+00  0.00000000000000000D+00 -1.55418074661025500D-08 -6.17202182117014000D-03  0.00000000000000000D+00
21 23  0.00000000000000000D+00  0.00000000000000000D+00  0.00000000000000000D+00 -1.77443852691900600D-07 -1.45178230390867800D-02
21 24  0.00000000000000000D+00  0.00000000000000000D+00  0.00000000000000000D+00  0.00000000000000000D+00  0.00000000000000000D+00
21 25  0.00000000000000000D+00  2.29190740893217200D-01  0.00000000000000000D+00  0.00000000000000000D+00  1.85421545077460800D-01
21 26  0.00000000000000000D+00  0.00000000000000000D+00  3.95860682621947200D-02  0.00000000000000000D+00  0.00000000000000000D+00
21 27  0.00000000000000000D+00  0.00000000000000000D+00  5.56736778152094500D-09  6.17419955699968100D-03  0.00000000000000000D+00
21 28  0.00000000000000000D+00  0.00000000000000000D+00  0.00000000000000000D+00 -1.51829481342923100D-07  1.45213961746863800D-02
21 29  0.00000000000000000D+00  0.00000000000000000D+00  0.00000000000000000D+00  0.00000000000000000D+00 -7.03373005948340600D-03
21 30  0.00000000000000000D+00  0.00000000000000000D+00  0.00000000000000000D+00  0.00000000000000000D+00 -7.03307764597763600D-03
21 31  0.00000000000000000D+00  0.00000000000000000D+00  0.00000000000000000D+00  0.00000000000000000D+00 -7.03378996506619900D-03
21 32  0.00000000000000000D+00  0.00000000000000000D+00  0.00000000000000000D+00  0.00000000000000000D+00 -7.03410243850204800D-03
22  1 -9.04897569019932200D-08  2.30924952261747500D-06  7.73454157682573900D-07 -1.82206463472538900D-01 -9.28033047909102500D-07
22  2  0.00000000000000000D+00 -2.29480485233075500D-02 -6.65832553411386500D-07  0.00000000000000000D+00  3.39071202722739800D-08
22  3 -9.30672746376638600D-08  5.91601543879533200D-08  1.25725888286519800D-02  0.00000000000000000D+00  0.00000000000000000D+00
22  4  8.32443618435792800D-03 -1.65634329635071400D-01 -1.83562392123837200D-01 -1.47133172662719700D-02 -1.14677406587194500D-01
22  5  0.00000000000000000D+00  3.00433906492255400D-02 -1.40002023722308200D-02  0.00000000000000000D+00 -7.32580636020497200D-03
22  6  2.40353422959066200D-03  4.92227213061431200D-03  2.69999047131429600D-03  0.00000000000000000D+00  0.00000000000000000D+00
22  7 -8.32526340353432000D-03  1.65640468634774500D-01  1.83570416427182300D-01  1.47591135425377800D-02 -1.14595014848821000D-01
22  8  0.00000000000000000D+00 -3.00222176534127600D-02 -1.39771523558747800D-02  0.00000000000000000D+00  7.32182709253410100D-03
22  9 -2.40011485213174900D-03 -4.92171224040243700D-03  2.69785439742923900D-03  0.00000000000000000D+00  0.00000000000000000D+00
22 10  9.61844926196815400D-09 -1.08681792017119300D-06 -1.45073444361294500D-06  1.82105595690277400D-01 -7.05024121231215300D-07
22 11  0.00000000000000000D+00  2.29122988597582000D-02 -1.41390692760812500D-07  0.00000000000000000D+00  5.25021797491178000D-07
22 12 -6.13830217298579200D-07  8.88084198118813300D-08  1.25721110908167500D-02  0.00000000000000000D+00  0.00000000000000000D+00
22 13  8.32526261175910000D-03 -1.65640010398613000D-01 -1.83569723493780000D-01  1.47532256959997800D-02  1.14586768494914800D-01
22 14  0.00000000000000000D+00 -3.00216884052017900D-02  1.39743009579574400D-02  0.00000000000000000D+00 -7.32114500189232700D-03
22 15  2.39921428302810300D-03  4.92193071886427900D-03  2.69836599745601000D-03  0.00000000000000000D+00  0.00000000000000000D+00
22 16 -8.32408011741022100D-03  1.65630691421346000D-01  1.83565273316131300D-01 -1.47154694621756700D-02  1.14687172119986500D-01
22 17  0.00000000000000000D+00  3.00366854493256700D-02  1.40055257591363400D-02  0.00000000000000000D+00  7.32571063187876200D-03
22 18 -2.40334378898728800D-03 -4.92236684289150800D-03  2.70081181416367100D-03  0.00000000000000000D+00  0.00000000000000000D+00
22 19 -4.52607595178417800D-08  6.62708329295435100D-07  1.10214816715983000D-06  5.87445793604164500D-07 -6.46825470753184900D-02
22 20  1.01957316211519700D-06  0.00000000000000000D+00 -3.74352172219523900D-02  4.15987208853456200D-07  0.00000000000000000D+00
22 21  2.52028482538224200D-03 -1.04540464690830500D-07  0.00000000000000000D+00  6.38615353350841700D-08 -5.68501995950519400D-08
22 22 -7.01133577586062000D-09  4.82037952944949600D-03  0.00000000000000000D+00  0.00000000000000000D+00 -1.88484393734879000D-08
22 23  4.66651065879292600D-08 -2.78166672234046600D-08  6.89719951580695700D-03  0.00000000000000000D+00  0.00000000000000000D+00
22 24  3.42721242558201700D-09 -9.86177415877935400D-08 -1.83959558654675900D-07  1.61970131508019400D-07  6.46274242827534900D-02
22 25 -2.22508839995677900D-07  0.00000000000000000D+00  3.74060318984467900D-02 -6.44793691998346500D-08  0.00000000000000000D+00
22 26 -2.51665824542557700D-03  5.99522576732740800D-08  0.00000000000000000D+00 -2.05595761925672800D-08  2.62081337473572700D-08
22 27 -5.64855752718392400D-09  4.81682136154944800D-03  0.00000000000000000D+00  0.00000000000000000D+00 -5.49310923794256100D-08
22 28  1.29632706291867000D-07 -7.47016139124456400D-08  6.89470398072457000D-03  0.00000000000000000D+00  0.00000000000000000D+00
22 29 -1.47390266140463500D-01 -3.92678214771439100D-02  1.40043916001988300D-02  7.14238204752426400D-03  0.00000000000000000D+00
22 30  1.47387849320280000D-01  3.92651472426826900D-02 -1.40033901484189300D-02  7.14412265685690300D-03  0.00000000000000000D+00
22 31 -1.47379929578804800D-01 -3.92625395114695900D-02 -1.40029244365913500D-02 -7.14405259345349100D-03  0.00000000000000000D+00
22 32  1.47391007525670800D-01  3.92678391807112600D-02  1.40045432456358700D-02 -7.14244525354710900D-03  0.00000000000000000D+00
23  1  0.00000000000000000D+00  0.00000000000000000D+00  0.00000000000000000D+00  0.00000000000000000D+00  0.00000000000000000D+00
23  2  9.81796442724716600D-07  0.00000000000000000D+00  0.00000000000000000D+00 -3.16125351501759900D-07  0.00000000000000000D+00
23  3  0.00000000000000000D+00  0.00000000000000000D+00  0.00000000000000000D+00 -2.47026854438843000D-02  1.16865204210308800D-06
23  4  0.00000000000000000D+00  0.00000000000000000D+00  0.00000000000000000D+00  0.00000000000000000D+00  0.00000000000000000D+00
23  5 -2.82086479680966500D-01  0.00000000000000000D+00  0.00000000000000000D+00 -2.13729365344389600D-01  0.00000000000000000D+00
23  6  0.00000000000000000D+00  0.00000000000000000D+00  0.00000000000000000D+00  3.93622927209768400D-03  2.31344858600319500D-02
23  7  0.00000000000000000D+00  0.00000000000000000D+00  0.00000000000000000D+00  0.00000000000000000D+00  0.00000000000000000D+00
23  8 -2.82087618104695000D-01  0.00000000000000000D+00  0.00000000000000000D+00 -2.13729972136055500D-01  0.00000000000000000D+00
23  9  0.00000000000000000D+00  0.00000000000000000D+00  0.00000000000000000D+00  3.93598456494180100D-03 -2.31344060156446600D-02
23 10  0.00000000000000000D+00  0.00000000000000000D+00  0.00000000000000000D+00  0.00000000000000000D+00  0.00000000000000000D+00
23 11 -1.94152754340589400D-06  0.00000000000000000D+00  0.00000000000000000D+00 -9.47932917286254100D-07  0.00000000000000000D+00
23 12  0.00000000000000000D+00  0.00000000000000000D+00  0.00000000000000000D+00 -2.47033437799383400D-02 -1.28616174358494500D-06
23 13  0.00000000000000000D+00  0.00000000000000000D+00  0.00000000000000000D+00  0.00000000000000000D+00  0.00000000000000000D+00
23 14  2.82068788397633700D-01  0.00000000000000000D+00  0.00000000000000000D+00  2.13710620660024500D-01  0.00000000000000000D+00
23 15  0.00000000000000000D+00  0.00000000000000000D+00  0.00000000000000000D+00  3.93545696632054300D-03  2.31331238801081600D-02
23 16  0.00000000000000000D+00  0.00000000000000000D+00  0.00000000000000000D+00  0.00000000000000000D+00  0.00000000000000000D+00
23 17  2.82069089890873100D-01  0.00000000000000000D+00  0.00000000000000000D+00  2.13711490313026700D-01  0.00000000000000000D+00
23 18  0.00000000000000000D+00  0.00000000000000000D+00  0.00000000000000000D+00  3.93567176870990500D-03 -2.31329137341374600D-02
23 19  0.00000000000000000D+00  0.00000000000000000D+00  0.00000000000000000D+00  0.00000000000000000D+00  0.00000000000000000D+00
23 20  0.00000000000000000D+00  9.35282706875812700D-06  0.00000000000000000D+00  0.00000000000000000D+00  8.11290200034724300D-06
23 21  0.00000000000000000D+00  0.00000000000000000D+00  1.66214918689886300D-06  0.00000000000000000D+00  0.00000000000000000D+00
23 22  0.00000000000000000D+00  0.00000000000000000D+00 -1.08907445564668800D-03 -2.38410556130170700D-07  0.00000000000000000D+00
23 23  0.00000000000000000D+00  0.00000000000000000D+00  0.00000000000000000D+00  2.38670258955558600D-03 -8.04198713070722500D-07
23 24  0.00000000000000000D+00  0.00000000000000000D+00  0.00000000000000000D+00  0.00000000000000000D+00  0.00000000000000000D+00
23 25  0.00000000000000000D+00  7.85908424929861400D-06  0.00000000000000000D+00  0.00000000000000000D+00  6.99764053460186800D-06
23 26  0.00000000000000000D+00  0.00000000000000000D+00  1.62059800835428600D-06  0.00000000000000000D+00  0.00000000000000000D+00
23 27  0.00000000000000000D+00  0.00000000000000000D+00 -1.08909686490514600D-03  1.22189362237480900D-07  0.00000000000000000D+00
23 28  0.00000000000000000D+00  0.00000000000000000D+00  0.00000000000000000D+00  2.38676788145118000D-03  5.65307433922447100D-07
23 29  0.00000000000000000D+00  0.00000000000000000D+00  0.00000000000000000D+00  0.00000000000000000D+00 -9.74317883887050600D-03
23 30  0.00000000000000000D+00  0.00000000000000000D+00  0.00000000000000000D+00  0.00000000000000000D+00 -9.74278994021660200D-03
23 31  0.00000000000000000D+00  0.00000000000000000D+00  0.00000000000000000D+00  0.00000000000000000D+00  9.74209452519176800D-03
23 32  0.00000000000000000D+00  0.00000000000000000D+00  0.00000000000000000D+00  0.00000000000000000D+00  9.74212655118167900D-03
24  1 -1.67057322618967100D-07 -4.46084036402064000D-07  3.29154973147575900D-06  3.02569172059311300D-01  4.96886269290507000D-07
24  2  0.00000000000000000D+00  7.25620841035740200D-02 -1.89127297454985100D-06  0.00000000000000000D+00  8.92364087747116400D-07
24  3 -7.19802128470822800D-07 -1.72561959251323000D-07 -1.34730487128006400D-02  0.00000000000000000D+00  0.00000000000000000D+00
24  4 -2.17855000567834500D-03  5.58651379192314100D-02  5.45625857094858100D-02 -1.63956506840278100D-01  1.36248225068067100D-01
24  5  0.00000000000000000D+00 -7.46434920920594400D-02  4.63896650438624700D-02  0.00000000000000000D+00  5.79528452582692400D-03
24  6 -1.55352363137373000D-03 -4.24176089445323400D-03 -6.33063265582102500D-03  0.00000000000000000D+00  0.00000000000000000D+00
24  7 -2.18140662796694500D-03  5.59271228758052800D-02  5.46171400580805200D-02 -1.63923824488819800D-01 -1.36286991943057800D-01
24  8  0.00000000000000000D+00 -7.46300495599702500D-02 -4.63907026796329500D-02  0.00000000000000000D+00  5.79722259518984300D-03
24  9 -1.55452572423935800D-03 -4.24269687095045700D-03  6.32758904954274500D-03  0.00000000000000000D+00  0.00000000000000000D+00
24 10 -6.97115923167657300D-08  1.70113053307093300D-06  4.01326238105124300D-06  3.02591545570304900D-01  3.00992173490112700D-06
24 11  0.00000000000000000D+00  7.25679103363714300D-02  3.34236679903526700D-06  0.00000000000000000D+00  4.52329038374891600D-07
24 12 -3.95872609151529700D-07 -5.64564291392768800D-08  1.34784173959412000D-02  0.00000000000000000D+00  0.00000000000000000D+00
24 13  2.18158228749788100D-03 -5.59280560760574500D-02 -5.46232551071706200D-02 -1.63918689072844500D-01  1.36284445582532700D-01
24 14  0.00000000000000000D+00 -7.46295038726378800D-02  4.63873420404847200D-02  0.00000000000000000D+00 -5.79676841350619500D-03
24 15  1.55400223360048800D-03  4.24276617990561100D-03  6.32702410842044100D-03  0.00000000000000000D+00  0.00000000000000000D+00
24 16  2.17844187048988300D-03 -5.58638424671117300D-02 -5.45602776134733700D-02 -1.63958159308009800D-01 -1.36242648176562500D-01
24 17  0.00000000000000000D+00 -7.46443029580729100D-02 -4.63868113780089000D-02  0.00000000000000000D+00 -5.79443655764085100D-03
24 18  1.55265387379237800D-03  4.24178268384843000D-03 -6.33103254622248200D-03  0.00000000000000000D+00  0.00000000000000000D+00
24 19  1.19399817802819400D-08 -5.94616077527934100D-07 -1.37862393659928400D-06 -1.15155009260295400D-07  1.46330966450187900D-01
24 20 -9.57625618178856400D-07  0.00000000000000000D+00  8.55814257578130100D-02 -5.47914256778342100D-08  0.00000000000000000D+00
24 21 -6.93058265304101600D-03  2.05051379343763700D-07  0.00000000000000000D+00 -1.04133356071431200D-07  1.25530398791796500D-07
24 22 -2.13970426974445000D-08 -9.76343280218346100D-03  0.00000000000000000D+00  0.00000000000000000D+00 -3.63041219104290200D-08
24 23  1.31017057263115200D-08  2.32024161699313600D-08 -9.32515358093899400D-03  0.00000000000000000D+00  0.00000000000000000D+00
24 24 -2.36952700210744200D-08 -8.54836019328561600D-07 -3.17981485627269800D-07  4.42360681601133100D-07  1.46308958140185100D-01
24 25 -1.08238045266469800D-06  0.00000000000000000D+00  8.55646342048405100D-02 -7.52911534568615300D-07  0.00000000000000000D+00
24 26 -6.93254092424292300D-03 -1.22226086529130200D-07  0.00000000000000000D+00 -1.31143968188818500D-08 -1.01112704442626000D-08
24 27  2.32256672238657600D-08  9.76272475571279800D-03  0.00000000000000000D+00  0.00000000000000000D+00 -6.02574856222041500D-08
24 28 -1.44751139924018600D-08  7.47325996145958400D-08  9.32507743716520300D-03  0.00000000000000000D+00  0.00000000000000000D+00
24 29 -2.78472447335526600D-02 -6.03888858892949400D-03 -1.51992450538505400D-03  3.67519311551311200D-03  0.00000000000000000D+00
24 30 -2.77708955171915400D-02 -6.01671859844107300D-03 -1.52581301181383900D-03 -3.67106818496430000D-03  0.00000000000000000D+00
24 31  2.77678224074914200D-02  6.01615924954893800D-03 -1.52592756856412300D-03  3.67081531643348000D-03  0.00000000000000000D+00
24 32  2.78522980746170900D-02  6.04174780244179000D-03 -1.51957936971244800D-03 -3.67512745542791600D-03  0.00000000000000000D+00
25  1  1.26613847546507100D-03 -1.48443463198349300D-01 -1.77966188746855000D-01 -8.59446635731015500D-06  1.85283342071325300D-01
25  2  0.00000000000000000D+00 -1.75785131728589300D-06  8.61194739822671600D-02  0.00000000000000000D+00  7.76122888987824700D-04
25  3 -2.21027642983609000D-03  1.43415354084819700D-03 -3.51324561005344500D-07  0.00000000000000000D+00  0.00000000000000000D+00
25  4 -2.15734886605636400D-03  3.38703008802057100D-02  7.31157494545857200D-02  1.95453294648491600D-01  3.33834821163514800D-02
25  5  0.00000000000000000D+00  6.18908244463930200D-02  1.44263223603773100D-02  0.00000000000000000D+00 -7.87673432071039000D-03
25  6  4.67133988066889600D-03  3.20539444004145600D-03  2.45628109266052700D-02  0.00000000000000000D+00  0.00000000000000000D+00
25  7  2.15764317699128600D-03 -3.38804464951062900D-02 -7.31260943969430600D-02 -1.95466186322895400D-01  3.33356095172382800D-02
25  8  0.00000000000000000D+00 -6.18967860114633500D-02  1.44144412876614100D-02  0.00000000000000000D+00  7.88105467344935400D-03
25  9 -4.67559234060490100D-03 -3.20546233284444100D-03  2.45626212257087200D-02  0.00000000000000000D+00  0.00000000000000000D+00
25 10 -1.26647546483155800D-03  1.48463506428247700D-01  1.77984941392946200D-01  2.40445741844971500D-06  1.85318595569522700D-01
25 11  0.00000000000000000D+00 -8.65414402805563200D-07  8.61272494872630400D-02  0.00000000000000000D+00 -7.70675240325781000D-04
25 12  2.20463912644410200D-03 -1.43396388611841000D-03  4.45817368051642200D-07  0.00000000000000000D+00  0.00000000000000000D+00
25 13  2.15770560137504000D-03 -3.38830267374781900D-02 -7.31326192656885500D-02  1.95457635506647600D-01  3.33249090836728900D-02
25 14  0.00000000000000000D+00  6.18938627264295600D-02  1.44111576112717300D-02  0.00000000000000000D+00  7.88139025555454300D-03
25 15 -4.67615213868316000D-03 -3.20523811687154200D-03 -2.45624475428816000D-02  0.00000000000000000D+00  0.00000000000000000D+00
25 16 -2.15699131630518600D-03  3.38670641358053500D-02  7.31227317119515400D-02 -1.95449285636644100D-01  3.33942003437541100D-02
25 17  0.00000000000000000D+00 -6.18931187163213500D-02  1.44336568245547400D-02  0.00000000000000000D+00 -7.87611544390767400D-03
25 18  4.67103008934915500D-03  3.20508535455853800D-03 -2.45623229099382500D-02  0.00000000000000000D+00  0.00000000000000000D+00
25 19  5.11294517925964700D-04  3.62173678188370300D-02  1.99172250935548300D-02 -8.72173426936286000D-03 -6.22120048776004500D-06
25 20 -6.14153811584430300D-02  0.00000000000000000D+00 -3.47823445446220200D-06 -3.72146896566483800D-02  0.00000000000000000D+00
25 21  6.65843226288224500D-08 -6.26991973321589900D-03  0.00000000000000000D+00 -1.37075461284110400D-03  3.29181476485120300D-03
25 22 -1.92106015200993400D-03  3.91864443969417100D-07  0.00000000000000000D+00  0.00000000000000000D+00  9.79218503992653400D-04
25 23  7.58998175737728400D-04 -1.73821667973038900D-03  2.16636882816178200D-07  0.00000000000000000D+00  0.00000000000000000D+00
25 24 -5.10998792710220700D-04 -3.62284451649044100D-02 -1.99274875326606600D-02  8.72191177851717800D-03  1.87003923611335300D-06
25 25 -6.14381455814702700D-02  0.00000000000000000D+00  1.60645721629378800D-06 -3.72280137110985800D-02  0.00000000000000000D+00
25 26  2.59429599236265100D-07 -6.27208412464948200D-03  0.00000000000000000D+00  1.37124906703954000D-03 -3.29278908145573400D-03
25 27  1.92154001441616800D-03  1.33717385729149000D-07  0.00000000000000000D+00  0.00000000000000000D+00 -9.79422411363324900D-04
25 28 -7.58352032344358400D-04  1.73777444370773600D-03  2.26801447104602900D-07  0.00000000000000000D+00  0.00000000000000000D+00
25 29  1.81647878217118500D-01  5.87346125131668500D-02 -8.91016521617993600D-03 -1.00422839351541300D-02  0.00000000000000000D+00
25 30 -1.81639124973305200D-01 -5.87305719312812900D-02  8.90966393445067800D-03 -1.00431349733074100D-02  0.00000000000000000D+00
25 31 -1.81630232149471600D-01 -5.87278076946460700D-02 -8.90908838541182500D-03 -1.00428543183806000D-02  0.00000000000000000D+00
25 32  1.81647773932304500D-01  5.87363591008731700D-02  8.91026701002993300D-03 -1.00417658008465500D-02  0.00000000000000000D+00
26  1 -8.84805303154656900D-08 -1.07721842672140900D-06  4.40001572761472100D-06  2.38778498154483400D-01  2.47065148642603700D-06
26  2  0.00000000000000000D+00  2.63592578051648200D-04 -2.96305160688823500D-06  0.00000000000000000D+00  1.11000452461526300D-06
26  3 -9.28307386482848000D-07 -1.81697138184477400D-07  1.82200838636233700D-04  0.00000000000000000D+00  0.00000000000000000D+00
26  4  7.75056821601278100D-04 -1.51492493103668700D-02  1.39993863088364600D-02 -1.81844842968737900D-01 -2.10335488693538400D-03
26  5  0.00000000000000000D+00 -1.29427634880100900D-01  2.97142878385267400D-02  0.00000000000000000D+00  9.44928016563105000D-04
26  6  1.97327906917912300D-03 -2.91820708574208100D-03 -2.53284271038704900D-02  0.00000000000000000D+00  0.00000000000000000D+00
26  7 -7.75058571003477700D-04  1.51455091717479600D-02 -1.40047743615714600D-02  1.81876400024910200D-01 -2.05643581648832000D-03
26  8  0.00000000000000000D+00  1.29444740606502300D-01  2.97259414525365800D-02  0.00000000000000000D+00 -9.46785101584721900D-04
26  9 -1.97163239011641800D-03  2.91841749170116800D-03 -2.53294396199169400D-02  0.00000000000000000D+00  0.00000000000000000D+00
26 10 -2.53854992163829300D-08  3.63331623009969500D-06  2.15451026286487000D-06 -2.38837215564794000D-01  4.07770864162507300D-06
26 11  0.00000000000000000D+00 -2.83523348299529500D-04  1.51213451460364500D-06  0.00000000000000000D+00  2.24551086669296200D-08
26 12 -1.37684380223886400D-07  1.15229271391447500D-07  1.76381729330869400D-04  0.00000000000000000D+00  0.00000000000000000D+00
26 13  7.75229014179528600D-04 -1.51489431126125800D-02  1.39967222113369800D-02  1.81880744003898200D-01  2.04941197461449600D-03
26 14  0.00000000000000000D+00  1.29450048972637500D-01 -2.97314673493216300D-02  0.00000000000000000D+00  9.47221138749860200D-04
26 15  1.97115437252009500D-03 -2.91837551127001300D-03 -2.53309329455547200D-02  0.00000000000000000D+00  0.00000000000000000D+00
26 16 -7.74957777647243000D-04  1.51491342089265100D-02 -1.39940007879386500D-02 -1.81850038378400800D-01  2.11301448388061700D-03
26 17  0.00000000000000000D+00 -1.29437810322746700D-01 -2.97115737037315400D-02  0.00000000000000000D+00 -9.44534838694951600D-04
26 18 -1.97365635216536300D-03  2.91819119086010000D-03 -2.53298515782113200D-02  0.00000000000000000D+00  0.00000000000000000D+00
26 19  6.01589649703155500D-09 -4.02897060768551400D-07 -8.44712765012548300D-07  4.69101264199731100D-07  2.25777753719316600D-01
26 20 -2.38824756271675700D-06  0.00000000000000000D+00  1.59229268423499700D-01 -1.05212379115226200D-06  0.00000000000000000D+00
26 21  1.00261431237478300D-02 -1.77708585875025800D-07  0.00000000000000000D+00 -1.36953958858645000D-07  2.00613247600088300D-07
26 22 -6.36592888382891200D-08 -1.06615620627554500D-02  0.00000000000000000D+00  0.00000000000000000D+00 -4.92720567902163000D-08
26 23 -3.90529829623174500D-08  8.83250398390447000D-08 -1.38428991413257900D-02  0.00000000000000000D+00  0.00000000000000000D+00
26 24 -4.64267044259580900D-08 -7.59792081162581100D-07 -2.03822099896285400D-07  4.10085202300607800D-07 -2.25767189703592100D-01
26 25 -2.66739059149266300D-06  0.00000000000000000D+00 -1.59217237249790300D-01 -1.43861525696062600D-06  0.00000000000000000D+00
26 26 -1.00206409121608900D-02 -1.36610305797416000D-07  0.00000000000000000D+00  1.05065633361088700D-07 -1.53607636650452300D-07
26 27  4.85420033330360100D-08 -1.06620231400406000D-02  0.00000000000000000D+00  0.00000000000000000D+00  6.72742172370584300D-09
26 28  4.77127614465923600D-08 -5.44401831702931900D-08 -1.38434886597650400D-02  0.00000000000000000D+00  0.00000000000000000D+00
26 29 -1.62372523220316400D-01 -5.92640611205695500D-02  6.65991870678939000D-03  8.68216504083812100D-03  0.00000000000000000D+00
26 30  1.62373114497516500D-01  5.92652225533400200D-02 -6.65953741687865800D-03  8.68276146024876700D-03  0.00000000000000000D+00
26 31 -1.62376292374318300D-01 -5.92667943681887100D-02 -6.65946713698054900D-03 -8.68305924913757200D-03  0.00000000000000000D+00
26 32  1.62382336396374900D-01  5.92699489661063900D-02  6.66037518710010100D-03 -8.68220053083332600D-03  0.00000000000000000D+00
27  1  1.35713701621225000D-07  1.66318034522103900D-07 -1.94551683502851600D-07 -7.25292973461085800D-02  2.37161031247447600D-06
27  2  0.00000000000000000D+00 -7.54944935159255800D-02  1.05180675295817400D-06  0.00000000000000000D+00 -3.46162510839680500D-07
27  3  4.74600589133302900D-07 -1.28438078390581900D-07  4.87889767496925000D-02  0.00000000000000000D+00  0.00000000000000000D+00
27  4  2.39690991067352400D-03 -3.59694236585549400D-02 -3.04391996043871800D-02  8.45841743558205400D-02 -1.03230287730024600D-01
27  5  0.00000000000000000D+00  4.29064938805480200D-02 -2.93933171206738500D-02  0.00000000000000000D+00 -8.02791097190617300D-04
27  6  1.27697069661285300D-03 -4.74179599422168600D-04 -6.76338275344589000D-04  0.00000000000000000D+00  0.00000000000000000D+00
27  7  2.39621332648061600D-03 -3.59434656937037700D-02 -3.03762892822095100D-02  8.45103688721471300D-02  1.03212980935457800D-01
27  8  0.00000000000000000D+00  4.28567454510681900D-02  2.94107763975606100D-02  0.00000000000000000D+00 -8.02989462231142500D-04
27  9  1.27759221028525000D-03 -4.74602748054075100D-04  6.86795368009840500D-04  0.00000000000000000D+00  0.00000000000000000D+00
27 10  4.40056182183050300D-08  5.14086046915549700D-09 -1.64507518090131300D-07 -7.24544799768971100D-02 -4.04460674634918400D-07
27 11  0.00000000000000000D+00 -7.54498483010648100D-02 -1.01412899400012200D-06  0.00000000000000000D+00 -1.51174818809168900D-07
27 12  1.88202983817138500D-07 -3.70281651623719200D-08 -4.87659052660682500D-02  0.00000000000000000D+00  0.00000000000000000D+00
27 13 -2.39635944963571100D-03  3.59431039252415500D-02  3.03779025434862500D-02  8.45096069647227700D-02 -1.03211121825781900D-01
27 14  0.00000000000000000D+00  4.28566727227510900D-02 -2.94080004630812600D-02  0.00000000000000000D+00  8.02809034781141400D-04
27 15 -1.27734504217931200D-03  4.74536007398098900D-04  6.86694969674875700D-04  0.00000000000000000D+00  0.00000000000000000D+00
27 16 -2.39701571811175300D-03  3.59683615764056800D-02  3.04380480538735700D-02  8.45814636471607700D-02  1.03227390958192500D-01
27 17  0.00000000000000000D+00  4.29032016310896900D-02  2.93904150907922000D-02  0.00000000000000000D+00  8.02148945300504600D-04
27 18 -1.27627605579553400D-03  4.74127110495151000D-04 -6.76727347774298400D-04  0.00000000000000000D+00  0.00000000000000000D+00
27 19  1.84376985496791200D-08  3.57979838459133000D-07  7.63834167319270800D-08 -1.01543038200891600D-06  4.27314025906148400D-01
27 20 -6.32394527753634800D-06  0.00000000000000000D+00  3.23173276838830600D-01 -3.84977361045436400D-06  0.00000000000000000D+00
27 21  6.12253425925945000D-02 -3.39179207579052000D-07  0.00000000000000000D+00 -1.92160874181275600D-07  2.46601161293743200D-07
27 22 -5.44402873100948100D-08 -8.44402686582084600D-03  0.00000000000000000D+00  0.00000000000000000D+00 -5.33058270673389900D-08
27 23 -2.30399501263102300D-08  7.63457772602429600D-08 -1.35873311376983500D-02  0.00000000000000000D+00  0.00000000000000000D+00
27 24  3.30258361583052600D-08  3.81061433690895900D-07  2.04915953818935600D-07 -6.42655582046894900D-07  4.27181717375510100D-01
27 25  2.34849845077670100D-06  0.00000000000000000D+00  3.23071859211553100D-01  1.45990741334738600D-06  0.00000000000000000D+00
27 26  6.12031466204214700D-02  1.04543191567151700D-07  0.00000000000000000D+00 -7.82580851092690300D-08  7.76477745333996400D-08
27 27  6.10310563611976500D-10  8.44231858115311900D-03  0.00000000000000000D+00  0.00000000000000000D+00 -7.94973168600740700D-08
27 28  3.90597831823039600D-08  4.04375336777599500D-08  1.35857551466283900D-02  0.00000000000000000D+00  0.00000000000000000D+00
27 29 -1.02131531401034900D-02 -1.27193411901154800D-02  1.34372098782392600D-03  7.90202367166395300D-04  0.00000000000000000D+00
27 30 -1.02546299782347000D-02 -1.27375509128177200D-02  1.34399203766920700D-03 -7.91670690946535000D-04  0.00000000000000000D+00
27 31  1.02535677521751800D-02  1.27364216205274900D-02  1.34386917696991100D-03  7.91683409293895600D-04  0.00000000000000000D+00
27 32  1.02123156945547900D-02  1.27179490582184800D-02  1.34348557845677000D-03 -7.90326318245555600D-04  0.00000000000000000D+00
28  1  1.83822699467638100D-08  4.49198718124380900D-07  1.33459644410634300D-06 -1.41115983496654600D-01  1.75793464990366700D-06
28  2  0.00000000000000000D+00 -1.04680719684879600D-01  1.79360071279792800D-06  0.00000000000000000D+00 -6.96901011691425000D-07
28  3  8.10389828432996500D-07 -1.13488816701400500D-07  5.43111077165934200D-02  0.00000000000000000D+00  0.00000000000000000D+00
28  4  1.63587407647996900D-03 -6.44778844698000700D-02 -1.39438503975034500D-01  1.38484601375256900D-01 -3.73676779362471400D-02
28  5  0.00000000000000000D+00  8.28045649207517400D-02  5.07964395826396400D-02  0.00000000000000000D+00  1.53336057559910400D-03
28  6 -1.68473990399572300D-03  1.51379328396624300D-04  1.93158887206516500D-02  0.00000000000000000D+00  0.00000000000000000D+00
28  7 -1.63671934026585700D-03  6.44908698182882800D-02  1.39446091963086700D-01 -1.38512443241667300D-01 -3.74065305222729200D-02
28  8  0.00000000000000000D+00 -8.28163300966117100D-02  5.07893595763679200D-02  0.00000000000000000D+00 -1.53296229896476100D-03
28  9  1.68400926240623300D-03 -1.51046963441511100D-04  1.93159063642490700D-02  0.00000000000000000D+00  0.00000000000000000D+00
28 10  5.80239393046685000D-09 -8.36649315823006500D-07 -1.53164820851551100D-06  1.41146496746819700D-01 -6.02808186379016900D-07
28 11  0.00000000000000000D+00  1.04709247581772000D-01 -2.37259564874648900D-07  0.00000000000000000D+00 -8.32940152659923500D-08
28 12  5.97405748850723600D-08  2.35534404259180200D-08  5.43292790540545100D-02  0.00000000000000000D+00  0.00000000000000000D+00
28 13  1.63670106890886700D-03 -6.44886113546292900D-02 -1.39447534417773000D-01 -1.38511509204488400D-01  3.74107193640993800D-02
28 14  0.00000000000000000D+00 -8.28165282142475500D-02 -5.07895837861106800D-02  0.00000000000000000D+00  1.53315274239059800D-03
28 15 -1.68420607145381300D-03  1.51053329063148200D-04  1.93160325918477200D-02  0.00000000000000000D+00  0.00000000000000000D+00
28 16 -1.63594133415480100D-03  6.44766890872163600D-02  1.39439506890122100D-01  1.38481135932561200D-01  3.73647419008363200D-02
28 17  0.00000000000000000D+00  8.28030387808720000D-02 -5.08019285357307500D-02  0.00000000000000000D+00 -1.53396666447860500D-03
28 18  1.68532518985408200D-03 -1.51358525375457800D-04  1.93161952251087100D-02  0.00000000000000000D+00  0.00000000000000000D+00
28 19  2.11241872439934200D-08  5.22168829805272700D-07 -5.33066466705083100D-08 -1.58065344172893600D-06  3.83221946605227500D-01
28 20 -6.02115408631747500D-06  0.00000000000000000D+00  2.89630330873495600D-01 -3.60416776558666300D-06  0.00000000000000000D+00
28 21  5.76542079261771400D-02 -1.74357296332523300D-07  0.00000000000000000D+00 -1.55515462629572800D-07  1.88973847187356700D-07
28 22 -3.34583844678764700D-08 -5.79898197189053200D-03  0.00000000000000000D+00  0.00000000000000000D+00 -5.52339717014971800D-08
28 23  3.30125829587188500D-08  2.22213886799541300D-08 -8.38091331514653400D-03  0.00000000000000000D+00  0.00000000000000000D+00
28 24 -6.32689302248604500D-09 -8.26823481635950300D-08 -1.34222694579447900D-07  2.27927917331871100D-07 -3.83394687316590700D-01
28 25 -1.44282742170394000D-06  0.00000000000000000D+00 -2.89760059470913400D-01 -9.98465382094578300D-07  0.00000000000000000D+00
28 26 -5.76783607038735800D-02 -1.26457507800527000D-07  0.00000000000000000D+00  4.30418966447713800D-08 -3.02540724833866000D-08
28 27 -1.27878241071925500D-08 -5.80223775610945200D-03  0.00000000000000000D+00  0.00000000000000000D+00  7.62811911018669500D-08
28 28 -7.34774729392394100D-08 -2.80371816262582200D-09 -8.38679302987040800D-03  0.00000000000000000D+00  0.00000000000000000D+00
28 29  6.76205350143742800D-02  3.04545207420354600D-02  4.52815487314531700D-04 -1.51308797351038300D-03  0.00000000000000000D+00
28 30 -6.76167360624797300D-02 -3.04517740379982700D-02 -4.53296536199134700D-04 -1.51255651182000200D-03  0.00000000000000000D+00
28 31  6.76166782038287900D-02  3.04523491192770700D-02 -4.53304714631404300D-04  1.51261326155914500D-03  0.00000000000000000D+00
28 32 -6.76238641079100100D-02 -3.04585778610500300D-02  4.52569139767345700D-04  1.51295583119178500D-03  0.00000000000000000D+00
29  1  0.00000000000000000D+00  0.00000000000000000D+00  0.00000000000000000D+00  0.00000000000000000D+00  0.00000000000000000D+00
29  2 -2.77374065384828000D-01  0.00000000000000000D+00  0.00000000000000000D+00 -2.52279662033793300D-01  0.00000000000000000D+00
29  3  0.00000000000000000D+00  0.00000000000000000D+00  0.00000000000000000D+00  1.23871407574916800D-07  3.17484468376647300D-02
29  4  0.00000000000000000D+00  0.00000000000000000D+00  0.00000000000000000D+00  0.00000000000000000D+00  0.00000000000000000D+00
29  5 -1.45825339604704500D-01  0.00000000000000000D+00  0.00000000000000000D+00 -1.40009721883965100D-01  0.00000000000000000D+00
29  6  0.00000000000000000D+00  0.00000000000000000D+00  0.00000000000000000D+00  1.47920606253844000D-02 -1.72792174172280700D-02
29  7  0.00000000000000000D+00  0.00000000000000000D+00  0.00000000000000000D+00  0.00000000000000000D+00  0.00000000000000000D+00
29  8  1.45788383238715000D-01  0.00000000000000000D+00  0.00000000000000000D+00  1.39948836022503900D-01  0.00000000000000000D+00
29  9  0.00000000000000000D+00  0.00000000000000000D+00  0.00000000000000000D+00 -1.47976081287947500D-02 -1.72887120509887800D-02
29 10  0.00000000000000000D+00  0.00000000000000000D+00  0.00000000000000000D+00  0.00000000000000000D+00  0.00000000000000000D+00
29 11  2.77500698340087800D-01  0.00000000000000000D+00  0.00000000000000000D+00  2.52414771132732500D-01  0.00000000000000000D+00
29 12  0.00000000000000000D+00  0.00000000000000000D+00  0.00000000000000000D+00 -6.09508611071297400D-08  3.17479067637004500D-02
29 13  0.00000000000000000D+00  0.00000000000000000D+00  0.00000000000000000D+00  0.00000000000000000D+00  0.00000000000000000D+00
29 14  1.45788890340766900D-01  0.00000000000000000D+00  0.00000000000000000D+00  1.39951063682334600D-01  0.00000000000000000D+00
29 15  0.00000000000000000D+00  0.00000000000000000D+00  0.00000000000000000D+00  1.47976747828698600D-02 -1.72890998224085600D-02
29 16  0.00000000000000000D+00  0.00000000000000000D+00  0.00000000000000000D+00  0.00000000000000000D+00  0.00000000000000000D+00
29 17 -1.45824794999439100D-01  0.00000000000000000D+00  0.00000000000000000D+00 -1.40009903598258900D-01  0.00000000000000000D+00
29 18  0.00000000000000000D+00  0.00000000000000000D+00  0.00000000000000000D+00 -1.47923177910995700D-02 -1.72800521834456600D-02
29 19  0.00000000000000000D+00  0.00000000000000000D+00  0.00000000000000000D+00  0.00000000000000000D+00  0.00000000000000000D+00
29 20  0.00000000000000000D+00  3.05857469873232600D-01  0.00000000000000000D+00  0.00000000000000000D+00  2.50560967105049000D-01
29 21  0.00000000000000000D+00  0.00000000000000000D+00  4.01819404479288300D-02  0.00000000000000000D+00  0.00000000000000000D+00
29 22  0.00000000000000000D+00  0.00000000000000000D+00  4.91238376440750100D-09  2.82088437824171400D-03  0.00000000000000000D+00
29 23  0.00000000000000000D+00  0.00000000000000000D+00  0.00000000000000000D+00 -1.73771871824154500D-08  3.77260434224993400D-03
29 24  0.00000000000000000D+00  0.00000000000000000D+00  0.00000000000000000D+00  0.00000000000000000D+00  0.00000000000000000D+00
29 25  0.00000000000000000D+00 -3.05959454800130800D-01  0.00000000000000000D+00  0.00000000000000000D+00 -2.50628086246930800D-01
29 26  0.00000000000000000D+00  0.00000000000000000D+00 -4.01816048704539700D-02  0.00000000000000000D+00  0.00000000000000000D+00
29 27  0.00000000000000000D+00  0.00000000000000000D+00 -3.48070293953484700D-09  2.82372651373066600D-03  0.00000000000000000D+00
29 28  0.00000000000000000D+00  0.00000000000000000D+00  0.00000000000000000D+00  2.21049644262150400D-08  3.77981608585416900D-03
29 29  0.00000000000000000D+00  0.00000000000000000D+00  0.00000000000000000D+00  0.00000000000000000D+00 -5.13204682562376700D-03
29 30  0.00000000000000000D+00  0.00000000000000000D+00  0.00000000000000000D+00  0.00000000000000000D+00  5.13048145527782600D-03
29 31  0.00000000000000000D+00  0.00000000000000000D+00  0.00000000000000000D+00  0.00000000000000000D+00  5.13045737504144300D-03
29 32  0.00000000000000000D+00  0.00000000000000000D+00  0.00000000000000000D+00  0.00000000000000000D+00 -5.13179715867606800D-03
30  1  0.00000000000000000D+00  0.00000000000000000D+00  0.00000000000000000D+00  0.00000000000000000D+00  0.00000000000000000D+00
30  2 -3.99072503948509100D-01  0.00000000000000000D+00  0.00000000000000000D+00 -4.40602616464410700D-01  0.00000000000000000D+00
30  3  0.00000000000000000D+00  0.00000000000000000D+00  0.00000000000000000D+00  3.17657766845182800D-08 -9.64960675777869800D-04
30  4  0.00000000000000000D+00  0.00000000000000000D+00  0.00000000000000000D+00  0.00000000000000000D+00  0.00000000000000000D+00
30  5  1.03985324381821500D-01  0.00000000000000000D+00  0.00000000000000000D+00  1.78369982731456700D-01  0.00000000000000000D+00
30  6  0.00000000000000000D+00  0.00000000000000000D+00  0.00000000000000000D+00  1.57313015936159500D-02 -2.90408481259651400D-02
30  7  0.00000000000000000D+00  0.00000000000000000D+00  0.00000000000000000D+00  0.00000000000000000D+00  0.00000000000000000D+00
30  8  1.04043480685243400D-01  0.00000000000000000D+00  0.00000000000000000D+00  1.78438645526784000D-01  0.00000000000000000D+00
30  9  0.00000000000000000D+00  0.00000000000000000D+00  0.00000000000000000D+00  1.57269179194813800D-02  2.90352974304624500D-02
30 10  0.00000000000000000D+00  0.00000000000000000D+00  0.00000000000000000D+00  0.00000000000000000D+00  0.00000000000000000D+00
30 11 -3.98992329959624500D-01  0.00000000000000000D+00  0.00000000000000000D+00 -4.40533447289284800D-01  0.00000000000000000D+00
30 12  0.00000000000000000D+00  0.00000000000000000D+00  0.00000000000000000D+00  6.78832021065471100D-08  9.81478319217596200D-04
30 13  0.00000000000000000D+00  0.00000000000000000D+00  0.00000000000000000D+00  0.00000000000000000D+00  0.00000000000000000D+00
30 14  1.04044661299669000D-01  0.00000000000000000D+00  0.00000000000000000D+00  1.78436014896526100D-01  0.00000000000000000D+00
30 15  0.00000000000000000D+00  0.00000000000000000D+00  0.00000000000000000D+00 -1.57266834902878200D-02  2.90356827754125700D-02
30 16  0.00000000000000000D+00  0.00000000000000000D+00  0.00000000000000000D+00  0.00000000000000000D+00  0.00000000000000000D+00
30 17  1.03986560432582800D-01  0.00000000000000000D+00  0.00000000000000000D+00  1.78370932576760400D-01  0.00000000000000000D+00
30 18  0.00000000000000000D+00  0.00000000000000000D+00  0.00000000000000000D+00 -1.57312396530620900D-02 -2.90415834119654000D-02
30 19  0.00000000000000000D+00  0.00000000000000000D+00  0.00000000000000000D+00  0.00000000000000000D+00  0.00000000000000000D+00
30 20  0.00000000000000000D+00  3.26869729847104900D-01  0.00000000000000000D+00  0.00000000000000000D+00  2.17730460078406500D-01
30 21  0.00000000000000000D+00  0.00000000000000000D+00 -3.84932889669158300D-03  0.00000000000000000D+00  0.00000000000000000D+00
30 22  0.00000000000000000D+00  0.00000000000000000D+00  7.83075078669243100D-08  9.27671709114930400D-03  0.00000000000000000D+00
30 23  0.00000000000000000D+00  0.00000000000000000D+00  0.00000000000000000D+00  4.49039067886155400D-08  2.57403462776258800D-02
30 24  0.00000000000000000D+00  0.00000000000000000D+00  0.00000000000000000D+00  0.00000000000000000D+00  0.00000000000000000D+00
30 25  0.00000000000000000D+00  3.26786657029250700D-01  0.00000000000000000D+00  0.00000000000000000D+00  2.17645259635772200D-01
30 26  0.00000000000000000D+00  0.00000000000000000D+00 -3.87599493756847800D-03  0.00000000000000000D+00  0.00000000000000000D+00
30 27  0.00000000000000000D+00  0.00000000000000000D+00  3.47992524000913700D-08 -9.27624716425293900D-03  0.00000000000000000D+00
30 28  0.00000000000000000D+00  0.00000000000000000D+00  0.00000000000000000D+00  4.03317405791670400D-08 -2.57432908541185800D-02
30 29  0.00000000000000000D+00  0.00000000000000000D+00  0.00000000000000000D+00  0.00000000000000000D+00  3.85365878495575500D-03
30 30  0.00000000000000000D+00  0.00000000000000000D+00  0.00000000000000000D+00  0.00000000000000000D+00  3.85561428975680300D-03
30 31  0.00000000000000000D+00  0.00000000000000000D+00  0.00000000000000000D+00  0.00000000000000000D+00  3.85555126278693300D-03
30 32  0.00000000000000000D+00  0.00000000000000000D+00  0.00000000000000000D+00  0.00000000000000000D+00  3.85344679985441400D-03
31  1  0.00000000000000000D+00  0.00000000000000000D+00  0.00000000000000000D+00  0.00000000000000000D+00  0.00000000000000000D+00
31  2 -1.90388602197833400D-01  0.00000000000000000D+00  0.00000000000000000D+00 -2.83035833642633700D-01  0.00000000000000000D+00
31  3  0.00000000000000000D+00  0.00000000000000000D+00  0.00000000000000000D+00 -1.23410293723743300D-06 -1.28629986472903400D-01
31  4  0.00000000000000000D+00  0.00000000000000000D+00  0.00000000000000000D+00  0.00000000000000000D+00  0.00000000000000000D+00
31  5  2.88978966760564700D-01  0.00000000000000000D+00  0.00000000000000000D+00  3.83196766633821500D-01  0.00000000000000000D+00
31  6  0.00000000000000000D+00  0.00000000000000000D+00  0.00000000000000000D+00  1.57721793251564500D-03  6.51103312781022000D-03
31  7  0.00000000000000000D+00  0.00000000000000000D+00  0.00000000000000000D+00  0.00000000000000000D+00  0.00000000000000000D+00
31  8 -2.88973225784902400D-01  0.00000000000000000D+00  0.00000000000000000D+00 -3.83184104760943600D-01  0.00000000000000000D+00
31  9  0.00000000000000000D+00  0.00000000000000000D+00  0.00000000000000000D+00 -1.57038938050169700D-03  6.51533950298759400D-03
31 10  0.00000000000000000D+00  0.00000000000000000D+00  0.00000000000000000D+00  0.00000000000000000D+00  0.00000000000000000D+00
31 11  1.90333036384355200D-01  0.00000000000000000D+00  0.00000000000000000D+00  2.82987463314739000D-01  0.00000000000000000D+00
31 12  0.00000000000000000D+00  0.00000000000000000D+00  0.00000000000000000D+00  8.53822434012551900D-07 -1.28669942525956100D-01
31 13  0.00000000000000000D+00  0.00000000000000000D+00  0.00000000000000000D+00  0.00000000000000000D+00  0.00000000000000000D+00
31 14 -2.88983782057880500D-01  0.00000000000000000D+00  0.00000000000000000D+00 -3.83204418485337100D-01  0.00000000000000000D+00
31 15  0.00000000000000000D+00  0.00000000000000000D+00  0.00000000000000000D+00  1.56944550422600500D-03  6.51675561186469400D-03
31 16  0.00000000000000000D+00  0.00000000000000000D+00  0.00000000000000000D+00  0.00000000000000000D+00  0.00000000000000000D+00
31 17  2.88990154410691900D-01  0.00000000000000000D+00  0.00000000000000000D+00  3.83218408886703600D-01  0.00000000000000000D+00
31 18  0.00000000000000000D+00  0.00000000000000000D+00  0.00000000000000000D+00 -1.57757257597616600D-03  6.51415576834841900D-03
31 19  0.00000000000000000D+00  0.00000000000000000D+00  0.00000000000000000D+00  0.00000000000000000D+00  0.00000000000000000D+00
31 20  0.00000000000000000D+00  3.47785436069618000D-01  0.00000000000000000D+00  0.00000000000000000D+00 -3.18087044317058600D-02
31 21  0.00000000000000000D+00  0.00000000000000000D+00 -1.84317548296036200D-01  0.00000000000000000D+00  0.00000000000000000D+00
31 22  0.00000000000000000D+00  0.00000000000000000D+00  1.52721356847268100D-07  1.57307022983260200D-02  0.00000000000000000D+00
31 23  0.00000000000000000D+00  0.00000000000000000D+00  0.00000000000000000D+00  1.32533977045222400D-07  1.04746252533091300D-01
31 24  0.00000000000000000D+00  0.00000000000000000D+00  0.00000000000000000D+00  0.00000000000000000D+00  0.00000000000000000D+00
31 25  0.00000000000000000D+00 -3.47840482628343200D-01  0.00000000000000000D+00  0.00000000000000000D+00  3.18725148934593000D-02
31 26  0.00000000000000000D+00  0.00000000000000000D+00  1.84384787985711100D-01  0.00000000000000000D+00  0.00000000000000000D+00
31 27  0.00000000000000000D+00  0.00000000000000000D+00 -3.85280918426886300D-08  1.57321327596785200D-02  0.00000000000000000D+00
31 28  0.00000000000000000D+00  0.00000000000000000D+00  0.00000000000000000D+00 -5.04829943004837000D-07  1.04779109759927800D-01
31 29  0.00000000000000000D+00  0.00000000000000000D+00  0.00000000000000000D+00  0.00000000000000000D+00  1.08333515573037600D-02
31 30  0.00000000000000000D+00  0.00000000000000000D+00  0.00000000000000000D+00  0.00000000000000000D+00 -1.08325569251090300D-02
31 31  0.00000000000000000D+00  0.00000000000000000D+00  0.00000000000000000D+00  0.00000000000000000D+00 -1.08327547059963900D-02
31 32  0.00000000000000000D+00  0.00000000000000000D+00  0.00000000000000000D+00  0.00000000000000000D+00  1.08331021423817400D-02
32  1  0.00000000000000000D+00  0.00000000000000000D+00  0.00000000000000000D+00  0.00000000000000000D+00  0.00000000000000000D+00
32  2 -8.63281117297768000D-07  0.00000000000000000D+00  0.00000000000000000D+00 -2.55602212360948100D-06  0.00000000000000000D+00
32  3  0.00000000000000000D+00  0.00000000000000000D+00  0.00000000000000000D+00 -5.71402154072448400D-02  3.65919742531537600D-06
32  4  0.00000000000000000D+00  0.00000000000000000D+00  0.00000000000000000D+00  0.00000000000000000D+00  0.00000000000000000D+00
32  5 -3.44035973371296900D-01  0.00000000000000000D+00  0.00000000000000000D+00 -3.60921590061314100D-01  0.00000000000000000D+00
32  6  0.00000000000000000D+00  0.00000000000000000D+00  0.00000000000000000D+00 -7.07925048447567300D-03 -4.29015047740955400D-02
32  7  0.00000000000000000D+00  0.00000000000000000D+00  0.00000000000000000D+00  0.00000000000000000D+00  0.00000000000000000D+00
32  8  3.44037300455709300D-01  0.00000000000000000D+00  0.00000000000000000D+00  3.60920739988092400D-01  0.00000000000000000D+00
32  9  0.00000000000000000D+00  0.00000000000000000D+00  0.00000000000000000D+00  7.07341781619414400D-03 -4.29065919728494800D-02
32 10  0.00000000000000000D+00  0.00000000000000000D+00  0.00000000000000000D+00  0.00000000000000000D+00  0.00000000000000000D+00
32 11 -2.55160911854841900D-06  0.00000000000000000D+00  0.00000000000000000D+00 -5.35281244643509100D-06  0.00000000000000000D+00
32 12  0.00000000000000000D+00  0.00000000000000000D+00  0.00000000000000000D+00  5.71555620730857300D-02  1.71662300245611200D-06
32 13  0.00000000000000000D+00  0.00000000000000000D+00  0.00000000000000000D+00  0.00000000000000000D+00  0.00000000000000000D+00
32 14 -3.44025901250011300D-01  0.00000000000000000D+00  0.00000000000000000D+00 -3.60918363321042500D-01  0.00000000000000000D+00
32 15  0.00000000000000000D+00  0.00000000000000000D+00  0.00000000000000000D+00  7.07195360683898700D-03  4.29062299583897300D-02
32 16  0.00000000000000000D+00  0.00000000000000000D+00  0.00000000000000000D+00  0.00000000000000000D+00  0.00000000000000000D+00
32 17  3.44026910420414300D-01  0.00000000000000000D+00  0.00000000000000000D+00  3.60920457121671000D-01  0.00000000000000000D+00
32 18  0.00000000000000000D+00  0.00000000000000000D+00  0.00000000000000000D+00 -7.08066607369534500D-03  4.29045880538166300D-02
32 19  0.00000000000000000D+00  0.00000000000000000D+00  0.00000000000000000D+00  0.00000000000000000D+00  0.00000000000000000D+00
32 20  0.00000000000000000D+00 -8.26568952919915400D-06  0.00000000000000000D+00  0.00000000000000000D+00  4.66225489582277500D-06
32 21  0.00000000000000000D+00  0.00000000000000000D+00  5.67548944268701800D-06  0.00000000000000000D+00  0.00000000000000000D+00
32 22  0.00000000000000000D+00  0.00000000000000000D+00  3.63719553727213100D-03 -3.04829260185562500D-07  0.00000000000000000D+00
32 23  0.00000000000000000D+00  0.00000000000000000D+00  0.00000000000000000D+00  1.33055956508407900D-02 -4.15496543207727700D-06
32 24  0.00000000000000000D+00  0.00000000000000000D+00  0.00000000000000000D+00  0.00000000000000000D+00  0.00000000000000000D+00
32 25  0.00000000000000000D+00  3.55149711190674400D-06  0.00000000000000000D+00  0.00000000000000000D+00  1.03685292180803500D-06
32 26  0.00000000000000000D+00  0.00000000000000000D+00 -9.71888582473146900D-07  0.00000000000000000D+00  0.00000000000000000D+00
32 27  0.00000000000000000D+00  0.00000000000000000D+00 -3.63875459440778600D-03 -2.62164278997068200D-07  0.00000000000000000D+00
32 28  0.00000000000000000D+00  0.00000000000000000D+00  0.00000000000000000D+00 -1.33063489558140400D-02 -7.50240026584553000D-07
32 29  0.00000000000000000D+00  0.00000000000000000D+00  0.00000000000000000D+00  0.00000000000000000D+00 -1.24628220564080700D-02
32 30  0.00000000000000000D+00  0.00000000000000000D+00  0.00000000000000000D+00  0.00000000000000000D+00  1.24628974390574000D-02
32 31  0.00000000000000000D+00  0.00000000000000000D+00  0.00000000000000000D+00  0.00000000000000000D+00 -1.24623411760174100D-02
32 32  0.00000000000000000D+00  0.00000000000000000D+00  0.00000000000000000D+00  0.00000000000000000D+00  1.24624130657516600D-02
33  1  0.00000000000000000D+00  0.00000000000000000D+00  0.00000000000000000D+00  0.00000000000000000D+00  0.00000000000000000D+00
33  2 -2.75805359568356600D-01  0.00000000000000000D+00  0.00000000000000000D+00 -1.84997723464166300D-01  0.00000000000000000D+00
33  3  0.00000000000000000D+00  0.00000000000000000D+00  0.00000000000000000D+00 -6.63419692046125300D-08  2.82033783095543600D-01
33  4  0.00000000000000000D+00  0.00000000000000000D+00  0.00000000000000000D+00  0.00000000000000000D+00  0.00000000000000000D+00
33  5 -4.07595423234221500D-02  0.00000000000000000D+00  0.00000000000000000D+00  8.73156680448800600D-02  0.00000000000000000D+00
33  6  0.00000000000000000D+00  0.00000000000000000D+00  0.00000000000000000D+00  2.23694409320733600D-02 -4.76071510414332700D-02
33  7  0.00000000000000000D+00  0.00000000000000000D+00  0.00000000000000000D+00  0.00000000000000000D+00  0.00000000000000000D+00
33  8 -4.06844761353373900D-02  0.00000000000000000D+00  0.00000000000000000D+00  8.74815211692338800D-02  0.00000000000000000D+00
33  9  0.00000000000000000D+00  0.00000000000000000D+00  0.00000000000000000D+00  2.23933501497174000D-02  4.75786819810316300D-02
33 10  0.00000000000000000D+00  0.00000000000000000D+00  0.00000000000000000D+00  0.00000000000000000D+00  0.00000000000000000D+00
33 11 -2.75990559054923900D-01  0.00000000000000000D+00  0.00000000000000000D+00 -1.85105548620122000D-01  0.00000000000000000D+00
33 12  0.00000000000000000D+00  0.00000000000000000D+00  0.00000000000000000D+00 -1.29829134399547200D-06 -2.82113729610274200D-01
33 13  0.00000000000000000D+00  0.00000000000000000D+00  0.00000000000000000D+00  0.00000000000000000D+00  0.00000000000000000D+00
33 14 -4.06793317658216700D-02  0.00000000000000000D+00  0.00000000000000000D+00  8.74838049535889800D-02  0.00000000000000000D+00
33 15  0.00000000000000000D+00  0.00000000000000000D+00  0.00000000000000000D+00 -2.23935750393943800D-02  4.75793752779404000D-02
33 16  0.00000000000000000D+00  0.00000000000000000D+00  0.00000000000000000D+00  0.00000000000000000D+00  0.00000000000000000D+00
33 17 -4.07545814960141700D-02  0.00000000000000000D+00  0.00000000000000000D+00  8.73089394306027900D-02  0.00000000000000000D+00
33 18  0.00000000000000000D+00  0.00000000000000000D+00  0.00000000000000000D+00 -2.23694815083756400D-02 -4.76103840217890100D-02
33 19  0.00000000000000000D+00  0.00000000000000000D+00  0.00000000000000000D+00  0.00000000000000000D+00  0.00000000000000000D+00
33 20  0.00000000000000000D+00 -4.45291104341140400D-01  0.00000000000000000D+00  0.00000000000000000D+00  3.27616125209240500D-01
33 21  0.00000000000000000D+00  0.00000000000000000D+00  3.38884902776659200D-01  0.00000000000000000D+00  0.00000000000000000D+00
33 22  0.00000000000000000D+00  0.00000000000000000D+00  5.79810492042395200D-08 -2.07276038867575500D-02  0.00000000000000000D+00
33 23  0.00000000000000000D+00  0.00000000000000000D+00  0.00000000000000000D+00  3.16090882489570200D-07 -2.23220261685186400D-01
33 24  0.00000000000000000D+00  0.00000000000000000D+00  0.00000000000000000D+00  0.00000000000000000D+00  0.00000000000000000D+00
33 25  0.00000000000000000D+00 -4.45341194789168600D-01  0.00000000000000000D+00  0.00000000000000000D+00  3.27696410491294500D-01
33 26  0.00000000000000000D+00  0.00000000000000000D+00  3.38935250759921400D-01  0.00000000000000000D+00  0.00000000000000000D+00
33 27  0.00000000000000000D+00  0.00000000000000000D+00  1.34779814071416800D-07  2.07284431090823200D-02  0.00000000000000000D+00
33 28  0.00000000000000000D+00  0.00000000000000000D+00  0.00000000000000000D+00 -1.69492062746268700D-07  2.23267189421753400D-01
33 29  0.00000000000000000D+00  0.00000000000000000D+00  0.00000000000000000D+00  0.00000000000000000D+00  1.55066619245980200D-03
33 30  0.00000000000000000D+00  0.00000000000000000D+00  0.00000000000000000D+00  0.00000000000000000D+00  1.55708138712050000D-03
33 31  0.00000000000000000D+00  0.00000000000000000D+00  0.00000000000000000D+00  0.00000000000000000D+00  1.55706445053703300D-03
33 32  0.00000000000000000D+00  0.00000000000000000D+00  0.00000000000000000D+00  0.00000000000000000D+00  1.55075371222889400D-03
34  1 -1.63695254745694800D-02  1.89669619090976400D-01  1.69691999578957200D+00  2.19556535243864000D-05 -1.70906923192732800D-01
34  2  0.00000000000000000D+00  3.48877166377872600D-05 -7.00400297209155900D-01  0.00000000000000000D+00 -7.30695651014317700D-02
34  3  3.11617440531161200D-02  4.19078210483160900D-02 -2.66432936544010200D-06  0.00000000000000000D+00  0.00000000000000000D+00
34  4  3.38881902247908100D-02 -4.15340937671002500D-02 -8.20660214380031400D-01  1.89886474463747100D-01 -1.63677533074084900D-01
34  5  0.00000000000000000D+00  4.73901289761777500D-01 -1.34145845609889300D-01  0.00000000000000000D+00  8.69542448417436600D-02
34  6  4.37896470107964100D-02 -1.30743891852539700D-01 -1.17863620601878400D-02  0.00000000000000000D+00  0.00000000000000000D+00
34  7  3.38871870065582400D-02 -4.15638780221123800D-02 -8.20846452279921700D-01  1.89901715425725500D-01  1.63682220133983100D-01
34  8  0.00000000000000000D+00  4.73951624534713600D-01  1.34148627014044200D-01  0.00000000000000000D+00  8.69637818008871100D-02
34  9  4.38002450258756600D-02 -1.30764026826763300D-01  1.17834229322809200D-02  0.00000000000000000D+00  0.00000000000000000D+00
34 10 -1.63704528140958600D-02  1.89697575620320400D-01  1.69716595133557100D+00  1.22139602941669300D-05  1.70925374882051000D-01
34 11  0.00000000000000000D+00  1.68689635674773300D-05  7.00502273823718900D-01  0.00000000000000000D+00 -7.30795287155417800D-02
34 12  3.11586990236994700D-02  4.19208296918422300D-02  1.28717348684673000D-06  0.00000000000000000D+00  0.00000000000000000D+00
34 13  3.38795186477561200D-02 -4.15778950854220500D-02 -8.20840632486306500D-01 -1.89897880224278500D-01  1.63673301213203900D-01
34 14  0.00000000000000000D+00 -4.73929959829227600D-01  1.34143668771153900D-01  0.00000000000000000D+00  8.69558986370771400D-02
34 15  4.37956928696646800D-02 -1.30751591506741600D-01 -1.17848985473047600D-02  0.00000000000000000D+00  0.00000000000000000D+00
34 16  3.38754662009452300D-02 -4.15550356420973000D-02 -8.20593216120043200D-01 -1.89879559999030100D-01 -1.63666744930069700D-01
34 17  0.00000000000000000D+00 -4.73843281545349700D-01 -1.34158157776953700D-01  0.00000000000000000D+00  8.69466493943670100D-02
34 18  4.37826665695722600D-02 -1.30729315963939100D-01  1.17858049695452000D-02  0.00000000000000000D+00  0.00000000000000000D+00
34 19  9.14611085081333500D-04 -6.81718603239140200D-03  2.06549117343591000D-02 -7.21456497796527500D-02  5.53862051304963300D-07
34 20  4.18119184770666600D-02  0.00000000000000000D+00 -3.49672966127579800D-06  1.24209200261939100D-01  0.00000000000000000D+00
34 21 -1.68536898734474500D-05  1.05011923986814400D-01  0.00000000000000000D+00 -3.76199722576292400D-03  3.04631828244214300D-03
34 22  7.15678943320957900D-04 -5.15732374525527700D-07  0.00000000000000000D+00  0.00000000000000000D+00  3.78684367783300200D-02
34 23 -5.28544487148759800D-02  1.49860119365463600D-02 -2.24194620182903500D-06  0.00000000000000000D+00  0.00000000000000000D+00
34 24  9.15494432204647900D-04 -6.81818640037715700D-03  2.06567748641135900D-02 -7.21388678512287400D-02  1.60197841430036700D-06
34 25 -4.18181840548560200D-02  0.00000000000000000D+00 -9.12599025296293600D-07 -1.24220868043480100D-01  0.00000000000000000D+00
34 26 -1.32181187797964200D-05 -1.05013315569781400D-01  0.00000000000000000D+00 -3.76299346407150500D-03  3.04707166866418600D-03
34 27  7.15921795407287100D-04  2.63177660034140400D-07  0.00000000000000000D+00  0.00000000000000000D+00  3.78730098371804100D-02
34 28 -5.28583323979078800D-02  1.49853225607274900D-02  1.39333184142301100D-06  0.00000000000000000D+00  0.00000000000000000D+00
34 29  4.03367252779704800D-02 -3.12208649723636300D-03  1.01455955976613500D-02 -1.03365852701905600D-03  0.00000000000000000D+00
34 30  4.03610327418751300D-02 -3.08379939648367700D-03  1.01471018272778300D-02  1.03291974669217000D-03  0.00000000000000000D+00
34 31  4.03611075426366900D-02 -3.07165421749032700D-03 -1.01449275183514100D-02  1.03319090761202400D-03  0.00000000000000000D+00
34 32  4.03335241651672600D-02 -3.09720413405849500D-03 -1.01443944235305500D-02 -1.03342081324302300D-03  0.00000000000000000D+00
35  1  0.00000000000000000D+00  0.00000000000000000D+00  0.00000000000000000D+00  0.00000000000000000D+00  0.00000000000000000D+00
35  2  4.02034068128281100D-01  0.00000000000000000D+00  0.00000000000000000D+00  2.31562859734370000D-01  0.00000000000000000D+00
35  3  0.00000000000000000D+00  0.00000000000000000D+00  0.00000000000000000D+00  1.57826896158646000D-06 -3.01970950986671300D-01
35  4  0.00000000000000000D+00  0.00000000000000000D+00  0.00000000000000000D+00  0.00000000000000000D+00  0.00000000000000000D+00
35  5 -9.04891310752618500D-02  0.00000000000000000D+00  0.00000000000000000D+00 -2.91408636314796100D-01  0.00000000000000000D+00
35  6  0.00000000000000000D+00  0.00000000000000000D+00  0.00000000000000000D+00 -7.83549455577841800D-02 -7.82727199721784800D-02
35  7  0.00000000000000000D+00  0.00000000000000000D+00  0.00000000000000000D+00  0.00000000000000000D+00  0.00000000000000000D+00
35  8  9.05039067288832100D-02  0.00000000000000000D+00  0.00000000000000000D+00  2.91360671476191900D-01  0.00000000000000000D+00
35  9  0.00000000000000000D+00  0.00000000000000000D+00  0.00000000000000000D+00  7.83269148202414400D-02 -7.82781743293590300D-02
35 10  0.00000000000000000D+00  0.00000000000000000D+00  0.00000000000000000D+00  0.00000000000000000D+00  0.00000000000000000D+00
35 11 -4.01979005670958000D-01  0.00000000000000000D+00  0.00000000000000000D+00 -2.31407673932304400D-01  0.00000000000000000D+00
35 12  0.00000000000000000D+00  0.00000000000000000D+00  0.00000000000000000D+00  6.65591471124738200D-08 -3.01884614975033100D-01
35 13  0.00000000000000000D+00  0.00000000000000000D+00  0.00000000000000000D+00  0.00000000000000000D+00  0.00000000000000000D+00
35 14  9.04958442145063500D-02  0.00000000000000000D+00  0.00000000000000000D+00  2.91372775823659000D-01  0.00000000000000000D+00
35 15  0.00000000000000000D+00  0.00000000000000000D+00  0.00000000000000000D+00 -7.83236769477339100D-02 -7.82715578283416200D-02
35 16  0.00000000000000000D+00  0.00000000000000000D+00  0.00000000000000000D+00  0.00000000000000000D+00  0.00000000000000000D+00
35 17 -9.04920079268686000D-02  0.00000000000000000D+00  0.00000000000000000D+00 -2.91416302167996100D-01  0.00000000000000000D+00
35 18  0.00000000000000000D+00  0.00000000000000000D+00  0.00000000000000000D+00  7.83584696037522300D-02 -7.82793823750686900D-02
35 19  0.00000000000000000D+00  0.00000000000000000D+00  0.00000000000000000D+00  0.00000000000000000D+00  0.00000000000000000D+00
35 20  0.00000000000000000D+00  2.96755639288232600D-01  0.00000000000000000D+00  0.00000000000000000D+00 -2.56943120255590400D-01
35 21  0.00000000000000000D+00  0.00000000000000000D+00 -2.22729269857820000D-01  0.00000000000000000D+00  0.00000000000000000D+00
35 22  0.00000000000000000D+00  0.00000000000000000D+00 -6.16613868278861600D-07  1.37465175496394500D-02  0.00000000000000000D+00
35 23  0.00000000000000000D+00  0.00000000000000000D+00  0.00000000000000000D+00 -1.74700368805148900D-08  1.96316736619040900D-01
35 24  0.00000000000000000D+00  0.00000000000000000D+00  0.00000000000000000D+00  0.00000000000000000D+00  0.00000000000000000D+00
35 25  0.00000000000000000D+00 -2.96585346849108100D-01  0.00000000000000000D+00  0.00000000000000000D+00  2.56795554735422300D-01
35 26  0.00000000000000000D+00  0.00000000000000000D+00  2.22576160297566700D-01  0.00000000000000000D+00  0.00000000000000000D+00
35 27  0.00000000000000000D+00  0.00000000000000000D+00 -2.19491496595112900D-07  1.37408870170451800D-02  0.00000000000000000D+00
35 28  0.00000000000000000D+00  0.00000000000000000D+00  0.00000000000000000D+00 -1.39929252194339400D-07  1.96224147237794300D-01
35 29  0.00000000000000000D+00  0.00000000000000000D+00  0.00000000000000000D+00  0.00000000000000000D+00 -1.47858887662050100D-02
35 30  0.00000000000000000D+00  0.00000000000000000D+00  0.00000000000000000D+00  0.00000000000000000D+00  1.47867291864395100D-02
35 31  0.00000000000000000D+00  0.00000000000000000D+00  0.00000000000000000D+00  0.00000000000000000D+00  1.47862335487903300D-02
35 32  0.00000000000000000D+00  0.00000000000000000D+00  0.00000000000000000D+00  0.00000000000000000D+00 -1.47867501870021100D-02
36  1  7.82656816561548200D-07  9.10742948591442400D-06  4.58394169760219400D-05 -3.49993967260990100D-01 -4.57078817637818400D-06
36  2  0.00000000000000000D+00 -9.46084552927137800D-01 -7.01595035630546100D-05  0.00000000000000000D+00 -3.94095202768388000D-06
36  3  8.69940580771244800D-07  3.07101144715830200D-06  3.72564393524099400D-02  0.00000000000000000D+00  0.00000000000000000D+00
36  4 -8.57302850452247900D-02 -1.36813870229895800D-01  7.47216974479525500D-01 -9.30273342868203600D-02  1.36754735504014200D-01
36  5  0.00000000000000000D+00 -5.07556367187275400D-01  1.29072911026408700D-01  0.00000000000000000D+00 -1.02468281951257600D-01
36  6 -6.32475001218071900D-02  1.65715782073064200D-01 -1.00165869731771800D-04  0.00000000000000000D+00  0.00000000000000000D+00
36  7 -8.57279904159342800D-02 -1.36789959959586500D-01  7.47368146870257400D-01 -9.30502208943821700D-02 -1.36749533772229400D-01
36  8  0.00000000000000000D+00 -5.07766773036975400D-01 -1.29468083434023000D-01  0.00000000000000000D+00 -1.02476704910849800D-01
36  9 -6.32557536756987200D-02  1.65732458586547900D-01  1.06966977479240300D-04  0.00000000000000000D+00  0.00000000000000000D+00
36 10 -1.17081621967494100D-08  1.20677471326887100D-05  8.66877305180543100D-05 -3.50030942960442000D-01  9.11943439713062900D-06
36 11  0.00000000000000000D+00 -9.46734120784892100D-01  5.68999886469237200D-05  0.00000000000000000D+00 -4.18694479479222000D-06
36 12  1.20719142874021500D-06  2.97975336601297000D-06 -3.72633174823445900D-02  0.00000000000000000D+00  0.00000000000000000D+00
36 13  8.57284155233289900D-02  1.36777577167373900D-01 -7.47481935897884400D-01 -9.30726410677197900D-02  1.36764808960631800D-01
36 14  0.00000000000000000D+00 -5.07833197066477100D-01  1.29472987489279200D-01  0.00000000000000000D+00  1.02484059820178000D-01
36 15  6.32616974147198600D-02 -1.65745757234898000D-01  1.04579314580165000D-04  0.00000000000000000D+00  0.00000000000000000D+00
36 16  8.57257896727918300D-02  1.36798350208031900D-01 -7.47273721218794500D-01 -9.30475755957746700D-02 -1.36766020698338300D-01
36 17  0.00000000000000000D+00 -5.07591277147744700D-01 -1.29087942778171900D-01  0.00000000000000000D+00  1.02472488180380900D-01
36 18  6.32515587642041600D-02 -1.65724046944585200D-01 -9.72057722783917400D-05  0.00000000000000000D+00  0.00000000000000000D+00
36 19 -6.46838616654447700D-07  3.05579988759510800D-07  2.55066313238871200D-05  1.68433347593685200D-05 -6.39593302372874200D-02
36 20  1.37173080487747500D-06  0.00000000000000000D+00  1.68307765491477500D-01 -1.98471404273571100D-06  0.00000000000000000D+00
36 21  4.36191091861129500D-01 -1.30638050608974400D-05  0.00000000000000000D+00 -1.39646361186700700D-07  3.01077413984870100D-07
36 22 -1.61431053224961300D-07  9.63520772574651700D-03  0.00000000000000000D+00  0.00000000000000000D+00  2.55025024944159100D-06
36 23 -3.63937070008399800D-06  1.08912044999967900D-06  3.12744854104134200D-02  0.00000000000000000D+00  0.00000000000000000D+00
36 24 -3.09238588170232800D-07 -1.30460461631642900D-06  7.34880992921920600D-06  1.42219598681863400D-05 -6.40173703877080500D-02
36 25 -3.30369816640389200D-06  0.00000000000000000D+00  1.68403590386691300D-01 -3.59094095978673700D-06  0.00000000000000000D+00
36 26  4.36353852006152200D-01  7.30756736654814500D-06  0.00000000000000000D+00  5.74796493047725200D-09  6.22356282323349900D-08
36 27 -6.79835932392561400D-08 -9.63755654445668300D-03  0.00000000000000000D+00  0.00000000000000000D+00  2.18227354533803000D-06
36 28 -2.36658000681399100D-06  1.84306461475968600D-07 -3.12763066861712900D-02  0.00000000000000000D+00  0.00000000000000000D+00
36 29  6.06810753883436700D-03  1.69814105974667300D-01 -2.01766056293575400D-02 -5.33359254014634900D-03  0.00000000000000000D+00
36 30  6.03407145318158400D-03  1.69751346914776500D-01 -2.01752421966037500D-02  5.33871477623715700D-03  0.00000000000000000D+00
36 31 -6.03177885611296300D-03 -1.69765176513971100D-01 -2.01753161340959700D-02 -5.33892646109654900D-03  0.00000000000000000D+00
36 32 -6.07145336322360200D-03 -1.69828769633004400D-01 -2.01771458756580500D-02  5.33310289409805900D-03  0.00000000000000000D+00
37  1  0.00000000000000000D+00  0.00000000000000000D+00  0.00000000000000000D+00  0.00000000000000000D+00  0.00000000000000000D+00
37  2 -1.37684277635978400D-01  0.00000000000000000D+00  0.00000000000000000D+00  3.11526973644364900D-01  0.00000000000000000D+00
37  3  0.00000000000000000D+00  0.00000000000000000D+00  0.00000000000000000D+00 -3.18895832184858300D-05  3.96355551029533600D-02
37  4  0.00000000000000000D+00  0.00000000000000000D+00  0.00000000000000000D+00  0.00000000000000000D+00  0.00000000000000000D+00
37  5 -2.75590521965479000D-01  0.00000000000000000D+00  0.00000000000000000D+00  7.32966951325380600D-02  0.00000000000000000D+00
37  6  0.00000000000000000D+00  0.00000000000000000D+00  0.00000000000000000D+00 -1.97208155166892400D-01 -3.05559483887068600D-01
37  7  0.00000000000000000D+00  0.00000000000000000D+00  0.00000000000000000D+00  0.00000000000000000D+00  0.00000000000000000D+00
37  8 -2.75547181108673900D-01  0.00000000000000000D+00  0.00000000000000000D+00  7.31816346461564600D-02  0.00000000000000000D+00
37  9  0.00000000000000000D+00  0.00000000000000000D+00  0.00000000000000000D+00 -1.97231375639676400D-01  3.05601540746575900D-01
37 10  0.00000000000000000D+00  0.00000000000000000D+00  0.00000000000000000D+00  0.00000000000000000D+00  0.00000000000000000D+00
37 11 -1.37659603958579700D-01  0.00000000000000000D+00  0.00000000000000000D+00  3.11580362824099800D-01  0.00000000000000000D+00
37 12  0.00000000000000000D+00  0.00000000000000000D+00  0.00000000000000000D+00 -2.45712352505021800D-05 -3.96142095927480100D-02
37 13  0.00000000000000000D+00  0.00000000000000000D+00  0.00000000000000000D+00  0.00000000000000000D+00  0.00000000000000000D+00
37 14 -2.75488328681953600D-01  0.00000000000000000D+00  0.00000000000000000D+00  7.31342144836711200D-02  0.00000000000000000D+00
37 15  0.00000000000000000D+00  0.00000000000000000D+00  0.00000000000000000D+00  1.97199860603387500D-01  3.05529613324191100D-01
37 16  0.00000000000000000D+00  0.00000000000000000D+00  0.00000000000000000D+00  0.00000000000000000D+00  0.00000000000000000D+00
37 17 -2.75536717629266800D-01  0.00000000000000000D+00  0.00000000000000000D+00  7.32512833206498700D-02  0.00000000000000000D+00
37 18  0.00000000000000000D+00  0.00000000000000000D+00  0.00000000000000000D+00  1.97168749083750800D-01 -3.05478445138085000D-01
37 19  0.00000000000000000D+00  0.00000000000000000D+00  0.00000000000000000D+00  0.00000000000000000D+00  0.00000000000000000D+00
37 20  0.00000000000000000D+00  7.76545331143434100D-02  0.00000000000000000D+00  0.00000000000000000D+00 -1.46410186448371400D-01
37 21  0.00000000000000000D+00  0.00000000000000000D+00 -8.87334502812000800D-02  0.00000000000000000D+00  0.00000000000000000D+00
37 22  0.00000000000000000D+00  0.00000000000000000D+00  5.83536193780164400D-06 -1.85895167839654500D-02  0.00000000000000000D+00
37 23  0.00000000000000000D+00  0.00000000000000000D+00  0.00000000000000000D+00 -9.93153752096073700D-07  8.77081143056106100D-02
37 24  0.00000000000000000D+00  0.00000000000000000D+00  0.00000000000000000D+00  0.00000000000000000D+00  0.00000000000000000D+00
37 25  0.00000000000000000D+00  7.76556761749263900D-02  0.00000000000000000D+00  0.00000000000000000D+00 -1.46430650276410100D-01
37 26  0.00000000000000000D+00  0.00000000000000000D+00 -8.86920873480723900D-02  0.00000000000000000D+00  0.00000000000000000D+00
37 27  0.00000000000000000D+00  0.00000000000000000D+00  4.83649056811020600D-06  1.85901496001599300D-02  0.00000000000000000D+00
37 28  0.00000000000000000D+00  0.00000000000000000D+00  0.00000000000000000D+00 -1.53776944992151700D-06 -8.77232190072652400D-02
37 29  0.00000000000000000D+00  0.00000000000000000D+00  0.00000000000000000D+00  0.00000000000000000D+00 -3.07749838981269900D-02
37 30  0.00000000000000000D+00  0.00000000000000000D+00  0.00000000000000000D+00  0.00000000000000000D+00 -3.07845628319962300D-02
37 31  0.00000000000000000D+00  0.00000000000000000D+00  0.00000000000000000D+00  0.00000000000000000D+00 -3.07824083088956600D-02
37 32  0.00000000000000000D+00  0.00000000000000000D+00  0.00000000000000000D+00  0.00000000000000000D+00 -3.07755984266004900D-02
38  1  0.00000000000000000D+00  0.00000000000000000D+00  0.00000000000000000D+00  0.00000000000000000D+00  0.00000000000000000D+00
38  2 -7.17208888880951400D-06  0.00000000000000000D+00  0.00000000000000000D+00  2.12898786039110400D-05  0.00000000000000000D+00
38  3  0.00000000000000000D+00  0.00000000000000000D+00  0.00000000000000000D+00  3.41772018269906200D-01  9.43581940285405300D-06
38  4  0.00000000000000000D+00  0.00000000000000000D+00  0.00000000000000000D+00  0.00000000000000000D+00  0.00000000000000000D+00
38  5  2.10443033872379400D-01  0.00000000000000000D+00  0.00000000000000000D+00 -1.86791153476487000D-01  0.00000000000000000D+00
38  6  0.00000000000000000D+00  0.00000000000000000D+00  0.00000000000000000D+00  8.66077669960512600D-02  3.03716860853504400D-01
38  7  0.00000000000000000D+00  0.00000000000000000D+00  0.00000000000000000D+00  0.00000000000000000D+00  0.00000000000000000D+00
38  8  2.10368806209914600D-01  0.00000000000000000D+00  0.00000000000000000D+00 -1.86823154418359900D-01  0.00000000000000000D+00
38  9  0.00000000000000000D+00  0.00000000000000000D+00  0.00000000000000000D+00  8.65939361220518000D-02 -3.03709360371045000D-01
38 10  0.00000000000000000D+00  0.00000000000000000D+00  0.00000000000000000D+00  0.00000000000000000D+00  0.00000000000000000D+00
38 11 -1.04506694512511300D-05  0.00000000000000000D+00  0.00000000000000000D+00  3.58867708171396400D-05  0.00000000000000000D+00
38 12  0.00000000000000000D+00  0.00000000000000000D+00  0.00000000000000000D+00  3.41998243141404700D-01 -1.08594103282180400D-07
38 13  0.00000000000000000D+00  0.00000000000000000D+00  0.00000000000000000D+00  0.00000000000000000D+00  0.00000000000000000D+00
38 14 -2.10431114274863200D-01  0.00000000000000000D+00  0.00000000000000000D+00  1.86828904094715400D-01  0.00000000000000000D+00
38 15  0.00000000000000000D+00  0.00000000000000000D+00  0.00000000000000000D+00  8.66409653923786000D-02  3.03787389837337300D-01
38 16  0.00000000000000000D+00  0.00000000000000000D+00  0.00000000000000000D+00  0.00000000000000000D+00  0.00000000000000000D+00
38 17 -2.10498571893160500D-01  0.00000000000000000D+00  0.00000000000000000D+00  1.86814052637304700D-01  0.00000000000000000D+00
38 18  0.00000000000000000D+00  0.00000000000000000D+00  0.00000000000000000D+00  8.66483085209789600D-02 -3.03787663539690100D-01
38 19  0.00000000000000000D+00  0.00000000000000000D+00  0.00000000000000000D+00  0.00000000000000000D+00  0.00000000000000000D+00
38 20  0.00000000000000000D+00  5.08325018351431600D-06  0.00000000000000000D+00  0.00000000000000000D+00 -1.33325161660891600D-05
38 21  0.00000000000000000D+00  0.00000000000000000D+00 -7.61849104210324300D-06  0.00000000000000000D+00  0.00000000000000000D+00
38 22  0.00000000000000000D+00  0.00000000000000000D+00 -5.49034610233963400D-02 -8.30241454832983800D-07  0.00000000000000000D+00
38 23  0.00000000000000000D+00  0.00000000000000000D+00  0.00000000000000000D+00 -4.36006176600610600D-03  8.51030801874722700D-06
38 24  0.00000000000000000D+00  0.00000000000000000D+00  0.00000000000000000D+00  0.00000000000000000D+00  0.00000000000000000D+00
38 25  0.00000000000000000D+00  9.82508959081362400D-06  0.00000000000000000D+00  0.00000000000000000D+00 -1.68016998454893100D-05
38 26  0.00000000000000000D+00  0.00000000000000000D+00 -1.04185931970088100D-05  0.00000000000000000D+00  0.00000000000000000D+00
38 27  0.00000000000000000D+00  0.00000000000000000D+00 -5.49322490620325800D-02  2.02430766812409100D-06  0.00000000000000000D+00
38 28  0.00000000000000000D+00  0.00000000000000000D+00  0.00000000000000000D+00 -4.36448324202819900D-03 -1.00820926082494000D-05
38 29  0.00000000000000000D+00  0.00000000000000000D+00  0.00000000000000000D+00  0.00000000000000000D+00  3.86182019119207500D-03
38 30  0.00000000000000000D+00  0.00000000000000000D+00  0.00000000000000000D+00  0.00000000000000000D+00  3.84699936116246900D-03
38 31  0.00000000000000000D+00  0.00000000000000000D+00  0.00000000000000000D+00  0.00000000000000000D+00 -3.85665809119767900D-03
38 32  0.00000000000000000D+00  0.00000000000000000D+00  0.00000000000000000D+00  0.00000000000000000D+00 -3.87222178205850000D-03
39  1  0.00000000000000000D+00  0.00000000000000000D+00  0.00000000000000000D+00  0.00000000000000000D+00  0.00000000000000000D+00
39  2  7.96836716043591600D-07 -2.30068246333036300D-11  0.00000000000000000D+00 -1.06870165526017300D-05  0.00000000000000000D+00
39  3  0.00000000000000000D+00  0.00000000000000000D+00  0.00000000000000000D+00 -5.14604266451036100D-01 -1.14927919509350800D-05
39  4  0.00000000000000000D+00  0.00000000000000000D+00  0.00000000000000000D+00  0.00000000000000000D+00  0.00000000000000000D+00
39  5  1.53186105924436400D-01  0.00000000000000000D+00  1.26363033955009200D-11 -2.36721728762977000D-03  0.00000000000000000D+00
39  6  0.00000000000000000D+00  0.00000000000000000D+00  0.00000000000000000D+00  2.20966645415620800D-01  1.85269174795152100D-01
39  7  0.00000000000000000D+00  0.00000000000000000D+00  0.00000000000000000D+00  0.00000000000000000D+00  0.00000000000000000D+00
39  8  1.54238565846423600D-01  0.00000000000000000D+00  0.00000000000000000D+00 -1.57920052121903700D-03  0.00000000000000000D+00
39  9  0.00000000000000000D+00  0.00000000000000000D+00  0.00000000000000000D+00  2.21389801133666700D-01 -1.85775746018403000D-01
39 10  0.00000000000000000D+00  0.00000000000000000D+00  0.00000000000000000D+00  0.00000000000000000D+00  0.00000000000000000D+00
39 11  3.02328817730401700D-06  0.00000000000000000D+00  0.00000000000000000D+00 -6.07879353003458300D-06  0.00000000000000000D+00
39 12  0.00000000000000000D+00  0.00000000000000000D+00  0.00000000000000000D+00 -5.20130729691404200D-01  3.91847356366130900D-06
39 13  0.00000000000000000D+00  0.00000000000000000D+00  0.00000000000000000D+00  0.00000000000000000D+00  0.00000000000000000D+00
39 14 -1.54248031772586900D-01  0.00000000000000000D+00  0.00000000000000000D+00  1.58112477064176900D-03  0.00000000000000000D+00
39 15  0.00000000000000000D+00  0.00000000000000000D+00  0.00000000000000000D+00  2.21409645136311000D-01  1.85804433504987900D-01
39 16  0.00000000000000000D+00  0.00000000000000000D+00 -1.30964690751645000D-11  0.00000000000000000D+00  0.00000000000000000D+00
39 17 -1.53212857211485000D-01  0.00000000000000000D+00 -1.30117711970149300D-11  2.38024297805948000D-03  0.00000000000000000D+00
39 18  0.00000000000000000D+00  0.00000000000000000D+00  0.00000000000000000D+00  2.20969788663616600D-01 -1.85281359577147700D-01
39 19  0.00000000000000000D+00  0.00000000000000000D+00  0.00000000000000000D+00  0.00000000000000000D+00  0.00000000000000000D+00
39 20  0.00000000000000000D+00  2.34477474137314000D-06  0.00000000000000000D+00  0.00000000000000000D+00  2.15908223644160000D-06
39 21  0.00000000000000000D+00  0.00000000000000000D+00  1.18423235053669700D-05  0.00000000000000000D+00  0.00000000000000000D+00
39 22  0.00000000000000000D+00  0.00000000000000000D+00  4.62887832117470300D-02 -1.85922693102020300D-06  0.00000000000000000D+00
39 23  0.00000000000000000D+00  0.00000000000000000D+00  0.00000000000000000D+00  2.29603412392734100D-02 -4.09181010324379100D-06
39 24  0.00000000000000000D+00  0.00000000000000000D+00  0.00000000000000000D+00  0.00000000000000000D+00  0.00000000000000000D+00
39 25  0.00000000000000000D+00 -1.90163411113603300D-07  0.00000000000000000D+00  0.00000000000000000D+00  1.48429905158573200D-06
39 26  0.00000000000000000D+00  0.00000000000000000D+00  7.67756963752638800D-06  0.00000000000000000D+00  0.00000000000000000D+00
39 27  0.00000000000000000D+00  0.00000000000000000D+00  4.68906493150188400D-02  2.32421767827745600D-07  0.00000000000000000D+00
39 28  0.00000000000000000D+00  0.00000000000000000D+00  0.00000000000000000D+00  2.30178415803744400D-02 -2.85298363402726600D-06
39 29  0.00000000000000000D+00  0.00000000000000000D+00  0.00000000000000000D+00  0.00000000000000000D+00  3.84493311902369200D-02
39 30  0.00000000000000000D+00  0.00000000000000000D+00  0.00000000000000000D+00  0.00000000000000000D+00  3.88850546082229200D-02
39 31  0.00000000000000000D+00  0.00000000000000000D+00  0.00000000000000000D+00  0.00000000000000000D+00 -3.88874770319675400D-02
39 32  0.00000000000000000D+00  0.00000000000000000D+00  0.00000000000000000D+00  0.00000000000000000D+00 -3.84519569734744000D-02
40  1  0.00000000000000000D+00  0.00000000000000000D+00  0.00000000000000000D+00  0.00000000000000000D+00  0.00000000000000000D+00
40  2 -8.47240671202171300D-06  0.00000000000000000D+00  0.00000000000000000D+00  1.31673693964671500D-05  0.00000000000000000D+00
40  3  0.00000000000000000D+00  0.00000000000000000D+00  0.00000000000000000D+00 -7.20870319599937500D-01 -1.25030538491384100D-05
40  4  0.00000000000000000D+00  0.00000000000000000D+00  0.00000000000000000D+00  0.00000000000000000D+00  0.00000000000000000D+00
40  5  1.42641753750009000D-01  0.00000000000000000D+00  0.00000000000000000D+00  9.51203804594941100D-02  0.00000000000000000D+00
40  6  0.00000000000000000D+00  0.00000000000000000D+00  0.00000000000000000D+00  5.35484021171888200D-02  5.94434673658758200D-02
40  7  0.00000000000000000D+00  0.00000000000000000D+00  0.00000000000000000D+00  0.00000000000000000D+00  0.00000000000000000D+00
40  8 -1.41622370510579100D-01  0.00000000000000000D+00  0.00000000000000000D+00 -9.50227184295451400D-02  0.00000000000000000D+00
40  9  0.00000000000000000D+00  0.00000000000000000D+00  0.00000000000000000D+00 -5.17974072716794600D-02  5.81296644239696900D-02
40 10  0.00000000000000000D+00  0.00000000000000000D+00  0.00000000000000000D+00  0.00000000000000000D+00  0.00000000000000000D+00
40 11 -6.83759642095260100D-06  0.00000000000000000D+00  0.00000000000000000D+00  7.05962720806791100D-06  0.00000000000000000D+00
40 12  0.00000000000000000D+00  0.00000000000000000D+00  0.00000000000000000D+00  7.16880919983332600D-01 -3.22407271443165400D-06
40 13  0.00000000000000000D+00  0.00000000000000000D+00  0.00000000000000000D+00  0.00000000000000000D+00  0.00000000000000000D+00
40 14  1.41623484981977900D-01  0.00000000000000000D+00  0.00000000000000000D+00  9.50308494656822400D-02  0.00000000000000000D+00
40 15  0.00000000000000000D+00  0.00000000000000000D+00  0.00000000000000000D+00 -5.17978568521617500D-02 -5.81376809055568600D-02
40 16  0.00000000000000000D+00  0.00000000000000000D+00  0.00000000000000000D+00  0.00000000000000000D+00  0.00000000000000000D+00
40 17 -1.42641014436309100D-01  0.00000000000000000D+00  0.00000000000000000D+00 -9.51435341244708700D-02  0.00000000000000000D+00
40 18  0.00000000000000000D+00  0.00000000000000000D+00  0.00000000000000000D+00  5.35465698155834700D-02 -5.94468146265123400D-02
40 19  0.00000000000000000D+00  0.00000000000000000D+00  0.00000000000000000D+00  0.00000000000000000D+00  0.00000000000000000D+00
40 20  0.00000000000000000D+00  2.20377102679552400D-06  0.00000000000000000D+00  0.00000000000000000D+00  3.79067754884997800D-08
40 21  0.00000000000000000D+00  0.00000000000000000D+00  6.94602971462865400D-06  0.00000000000000000D+00  0.00000000000000000D+00
40 22  0.00000000000000000D+00  0.00000000000000000D+00  7.89794736628824800D-02 -3.02045636622289800D-06  0.00000000000000000D+00
40 23  0.00000000000000000D+00  0.00000000000000000D+00  0.00000000000000000D+00  6.69384287684222800D-03 -5.86418189041570500D-06
40 24  0.00000000000000000D+00  0.00000000000000000D+00  0.00000000000000000D+00  0.00000000000000000D+00  0.00000000000000000D+00
40 25  0.00000000000000000D+00  7.00265725329407400D-07  0.00000000000000000D+00  0.00000000000000000D+00 -2.90151995373783600D-06
40 26  0.00000000000000000D+00  0.00000000000000000D+00 -4.44702627907184500D-06  0.00000000000000000D+00  0.00000000000000000D+00
40 27  0.00000000000000000D+00  0.00000000000000000D+00 -7.86197307748086200D-02  1.35651581835372200D-07  0.00000000000000000D+00
40 28  0.00000000000000000D+00  0.00000000000000000D+00  0.00000000000000000D+00 -6.48985122967897000D-03 -7.59197324197931600D-08
40 29  0.00000000000000000D+00  0.00000000000000000D+00  0.00000000000000000D+00  0.00000000000000000D+00  5.61805489609329800D-02
40 30  0.00000000000000000D+00  0.00000000000000000D+00  0.00000000000000000D+00  0.00000000000000000D+00 -5.58892155122558300D-02
40 31  0.00000000000000000D+00  0.00000000000000000D+00  0.00000000000000000D+00  0.00000000000000000D+00  5.58890664213261800D-02
40 32  0.00000000000000000D+00  0.00000000000000000D+00  0.00000000000000000D+00  0.00000000000000000D+00 -5.61777437308437100D-02
41  1  7.81240031408593600D-06  1.36896057328628200D-05  1.25756962495992600D-04  7.88700334037589100D-02  3.10905966705680700D-06
41  2  0.00000000000000000D+00 -4.27826987854316900D+00 -7.84293072600698500D-05  0.00000000000000000D+00  5.79221310598529600D-06
41  3  6.36316571780243900D-06 -1.21553788229678800D-05  5.54183149503233800D-02  0.00000000000000000D+00  0.00000000000000000D+00
41  4  7.11631904487231800D-02  1.39875842476119700D-01 -1.02742878364757700D-01 -1.56580413191987300D-01  7.13764790024033800D-02
41  5  0.00000000000000000D+00 -1.12942800805791500D+00  3.07601661930678800D+00  0.00000000000000000D+00 -3.61142264171764100D-04
41  6  9.63908603971094000D-02 -9.60297181329384400D-02 -7.04546429343427300D-02  0.00000000000000000D+00  0.00000000000000000D+00
41  7 -7.15109624324153000D-02 -1.40730786796621700D-01  9.60341580453233500D-02  1.57121809490820800D-01  7.11375018950470700D-02
41  8  0.00000000000000000D+00  1.12952537994719400D+00  3.08024351333470300D+00  0.00000000000000000D+00 -5.28744633556381600D-05
41  9 -9.70169048112307500D-02  9.70697792745859600D-02 -7.05210918246966100D-02  0.00000000000000000D+00  0.00000000000000000D+00
41 10 -3.34959333441014600D-06 -5.79038368996924300D-06  3.12378280340931000D-06 -7.99023420077081100D-02  1.29423547340457700D-06
41 11  0.00000000000000000D+00  4.28886264225913600D+00  3.11203547724244000D-07  0.00000000000000000D+00 -6.61312726537857600D-07
41 12  1.29666933795426900D-06 -6.35356611740538500D-07  5.55679766564198700D-02  0.00000000000000000D+00  0.00000000000000000D+00
41 13  7.15153911191121300D-02  1.40734560147730700D-01 -9.62683842114396600D-02  1.57115559966501500D-01 -7.11315935040850900D-02
41 14  0.00000000000000000D+00  1.12950972719916300D+00 -3.08035919093845600D+00  0.00000000000000000D+00  5.35761869054031700D-05
41 15  9.70159810761912400D-02 -9.70695572630970700D-02 -7.05205980891259000D-02  0.00000000000000000D+00  0.00000000000000000D+00
41 16 -7.11646730136143000D-02 -1.39873192904034200D-01  1.02864298047143000D-01 -1.56569028737108900D-01 -7.13688730330897000D-02
41 17  0.00000000000000000D+00 -1.12950470137376400D+00 -3.07615853359748800D+00  0.00000000000000000D+00  3.63588315762809800D-04
41 18 -9.63860947150791100D-02  9.60225063993154200D-02 -7.04568200063664200D-02  0.00000000000000000D+00  0.00000000000000000D+00
41 19  1.22905753781303000D-07  6.40684627600501600D-06  4.05367104228110200D-05 -3.48471872145360000D-05 -3.32974531993068000D-01
41 20 -2.04024469091844900D-06  0.00000000000000000D+00  6.75182062914555200D-01  2.11486450491344300D-06  0.00000000000000000D+00
41 21  7.08145468746112200D-01  1.02788307532535500D-05  0.00000000000000000D+00  1.66321606532655300D-07  5.05361803956401900D-07
41 22 -6.71683411248641300D-07  2.40079841502776700D-02  0.00000000000000000D+00  0.00000000000000000D+00  5.44918877916725400D-06
41 23 -8.60579614649902300D-06  3.15660736860041200D-06 -9.12090641121207500D-03  0.00000000000000000D+00  0.00000000000000000D+00
41 24  6.05876746138348900D-07  5.83672522176670900D-07 -1.14104532117619300D-05  5.73438315090169300D-06  3.34461785611936100D-01
41 25  1.89419339178178200D-06  0.00000000000000000D+00 -6.77400662879353100D-01 -3.83942659986350100D-06  0.00000000000000000D+00
41 26 -7.11205857321992200D-01 -6.68421172758014400D-07  0.00000000000000000D+00 -5.39669687867943400D-07 -1.37510139387759800D-07
41 27  6.77179827330148700D-07  2.41147576687363600D-02  0.00000000000000000D+00  0.00000000000000000D+00  6.71184731743679300D-07
41 28 -5.91642051687003600D-07 -7.95426800566731800D-08 -9.07799046112836400D-03  0.00000000000000000D+00  0.00000000000000000D+00
41 29 -1.04960708851142600D-01 -4.10943095495685700D-01  1.56804131741472800D-02 -3.62131015929714500D-02  0.00000000000000000D+00
41 30  1.05691475800385300D-01  4.12814417199793600D-01 -1.57713716210673100D-02 -3.61667091602267100D-02  0.00000000000000000D+00
41 31 -1.05688885808228200D-01 -4.12816958122415400D-01 -1.57702806354101900D-02  3.61670625286019400D-02  0.00000000000000000D+00
41 32  1.04960978232530200D-01  4.10926573270082300D-01  1.56801691955006000D-02  3.62119957973139800D-02  0.00000000000000000D+00
42  1 -8.91394687574116800D-06 -1.39794034652658100D-05 -3.11863903183986200D-05 -1.99188640767094100D-01 -4.14636317143625100D-06
42  2  0.00000000000000000D+00  2.23304761452603900D+00  3.74924027521288900D-05  0.00000000000000000D+00 -5.45090869042124100D-06
42  3 -7.49967981869813700D-06  1.29505885089657900D-05 -2.95980581277824200D-02  0.00000000000000000D+00  0.00000000000000000D+00
42  4 -7.07756558748596800D-02 -1.77274556921417600D-01 -1.39545294182732300D+00  1.18694776110186200D-01  4.36697229442658400D-02
42  5  0.00000000000000000D+00  1.31732178433821800D-02 -8.90034177603563800D-01  0.00000000000000000D+00 -8.27924081814490500D-02
42  6 -1.29805941011548000D-01  2.12598349192997200D-01  1.34652179839539700D-02  0.00000000000000000D+00  0.00000000000000000D+00
42  7 -7.04314210783706000D-02 -1.76569029492934500D-01 -1.39589117986776100D+00  1.17917273308570500D-01 -4.40176899199393500D-02
42  8  0.00000000000000000D+00  7.70126561242439000D-03  8.75065453437625900D-01  0.00000000000000000D+00 -8.28003904459397700D-02
42  9 -1.29351417192854400D-01  2.12151807638794700D-01 -1.31193258251393600D-02  0.00000000000000000D+00  0.00000000000000000D+00
42 10 -3.12403107051838600D-06 -7.65351494875861500D-06 -2.21577427488784600D-05 -1.98857851252545500D-01 -7.22823924478231500D-08
42 11  0.00000000000000000D+00  2.21224260363201500D+00  1.04649188954606700D-05  0.00000000000000000D+00 -3.38034519911141900D-07
42 12  4.15748832782156000D-07 -7.77143130572721100D-08  2.93402853887582900D-02  0.00000000000000000D+00  0.00000000000000000D+00
42 13  7.04279791958385700D-02  1.76561232322227300D-01  1.39586077113119400D+00  1.17914580304846400D-01  4.40185663510040900D-02
42 14  0.00000000000000000D+00  7.69863704941334200D-03 -8.75104619182612100D-01  0.00000000000000000D+00  8.27970137975440200D-02
42 15  1.29350135351240100D-01 -2.12147149148784000D-01 -1.31226416355736000D-02  0.00000000000000000D+00  0.00000000000000000D+00
42 16  7.07693048465927900D-02  1.77253625352595200D-01  1.39549516647585100D+00  1.18678347994717400D-01 -4.36751323842097600D-02
42 17  0.00000000000000000D+00  1.31893264637164600D-02  8.90022241294347600D-01  0.00000000000000000D+00  8.27871472320846900D-02
42 18  1.29804948369241600D-01 -2.12592095601325900D-01  1.34627347784382300D-02  0.00000000000000000D+00  0.00000000000000000D+00
42 19 -3.52598324724594100D-08 -6.05111886063877500D-06 -3.39350734764333900D-05  4.72475225388624200D-05  3.08817351546773900D-01
42 20  1.80705791666891300D-06  0.00000000000000000D+00 -4.71434819820795300D-01 -2.58354492132206700D-06  0.00000000000000000D+00
42 21 -6.51635986985824000D-01 -1.91453125228576700D-05  0.00000000000000000D+00 -1.42172495004049000D-07 -3.80308883930151800D-07
42 22  5.22481378704011100D-07 -2.25439494614245100D-02  0.00000000000000000D+00  0.00000000000000000D+00 -5.67932635434533500D-06
42 23  8.21958221956942600D-06 -2.54025586419991300D-06 -1.01115842153573400D-02  0.00000000000000000D+00  0.00000000000000000D+00
42 24  3.03925802398462500D-09 -5.32941557862453900D-07 -2.77967998480759900D-06  2.57053293014773200D-05  3.07227805118433300D-01
42 25  1.71358752960798600D-06  0.00000000000000000D+00 -4.68134497265976800D-01  2.84761258179233600D-06  0.00000000000000000D+00
42 26 -6.48208659208701200D-01  1.25041157830384800D-05  0.00000000000000000D+00 -2.57243057143956800D-07 -2.99525956329923100D-07
42 27  5.56769014015339700D-07  2.24276831468173000D-02  0.00000000000000000D+00  0.00000000000000000D+00 -1.03453964825246000D-06
42 28  1.66212529350856300D-06 -6.27585645256108100D-07  1.01570515735987100D-02  0.00000000000000000D+00  0.00000000000000000D+00
42 29  1.54653408685773900D-01  3.94652350097160100D-01 -1.81094212073169900D-02 -9.02155508277793400D-03  0.00000000000000000D+00
42 30  1.54119840097110500D-01  3.92602714429987500D-01 -1.80381675677257400D-02  9.19930593433298200D-03  0.00000000000000000D+00
42 31 -1.54118079569363100D-01 -3.92608361520692100D-01 -1.80358010701100000D-02 -9.19957412598245200D-03  0.00000000000000000D+00
42 32 -1.54649681946307100D-01 -3.94630501748058600D-01 -1.81105639120541300D-02  9.02430697384535600D-03  0.00000000000000000D+00
43  1  0.00000000000000000D+00  0.00000000000000000D+00 -1.92784416335602300D-11  0.00000000000000000D+00  0.00000000000000000D+00
43  2 -1.00956258568632800D-04  2.94103391759563000D-11  0.00000000000000000D+00  2.26169738014651500D-04  0.00000000000000000D+00
43  3  0.00000000000000000D+00  0.00000000000000000D+00  0.00000000000000000D+00 -4.03312288271413000D-01  5.83410733803262300D-05
43  4  0.00000000000000000D+00  0.00000000000000000D+00 -3.74369967026552700D-11  0.00000000000000000D+00  0.00000000000000000D+00
43  5  3.71205793077092300D-01  0.00000000000000000D+00  0.00000000000000000D+00 -2.44182969043131200D-01  0.00000000000000000D+00
43  6  0.00000000000000000D+00  0.00000000000000000D+00  0.00000000000000000D+00 -3.41412647948630000D-01  7.17512484244284400D-02
43  7  0.00000000000000000D+00  0.00000000000000000D+00  0.00000000000000000D+00  0.00000000000000000D+00  0.00000000000000000D+00
43  8  3.71453643491877800D-01  0.00000000000000000D+00  2.27865308150962900D-11 -2.44492285076346900D-01  0.00000000000000000D+00
43  9  0.00000000000000000D+00  0.00000000000000000D+00  0.00000000000000000D+00 -3.41655555542754600D-01 -7.16238388741253100D-02
43 10  0.00000000000000000D+00  0.00000000000000000D+00 -1.31678929599799400D-11  0.00000000000000000D+00  0.00000000000000000D+00
43 11 -8.68024064737179400D-05  3.18672739289715500D-11  0.00000000000000000D+00  1.92812564648660800D-04  0.00000000000000000D+00
43 12  0.00000000000000000D+00  0.00000000000000000D+00  0.00000000000000000D+00 -4.03231169562809800D-01 -6.51612604073710200D-05
43 13  0.00000000000000000D+00  0.00000000000000000D+00  0.00000000000000000D+00  0.00000000000000000D+00  0.00000000000000000D+00
43 14 -3.71358717395881100D-01  0.00000000000000000D+00 -2.82190267935050600D-11  2.44354313594006100D-01  0.00000000000000000D+00
43 15  0.00000000000000000D+00  0.00000000000000000D+00  0.00000000000000000D+00 -3.41597639985848100D-01  7.15947476500943300D-02
43 16  0.00000000000000000D+00  0.00000000000000000D+00  5.50080012167412100D-11  0.00000000000000000D+00  0.00000000000000000D+00
43 17 -3.71070914274611700D-01  0.00000000000000000D+00  0.00000000000000000D+00  2.43968470275841800D-01  0.00000000000000000D+00
43 18  0.00000000000000000D+00  0.00000000000000000D+00  0.00000000000000000D+00 -3.41331858235928900D-01 -7.17585546848003700D-02
43 19  0.00000000000000000D+00  0.00000000000000000D+00  0.00000000000000000D+00  0.00000000000000000D+00  0.00000000000000000D+00
43 20  0.00000000000000000D+00  1.80099539291857000D-05  0.00000000000000000D+00  0.00000000000000000D+00 -7.32087865500055400D-05
43 21  0.00000000000000000D+00  0.00000000000000000D+00 -4.90555190000044100D-05  0.00000000000000000D+00  0.00000000000000000D+00
43 22  0.00000000000000000D+00  0.00000000000000000D+00  5.39745523489949200D-02 -7.94687728540128900D-06  0.00000000000000000D+00
43 23  0.00000000000000000D+00  0.00000000000000000D+00  0.00000000000000000D+00 -1.26589543606726400D-01  9.01203708425913300D-06
43 24  0.00000000000000000D+00  0.00000000000000000D+00  0.00000000000000000D+00  0.00000000000000000D+00  0.00000000000000000D+00
43 25  0.00000000000000000D+00  2.09025053547319300D-05  0.00000000000000000D+00  0.00000000000000000D+00 -7.07718093659143500D-05
43 26  0.00000000000000000D+00  0.00000000000000000D+00 -6.06264034607908900D-05  0.00000000000000000D+00  0.00000000000000000D+00
43 27  0.00000000000000000D+00  0.00000000000000000D+00  5.40093403809063900D-02  4.67937325844001300D-06  0.00000000000000000D+00
43 28  0.00000000000000000D+00  0.00000000000000000D+00  0.00000000000000000D+00 -1.26725614129121900D-01 -1.10169033381786400D-05
43 29  0.00000000000000000D+00  0.00000000000000000D+00  0.00000000000000000D+00  0.00000000000000000D+00  3.49912423391746500D-02
43 30  0.00000000000000000D+00  0.00000000000000000D+00  0.00000000000000000D+00  0.00000000000000000D+00  3.49453932328322800D-02
43 31  0.00000000000000000D+00  0.00000000000000000D+00  0.00000000000000000D+00  0.00000000000000000D+00 -3.49144184074181600D-02
43 32  0.00000000000000000D+00  0.00000000000000000D+00  0.00000000000000000D+00  0.00000000000000000D+00 -3.49563907226160400D-02
44  1  0.00000000000000000D+00 -1.21481541840868300D-11  1.08549664192997500D-10  0.00000000000000000D+00  0.00000000000000000D+00
44  2  4.45006356342343400D-01  4.53976385822159400D-11 -7.58357051627683400D-11 -9.69706978158970700D-01  0.00000000000000000D+00
44  3  0.00000000000000000D+00  0.00000000000000000D+00  0.00000000000000000D+00 -7.83514103115073800D-05 -3.42433820806876200D-01
44  4  0.00000000000000000D+00  0.00000000000000000D+00 -4.11328443946972900D-11  0.00000000000000000D+00  0.00000000000000000D+00
44  5 -3.02326399526522600D-01  5.77975662214957000D-11 -3.76423851478020500D-11  4.28389828821897500D-01  0.00000000000000000D+00
44  6  0.00000000000000000D+00  0.00000000000000000D+00  0.00000000000000000D+00  2.11119177002784700D-01 -4.24730212112124200D-02
44  7  0.00000000000000000D+00  0.00000000000000000D+00 -9.34399199130952500D-11  0.00000000000000000D+00  0.00000000000000000D+00
44  8 -3.02426201646179600D-01  2.89482262813590500D-11 -3.50689272151120900D-11  4.28573384588628600D-01  0.00000000000000000D+00
44  9  0.00000000000000000D+00  0.00000000000000000D+00  0.00000000000000000D+00  2.11126858940644800D-01  4.23948606957807200D-02
44 10  0.00000000000000000D+00 -1.51120869050179500D-11  1.07295103512133300D-10  0.00000000000000000D+00  0.00000000000000000D+00
44 11  4.45014500832823500D-01 -1.19446460824895500D-11  7.38658200704089200D-11 -9.69837158872745900D-01  0.00000000000000000D+00
44 12  0.00000000000000000D+00  0.00000000000000000D+00  0.00000000000000000D+00 -8.13226841306927500D-05  3.42435958577922700D-01
44 13  0.00000000000000000D+00  0.00000000000000000D+00 -1.74457543130414500D-11  0.00000000000000000D+00  0.00000000000000000D+00
44 14 -3.02609439693094900D-01 -4.34048655986584800D-11  3.30968287289495200D-11  4.28717944683980800D-01  0.00000000000000000D+00
44 15  0.00000000000000000D+00  0.00000000000000000D+00  0.00000000000000000D+00 -2.11308665927297500D-01  4.24100068650349500D-02
44 16  0.00000000000000000D+00  0.00000000000000000D+00 -7.19378949743332000D-11  0.00000000000000000D+00  0.00000000000000000D+00
44 17 -3.02424282598952000D-01 -1.80350568069811800D-11  3.89058747421830900D-11  4.28426295194582100D-01 -1.05512609417311000D-11
44 18  0.00000000000000000D+00  0.00000000000000000D+00  0.00000000000000000D+00 -2.11226045251850100D-01 -4.25214863648675200D-02
44 19  0.00000000000000000D+00  0.00000000000000000D+00  0.00000000000000000D+00  1.63072797695250900D-11  0.00000000000000000D+00
44 20  0.00000000000000000D+00 -7.70350244857007600D-02  0.00000000000000000D+00  0.00000000000000000D+00  3.39683704933624800D-01
44 21  0.00000000000000000D+00  0.00000000000000000D+00  2.58239796460289400D-01  0.00000000000000000D+00  0.00000000000000000D+00
44 22  0.00000000000000000D+00  0.00000000000000000D+00  8.41316803707733900D-06  2.40224535384910200D-02  0.00000000000000000D+00
44 23  0.00000000000000000D+00  0.00000000000000000D+00  0.00000000000000000D+00 -1.66193256358289900D-05 -6.49764902360250200D-02
44 24  0.00000000000000000D+00  0.00000000000000000D+00  0.00000000000000000D+00  1.83589753223910800D-11  0.00000000000000000D+00
44 25  0.00000000000000000D+00 -7.70104814941497300D-02  0.00000000000000000D+00  0.00000000000000000D+00  3.39677498278071300D-01
44 26  0.00000000000000000D+00  0.00000000000000000D+00  2.58211361157559900D-01  0.00000000000000000D+00  0.00000000000000000D+00
44 27  0.00000000000000000D+00  0.00000000000000000D+00  1.24755977491141500D-05 -2.40286729417586700D-02  0.00000000000000000D+00
44 28  0.00000000000000000D+00  0.00000000000000000D+00  0.00000000000000000D+00 -3.47045086723753000D-05  6.49854238441978800D-02
44 29  0.00000000000000000D+00  0.00000000000000000D+00  0.00000000000000000D+00  0.00000000000000000D+00 -8.18551342677409500D-02
44 30  0.00000000000000000D+00  0.00000000000000000D+00  0.00000000000000000D+00  0.00000000000000000D+00 -8.18461956525416300D-02
44 31  0.00000000000000000D+00 -1.11129616733730100D-11  0.00000000000000000D+00  0.00000000000000000D+00 -8.18560820991011300D-02
44 32  0.00000000000000000D+00  0.00000000000000000D+00  0.00000000000000000D+00  0.00000000000000000D+00 -8.18680725789882700D-02
45  1  0.00000000000000000D+00  1.48444448041295000D-11  0.00000000000000000D+00  0.00000000000000000D+00  0.00000000000000000D+00
45  2  9.12440381596427500D-06  0.00000000000000000D+00  2.00466469983088800D-11 -1.92572424498201900D-05  0.00000000000000000D+00
45  3  0.00000000000000000D+00  0.00000000000000000D+00 -1.03168694321643100D-11 -1.80325793805913000D-01 -2.36267496633938700D-05
45  4  0.00000000000000000D+00  0.00000000000000000D+00  1.26048048481084300D-11  0.00000000000000000D+00  0.00000000000000000D+00
45  5  3.31424205690312400D-01 -1.31683479255042900D-11 -1.13392516636486400D-11 -3.57624890753837600D-01  0.00000000000000000D+00
45  6  0.00000000000000000D+00  0.00000000000000000D+00  1.04871291904453800D-11 -3.81404863257808300D-01 -4.70612234377746300D-02
45  7  0.00000000000000000D+00  1.01405912059265300D-11 -2.20438824480361100D-11  0.00000000000000000D+00  0.00000000000000000D+00
45  8 -3.31192285757716500D-01  1.92481337187357000D-11  0.00000000000000000D+00  3.57466676905310900D-01  0.00000000000000000D+00
45  9  0.00000000000000000D+00  0.00000000000000000D+00  0.00000000000000000D+00  3.81163840506853100D-01 -4.70703916700006600D-02
45 10  0.00000000000000000D+00  0.00000000000000000D+00  1.22119080943906200D-11  1.04250643295561900D-11  0.00000000000000000D+00
45 11  3.40701602535355400D-05  0.00000000000000000D+00 -3.26110241264607200D-11 -8.19856840528301800D-05  0.00000000000000000D+00
45 12  0.00000000000000000D+00  0.00000000000000000D+00 -1.00588105193263700D-11  1.80093861113197100D-01  2.33360022579062600D-05
45 13  0.00000000000000000D+00 -1.74930148895575300D-11  2.92556928205750800D-11  0.00000000000000000D+00  0.00000000000000000D+00
45 14  3.31173583377366000D-01  2.68583574261180200D-11  1.12164441591288900D-11 -3.57427628707175300D-01  0.00000000000000000D+00
45 15  0.00000000000000000D+00  0.00000000000000000D+00  0.00000000000000000D+00  3.81136106539549200D-01  4.70554103049267800D-02
45 16  0.00000000000000000D+00  0.00000000000000000D+00  0.00000000000000000D+00  0.00000000000000000D+00  1.05665317928825600D-11
45 17 -3.31470851908358600D-01  0.00000000000000000D+00 -1.69047864460383500D-11  3.57673129550586100D-01  0.00000000000000000D+00
45 18  0.00000000000000000D+00  0.00000000000000000D+00  0.00000000000000000D+00 -3.81433514221443100D-01  4.70464973848423900D-02
45 19  0.00000000000000000D+00  0.00000000000000000D+00  0.00000000000000000D+00 -1.68354091221032600D-11  0.00000000000000000D+00
45 20  0.00000000000000000D+00  8.71216223712993000D-06  0.00000000000000000D+00  0.00000000000000000D+00 -3.63007123119370800D-06
45 21  0.00000000000000000D+00  0.00000000000000000D+00  1.58109923818776700D-05  0.00000000000000000D+00  0.00000000000000000D+00
45 22  0.00000000000000000D+00  0.00000000000000000D+00  6.51064614160887800D-02 -1.71259904218489500D-07  0.00000000000000000D+00
45 23  0.00000000000000000D+00  0.00000000000000000D+00  0.00000000000000000D+00 -2.48114994509212000D-01 -3.04501401513784300D-06
45 24  0.00000000000000000D+00  0.00000000000000000D+00 -1.97384653819985900D-11 -1.24323065790699800D-11  0.00000000000000000D+00
45 25  0.00000000000000000D+00 -1.31458268944363000D-05 -1.41396883759879200D-11  0.00000000000000000D+00  3.54508329514073300D-05
45 26  0.00000000000000000D+00 -1.05571811123383600D-11  2.32170636096725600D-05  0.00000000000000000D+00  0.00000000000000000D+00
45 27  0.00000000000000000D+00  0.00000000000000000D+00 -6.50943078365397900D-02 -1.69944508594014500D-06  0.00000000000000000D+00
45 28  0.00000000000000000D+00  0.00000000000000000D+00  0.00000000000000000D+00  2.48061430171554500D-01  7.67981786837841200D-06
45 29  0.00000000000000000D+00  1.18387559290987100D-11  0.00000000000000000D+00  0.00000000000000000D+00 -4.79032916779872300D-02
45 30  0.00000000000000000D+00  0.00000000000000000D+00  0.00000000000000000D+00  0.00000000000000000D+00  4.79227968355180400D-02
45 31  0.00000000000000000D+00  1.01558833265579800D-11  0.00000000000000000D+00  0.00000000000000000D+00 -4.79335317754336600D-02
45 32  0.00000000000000000D+00 -1.34062231960940900D-11  0.00000000000000000D+00  0.00000000000000000D+00  4.78952301707689300D-02
46  1  0.00000000000000000D+00  0.00000000000000000D+00  2.83298950418396500D-10  1.11787607989492400D-10  1.86807256655011400D-11
46  2 -2.80072061063868100D-05 -1.17382853940854700D-10 -1.97291518815730800D-11  2.33090882548839300D-05 -2.34848193812765600D-11
46  3 -1.41425333335472000D-11  3.76273527148238000D-11 -3.36128715767581400D-11 -1.44489453058429800D-01 -3.23635477262796600D-05
46  4  7.39318007357966500D-11  1.72594084015095900D-10 -3.03261724267534700D-10 -1.26294535228404700D-11  4.02751267163160200D-11
46  5 -2.04013702002672100D-01  9.47459299320644600D-11  0.00000000000000000D+00  3.12641650497138700D-01  0.00000000000000000D+00
46  6  0.00000000000000000D+00  0.00000000000000000D+00  0.00000000000000000D+00 -1.12323712765240300D-01  1.64236168919025000D-01
46  7  0.00000000000000000D+00  0.00000000000000000D+00 -8.50292695217376200D-11 -1.48261924230966700D-11 -2.46854387793618100D-11
46  8 -2.04984809207717200D-01  1.60092438169069200D-10  1.71504998236370100D-10  3.13971270771299800D-01  0.00000000000000000D+00
46  9 -4.60136831295300000D-11  4.04084790189129000D-11 -2.12455894629398400D-11 -1.12430531835344000D-01 -1.65319925208198400D-01
46 10 -5.11259712846555500D-11 -1.02542849103191100D-10  3.37653325333995700D-10  8.73078966426392900D-11 -2.61805196665331200D-11
46 11  2.53759876944801800D-06  2.20500088779484900D-10 -2.79716334305070800D-11 -5.44476524163618800D-06 -8.72352258983913000D-11
46 12  6.79710761404450100D-11  1.92641497579463300D-11  0.00000000000000000D+00 -1.44824964523087000D-01  8.17868318259857700D-07
46 13 -6.63096498872647900D-11 -1.46461279105288000D-10 -7.49050395540112200D-11  8.68949519359843500D-11 -7.38266080209117300D-11
46 14  2.05004284669525700D-01  8.03732925826167100D-11  8.02675897485539800D-11 -3.13984061594551100D-01 -4.33406715787259900D-11
46 15  4.44552259907130300D-11  0.00000000000000000D+00 -1.20656507098021300D-10 -1.12423726680476600D-01  1.65311768706478200D-01
46 16 -5.63728370423265000D-11 -1.05497474239208600D-10  3.03149345224072700D-11  2.74857764950190900D-11  5.45609177825305300D-11
46 17  2.03997379282386500D-01 -4.25136416408223100D-11 -2.97360781970155600D-10 -3.12649003419673900D-01 -9.05159530298517400D-11
46 18  1.35520681650283700D-10 -4.50047286204319600D-11  9.90766576001114500D-11 -1.12319669304307900D-01 -1.64213323336456200D-01
46 19  1.53257120391511600D-11  3.52416817233145800D-11 -5.51524439627536500D-11 -1.68243164095004200D-11  7.89422594528516800D-11
46 20  0.00000000000000000D+00  1.01943392726956500D-05 -4.28114908614579600D-11  1.87446969811030900D-11 -1.05949461100182600D-05
46 21 -2.91757908953473600D-11  3.82634753072409800D-11  2.63066088133810800D-05 -4.77815045793835300D-11  5.40547333175913200D-11
46 22  0.00000000000000000D+00 -7.36754476901878300D-11 -3.39895742371970100D-01  1.96894742198357300D-06  8.87565978156730400D-11
46 23 -4.96965427969507600D-11 -3.90600550187220900D-11  1.31202458635140900D-10 -2.85634273985881900D-01 -4.93322628651981900D-06
46 24  0.00000000000000000D+00  2.36676898861312100D-11 -1.09453638799821000D-10 -4.45453763594405300D-11  5.13898351179854000D-11
46 25  0.00000000000000000D+00 -1.99430966312546500D-06 -9.44636066087555700D-11 -3.80460383129686900D-11  1.27786219223658100D-06
46 26 -6.16560835994262300D-11 -2.55851240973324700D-11  8.01980509775840800D-06 -4.00813021398225100D-11  0.00000000000000000D+00
46 27  4.89993026617634900D-11  0.00000000000000000D+00 -3.42235116972793600D-01 -3.57044018703712500D-06  8.79673945108158400D-11
46 28  3.34118242809515800D-11 -1.21379218791767500D-10 -1.35231484743749100D-10 -2.86909337942338300D-01 -3.27652198862051800D-06
46 29  0.00000000000000000D+00 -2.94805279816890300D-11 -6.52458706008019700D-11  0.00000000000000000D+00 -5.78373928109049800D-02
46 30 -2.40429298521981400D-11  2.90204767116565300D-11  0.00000000000000000D+00 -8.19212898335867500D-11 -5.78945953182137300D-02
46 31  1.29085994783305500D-10  2.73628749291550200D-11  2.61159924850595100D-11 -1.81954872936963300D-11  5.78965700364689800D-02
46 32  4.07319953132434900D-11 -2.34339948483149900D-11  6.76922112311410300D-11 -1.39512655045861100D-11  5.78332012303725800D-02
47  1  5.58875478010636200D-11  1.25258730172531000D-10  2.08016480318478200D-10  0.00000000000000000D+00  4.11978969415854100D-11
47  2  2.55188179991424300D-05  2.96385643809749100D-10 -2.32543803085269000D-11 -1.67777696510087700D-05  2.95216180774409400D-11
47  3  2.81086807473891200D-11 -5.76302988248300700D-11 -5.56000379843832100D-11  6.35056341283015300D-02  3.40769160700369400D-05
47  4  3.13384671072740500D-11  6.57983495726604900D-11 -2.67624869235902200D-10  7.31055094539730000D-11 -2.98517749284689800D-11
47  5  1.94376081602987300D-01  2.13325604203488500D-10 -2.01112106624993400D-10 -2.66262204164568200D-01 -7.04882812643963000D-11
47  6  6.73972282958977300D-11  0.00000000000000000D+00  0.00000000000000000D+00  2.21410756437886300D-02 -2.11001903279438600D-01
47  7  0.00000000000000000D+00  1.92465900756980700D-11 -1.76211893571943400D-10  3.57529439603305500D-11 -1.28775762170153100D-11
47  8 -1.93321403176425500D-01 -2.01704728724030900D-10 -3.29155264380109600D-11  2.64670943449733200D-01 -4.61749779889554200D-11
47  9 -2.51637230604198800D-11  7.13387010493754000D-11  1.03743102917355500D-11 -2.16369114334267900D-02 -2.10151017745334000D-01
47 10  0.00000000000000000D+00  1.37030427289538800D-11  8.47436721968552700D-11  5.91029134234426800D-11 -3.40923912291227700D-11
47 11  7.13614946416404200D-06 -4.02729994576931500D-11 -1.19501852687041400D-10 -1.65250025608717800D-05  1.09293870538263800D-11
47 12 -2.57869800289139900D-11  1.48575929750875000D-11  2.94642071345465300D-11 -6.28157270539116300D-02  2.98065232350263000D-06
47 13 -1.01487418175581200D-11 -1.40923311296674800D-11  1.82098452479648800D-10 -2.14036700478381500D-11 -2.32765280335096600D-11
47 14  1.93331417073510300D-01 -8.57960132080710200D-11  1.25187377219405700D-10 -2.64680926908569000D-01  3.18020720274354700D-11
47 15  0.00000000000000000D+00 -4.16942201902981200D-11 -4.27534299585294700D-11 -2.16308516822423300D-02  2.10158086183577600D-01
47 16 -4.71232101691558400D-11 -1.10999089746192600D-10  3.80936328485840200D-11  3.66868439022217800D-11 -3.20187668324053900D-11
47 17 -1.94383879415750900D-01  1.66223442350177100D-10  1.80848498455453700D-10  2.66292213619627400D-01 -3.99188065930853900D-11
47 18  5.62929316277678500D-11 -1.63741250346822700D-11 -4.85336412071452600D-11  2.21369729030398000D-02  2.10993859868527000D-01
47 19  0.00000000000000000D+00 -2.88872222298759900D-11 -4.87460145141964800D-11 -8.18061231290460300D-11  1.53099791143255400D-11
47 20  0.00000000000000000D+00  2.31185070046574600D-06 -3.98187638603217700D-11  1.49324549832336400D-10 -1.02075547784194600D-05
47 21  6.36981202322234200D-11  0.00000000000000000D+00 -2.11160091419015600D-05  4.39636634549789100D-11 -4.19571195304059000D-11
47 22  0.00000000000000000D+00 -1.20430460584139000D-11  4.84504194591580200D-01 -2.06058478221849600D-06  2.35703064156983000D-11
47 23 -6.71372359561386300D-11  4.35669295404404800D-11 -3.68228811552901900D-11  2.55363342378427400D-01  7.53148450385338500D-06
47 24  0.00000000000000000D+00 -1.19373632202247900D-11 -4.98193278287396800D-11 -9.68685997519636700D-11  1.81456847798853200D-11
47 25 -5.59733457032863300D-11 -7.88649098598841500D-06 -1.97115688267029600D-11 -2.19138747523729700D-11  1.19891643271917700D-05
47 26  0.00000000000000000D+00 -1.72475428397285300D-11  8.11620810130487200D-06 -1.89611629312397700D-11  4.11063633291904300D-11
47 27 -2.21452003979506200D-11  3.43039106666245500D-11 -4.82903780385276500D-01 -3.51337565930287200D-06  1.48643811665305400D-11
47 28 -1.98687775272260100D-11  0.00000000000000000D+00 -5.87999723613164000D-11 -2.53923567228586400D-01 -5.62734536720036300D-07
47 29 -5.39756964030425700D-11  2.94663090006320700D-11 -2.13911169107956700D-11  0.00000000000000000D+00  1.37112307506610400D-02
47 30  8.10541995581872400D-11  4.88603729545750600D-11 -1.52198664320265700D-11  1.83327455141035300D-11 -1.33888209067361100D-02
47 31 -3.45771566926612700D-11 -1.77090588536434600D-11 -2.93400221600423300D-11 -5.68825830985848800D-11  1.33881526361369100D-02
47 32 -2.97908833885428600D-11  1.66094977990576200D-10  2.64913141451649500D-11 -1.92465331927032800D-11 -1.37076208542110000D-02
48  1  1.64964819468558300D-10  4.11227859256159100D-10  1.71515988808272000D-10  5.57058281372601700D-10  1.93609222316689200D-10
48  2  8.06092042199603800D-06  7.03205504508732500D-10  4.49769092741217900D-10 -5.09366492220662400D-05  2.36777310940521400D-11
48  3 -2.56788488149169100D-10  2.33110757055116600D-10 -2.51408170268361400D-10 -2.49555290878964700D-02 -2.92134317981567200D-05
48  4  3.14630953465001800D-10  7.36325483027738100D-10 -3.84715163418019300D-10  5.92405386569179000D-11  1.09722057005836800D-10
48  5  2.28021106567488800D-02  5.10300797361214700D-10 -8.54127801242637100D-10 -1.80770531954796100D-01 -2.09418121943204700D-11
48  6 -1.33319014596836400D-10  1.54260826791157900D-10  3.51337577626056600D-10 -9.37032060492768600D-02 -1.41677230705957100D-01
48  7  9.79731571752676700D-11  1.31133099252187400D-10 -1.46991064654446900D-10 -1.52473540784598500D-11  7.69633224577513400D-11
48  8  2.28994567628262900D-02  7.77323770740172000D-10 -7.21648584241414800D-10 -1.80868650163931800D-01  3.47707584047110200D-11
48  9 -2.92809544386755700D-10  2.58038785982045700D-10 -3.17927217793036100D-10 -9.35676651342869400D-02  1.41857169424534000D-01
48 10 -9.97390319058471400D-11 -1.60039209215915300D-10  7.50733548006615400D-11  5.76328107662011400D-10 -2.03669607973403600D-11
48 11 -4.66994500694966900D-06 -1.30179683526501500D-11 -8.35904273912082700D-10 -9.65141311764311800D-06 -2.62116109734649800D-10
48 12  2.98332140661352200D-10 -3.62160309267015500D-11 -1.14687537543478400D-10 -2.48343763418164000D-02 -9.66475986047915300D-07
48 13 -3.95185799647244100D-10 -8.34130758325863200D-10  5.36559471897637400D-10  2.66129804910914400D-10 -1.97245760905708500D-10
48 14 -2.29555183878856400D-02  1.19470342535979500D-09  1.57178247483986400D-09  1.80970010279943300D-01 -4.21015080760761400D-11
48 15  0.00000000000000000D+00  4.23648264802360700D-11 -6.72583009264073200D-10 -9.35591450035002900D-02 -1.41859724997845800D-01
48 16 -2.86255964456463300D-10 -5.64126837383692900D-10  2.54687655512726400D-10  6.13898131961400200D-11  3.78705618966070800D-10
48 17 -2.27306225825799000D-02  6.24014220764584600D-10 -4.45338943597614700D-10  1.80668972614780900D-01 -2.18716511309841000D-10
48 18  4.03709226259948500D-10 -1.84992714950107600D-10  5.20997841816847800D-10 -9.36608182179027400D-02  1.41661125004317600D-01
48 19  7.48362543201365300D-11  1.23068830367599800D-10 -3.19324621672128900D-10 -7.20323054538407500D-11  3.60716931297079200D-10
48 20  2.81536675556851700D-10 -4.17086721022560300D-05 -3.22094676690323000D-10 -9.80627258637363100D-11  7.71849325244239600D-05
48 21 -2.15931979951432800D-10  2.61951377564285100D-10  1.95275834879259800D-05 -3.55485457424465200D-10  2.01741892267124100D-10
48 22  1.53743565157341900D-10 -3.39623147164385300D-10 -6.11016645957723400D-01  1.56848406457788900D-06 -9.22042215122420000D-11
48 23 -1.21185763135495900D-10  2.13389984647738400D-10  7.09110245004384000D-10  4.93133461750336600D-01 -1.62997599945530900D-05
48 24 -6.41368004172797100D-11 -1.54655904892822000D-10 -3.17055109799338900D-10 -1.90274319596862000D-10  3.57275601435245200D-10
48 25 -2.43242655546264800D-10  4.45092644369632700D-06 -6.54009324395376300D-10  2.01398587183742500D-10  8.26939420663408400D-07
48 26 -8.21414649325048400D-11 -9.78313693272606500D-11 -1.78446494878515300D-05  3.32734963315231800D-11 -2.52280515770695300D-10
48 27  2.19007019439172100D-10  1.86558211674910700D-10 -6.11143623802157400D-01 -1.80167229917099800D-06  4.04744759809874200D-10
48 28  9.21059162382507400D-11 -4.96850676048125200D-10 -4.19717592347682100D-10  4.93259918152404200D-01 -5.57868427597228200D-06
48 29 -4.81735444852715200D-11 -2.04539174164336800D-10 -2.51198016216391400D-10  1.07927355087883700D-10  3.64317779733268100D-01
48 30 -4.63585904447105000D-10 -3.46767347997026800D-10  9.73999256472079100D-11 -3.74670510581836400D-10  3.64282500340061900D-01
48 31  7.67015432159722800D-10  8.41484656377181600D-10  5.70479556232080500D-11  4.20044187855159900D-11 -3.64281816594235700D-01
48 32  2.89544011041195600D-10 -1.21298593725623500D-10  3.30080095821708500D-10 -1.86766711259039300D-10 -3.64299221726645000D-01
49  1 -2.01302935720897200D-01 -4.18777120942806900D-01  2.82809491942891600D-01 -1.78762353279764500D-01 -8.55769810827411100D-03
49  2 -6.88368700426408400D-02  9.63706890293253700D-01 -3.89957587451212000D-01  2.39354510560816700D-02  1.24122997661271200D-01
49  3 -1.08451399883161600D-01 -1.56715977781095100D-02  1.85830336629442700D-01  3.28376997068236500D-02 -9.38206535640746100D-02
49  4 -1.09799253862067600D-01 -2.97423193111861700D-01 -1.85816414270540900D-01 -4.74549720072469200D-02 -9.69484465352736100D-02
49  5 -2.59138741157377100D-02  3.55732989548427000D-01 -2.99089673958503800D-01 -1.08113534193301900D-01  4.76504221247247400D-02
49  6 -1.08383505078519000D-01  6.07330829537945900D-02 -1.07442027263346800D-01 -2.25620617607291500D-02  2.20582146022700000D-02
49  7  5.95420006728541700D-02  1.40991209267862000D-01 -2.14440007915987500D-01  8.74948460739816300D-02  4.71890868903376600D-02
49  8 -6.26740584996622300D-02  1.62039473514555500D-02 -2.56490983469501600D-01  1.47228221870874000D-01  1.98753767571094100D-02
49  9  9.18838053947956500D-02 -1.11759182151905200D-01 -1.31178316293512700D-02 -3.91415099439929400D-02  8.25540778396697400D-03
49 10  2.66965092903759100D-02  5.52677219030929800D-02  3.96044281637729000D-01 -1.60097248917555400D-01 -1.81505112748838700D-02
49 11 -2.71328756290527200D-02 -3.87574759940949800D-01  3.73686073340060500D-01  4.68137715304684100D-02  1.14120407322854000D-01
49 12 -6.00201903067549800D-02 -5.41002170160987900D-02 -7.92004524370981300D-02 -4.92646093591150200D-02 -5.84825851728238100D-02
49 13  1.97546667004391200D-01  4.80475948138922200D-01 -4.29084199635197200D-01 -1.48207979517629100D-01 -2.20934812504583300D-02
49 14 -2.29102896982502100D-02 -4.84565281031028500D-01  2.06408795538501300D-01  7.66205806259714600D-03 -8.48292445460213300D-03
49 15 -6.72921620466970000D-02  7.57750865012990600D-02  1.61662410516668300D-01 -3.37060870268078100D-03  5.36340951718051000D-02
49 16  9.12865776620615400D-02  1.71199871132041100D-01 -6.90972078794653800D-02  3.92013484709939400D-02 -3.64324336852656800D-02
49 17 -4.22292543296672500D-02  1.39393369048129800D-01  5.53627732166839400D-01  7.32094345514507400D-03  2.65709244412201600D-01
49 18 -1.84572454151313600D-01 -8.11367902608878900D-02 -1.30989204255780200D-01  2.79121227499430300D-02  5.25988406954007400D-02
49 19  5.04895254284905100D-02  1.36793524126961300D-01  2.87956063623035400D-02  2.11858407304746900D-01 -2.48354282586868100D-01
49 20 -7.52420304346655000D-02 -6.50527111902915000D-02 -2.47016193434229600D-02 -1.05602384053836900D-01  1.32989411061642500D-01
49 21  1.10933125815252100D-02 -9.13202764789772400D-02 -1.67078085122474000D-03  1.03471406088552700D-01  3.68680576856666300D-02
49 22 -1.40339463774219100D-01  2.17406341118792100D-01  1.60352506597119600D-02  9.85428282640364400D-02 -2.49051270074233200D-02
49 23  1.68783713185439800D-01 -1.43878586178016800D-01 -1.56961280069396400D-01 -2.42922943505235400D-02 -4.35280306679061700D-02
49 24 -1.34472580901413000D-02 -3.41678923089684900D-02  1.23574208098794100D-01  1.51202723502837000D-01 -2.14799243795663000D-01
49 25  5.67870519644195800D-03 -9.55299203594334200D-03  2.04919118444069500D-01 -2.63301982514298000D-03  1.94505085608058100D-02
49 26  8.47098625597767600D-02  4.45234052717540900D-02 -1.25257571308836600D-01 -7.58558973724432200D-02  4.46488675573064900D-02
49 27  3.12070298151368600D-02  1.45805689187694500D-01  1.78862112892194400D-03 -6.69606280716989500D-02 -6.96760970140924000D-02
49 28 -4.19814594086281200D-02  1.11657556422720500D-01  3.07921859815582900D-01  3.15598808608474900D-02  1.57190412488889600D-02
49 29  3.52672387700132900D-02 -5.66846449157154100D-02  2.07113760839770500D-01  5.67675434586153400D-02  1.28932146096101900D-01
49 30 -7.54404123615381700D-02 -2.57649849979614400D-01 -6.95957027636301000D-02 -5.38045772605572600D-02  2.05501837726289500D-02
49 31 -1.84841010668649500D-01 -1.22301227777235500D-01  5.32205187571048000D-02  6.53325634151218800D-02  8.74985947599552100D-02
49 32  4.52106976278835400D-02 -2.33203493490185400D-02 -8.33377742829109600D-02  3.46917478692574600D-02  2.78349809741453500D-02
50  1 -6.24604131872937900D-02 -1.17567476815665200D-01  8.13788264214891500D-01 -5.76629573122035100D-02  4.93087534643139300D-02
50  2  6.70702808898712400D-02 -6.37351118249935200D-01 -1.00676812936377000D+00  1.10604465536099400D-01 -4.61784574221562500D-02
50  3  1.63738369088326100D-02  2.98046205133241900D-02 -2.54635098882268900D-01  6.15820378216083700D-03 -4.47967171011299200D-02
50  4 -1.05607905330865800D-01 -1.92962920029151200D-01  3.52981788807402900D-01  9.70444343572341400D-02 -6.88875944789222900D-02
50  5 -4.44208234537645400D-02 -3.77885506698058600D-01  1.58643802927611100D-01 -3.90352382152146000D-02  4.01434766948273900D-02
50  6 -4.55352119767939200D-02  5.39173528196664800D-03 -1.29799629568040600D-01  7.51414045091131200D-02 -8.52114226251036600D-02
50  7  1.15306604562421500D-01  1.88742970755285000D-01 -8.31021343079469500D-01 -1.87988405934640800D-01 -7.84626021355009500D-02
50  8  2.07949349442509800D-02  1.01903866083962000D+00 -2.05085525047838300D-01 -2.21564149502261500D-02 -2.64735909776301100D-01
50  9  2.50366116262484700D-01  1.43697935138168200D-02  1.41235089198981700D-02 -1.18715224302674600D-01 -3.50770602878874800D-02
50 10 -7.08619876089481200D-03 -2.38927578006533200D-02  7.39169067105520200D-01  1.99456982330100500D-01 -1.01994853261954800D-01
50 11 -7.97708633089360500D-02  9.47924707741740200D-03  1.08531999345713600D+00 -5.26095590734141200D-02  1.88324739607660800D-02
50 12  3.50286872810596900D-03 -2.23353426888720100D-02 -5.66696128429869200D-02 -8.74447827725728800D-02  6.56078337063203500D-02
50 13  1.15045478163730500D-01  2.90555021117386900D-01 -4.27140588732879900D-01 -1.21617822884264100D-01  6.90480735754501900D-02
50 14  4.42003801487850200D-02  1.04527786901088200D-01  4.41773704173767900D-02 -4.13877707282962500D-02  1.97102243523728700D-02
50 15 -6.73972060355662700D-02  4.76869816831931300D-02  1.05586567048107600D-01  1.91598065135420600D-02  1.13884233757987400D-01
50 16  2.14062656704590500D-01  3.56873154247566000D-01 -1.47612466790679100D+00  3.15555750066505700D-02 -1.90394409135207200D-02
50 17 -7.15949963571830700D-02 -1.10488782994210700D+00 -7.11831140868651000D-02 -8.96633022498846800D-02 -9.10264324561667300D-02
50 18  2.67462216612897700D-02  6.42802107948760400D-02 -2.08878631738922100D-01 -2.50868358739142100D-02 -1.41931150192383600D-02
50 19 -4.90022277885173300D-03  1.40418315871834900D-02  2.75116119981669500D-01  2.63077552073912600D-01  1.34862477077882200D-01
50 20  1.62588207629660400D-01 -3.50155392671180200D-03  1.04981142799274000D-01 -2.76188355066148600D-01 -4.80976610754767400D-02
50 21 -1.27223110363137900D-01 -1.72844846574954200D-02  6.19824319254717400D-02 -3.41157646195638700D-02  2.68774412092284800D-02
50 22  7.23832341033572800D-03  2.82146763198243400D-01 -1.34622611187201900D-02  6.69124163791750100D-02  8.89305764857637000D-02
50 23 -1.77489583462877400D-01  8.85590069771137700D-02  2.64239155169608000D-01  2.10528705204436800D-02  8.77698740181160900D-02
50 24 -1.61310549485450600D-02 -2.31055442987924100D-02  3.24630065943158300D-01  3.19026612069478400D-01  1.73908160587717400D-01
50 25 -1.47482080199479000D-02  4.34294520562667700D-02 -2.73559173650913600D-01  1.34373153830963100D-01  1.74476336619730200D-02
50 26  5.44648720885371800D-02 -1.42828382670290900D-01 -4.65613953409519000D-04 -5.92467159383960400D-02  1.89934878487424000D-02
50 27  4.02532280896537100D-02 -2.85587567057501400D-02 -2.72775589861499400D-02  1.54784513825918400D-01  2.90042692026808600D-03
50 28 -5.99012132959582200D-02  5.70007863756900700D-02 -1.25438522414937000D-01  1.00761667061760700D-01  1.43669341026798500D-01
50 29  9.58672032980897000D-02  1.71284468592812800D-01  8.30179661318020800D-02  1.03138110418665100D-02  1.35402536494199500D-01
50 30  1.14180610620735200D-01 -4.05728742600527800D-01  5.39605590180447800D-02 -4.06997398165166400D-02  3.33165866016537800D-02
50 31  8.59996379945718800D-03  3.93835403710279400D-02 -5.58934759941897100D-03 -1.47332707470214300D-01  6.71279062659396000D-02
50 32  3.29771837951839500D-02 -3.65006409127752100D-01 -1.23064198228679400D-02  6.72876452079006300D-02  1.98694839888210400D-01
51  1 -1.25897084096640100D-01 -2.85389498417727900D-01  5.20799085617318900D-01 -4.21648156590513000D-02 -2.67066442557668200D-01
51  2  3.83565761731541900D-02  1.02433020889002800D+00  1.59833549437409100D-01 -2.95341513076948600D-01 -4.03952395930003100D-02
51  3  5.19909947436614700D-03  3.51961401186337800D-02 -1.40523044224736100D-01  1.70183740776833900D-02  7.73709931516960300D-02
51  4  2.79586611248760500D-03 -5.37730000933356400D-02 -1.47371293087480600D-01 -1.62756280076351300D-01 -3.22805097964658400D-02
51  5 -3.62830111060000300D-03  8.68474181371127900D-01 -6.47205645818100600D-01  1.37653483215284800D-01 -1.61345942193376700D-01
51  6 -3.66115522459208300D-02  1.97957494439298100D-01  3.13538586185363700D-02 -3.88736675211573700D-02  3.98104545389911500D-04
51  7  5.22454873231225500D-02  1.03012785633478300D-01  4.21417859688364000D-01 -1.38303258862835800D-01  1.92647116654323100D-01
51  8 -8.93000831113623800D-02 -5.12409718878254500D-01 -1.17821049567196100D+00  1.10007140865830600D-01 -1.92415936378610300D-01
51  9  7.74097185403993900D-02  1.15006217838210600D-01 -5.81397810650691000D-02 -1.55272299884325100D-01 -8.66420364362533000D-02
51 10 -2.60946350585127500D-04  2.09197218017441900D-02  2.97310440371620100D-01 -3.08304258597647200D-03  2.42410296515555800D-01
51 11 -3.33064367811995700D-02 -2.13837308727606500D+00 -1.49590500686004700D-01 -2.40344431061525300D-01 -8.89010871247695500D-03
51 12  1.47492689423999700D-01 -1.38602580711522800D-01  1.05806809450032200D-01 -2.51093870600055600D-02  1.17968954766146900D-02
51 13 -7.84330269546814300D-02 -1.82764016726086400D-01 -2.37139226420451100D-01 -5.31732314983663200D-02  4.13446422775316400D-02
51 14 -5.56032643532555200D-03 -6.64534147742690700D-01  1.27760238928750100D+00  5.65300678260173600D-02 -1.30703416428511600D-01
51 15  1.09436258432074300D-01  2.12671579964376400D-02  1.32512879546327300D-01  2.35843209879957300D-02 -5.68895929454020000D-02
51 16 -5.39275098336602600D-02 -1.04037563002195000D-01 -5.76675793475687700D-02 -2.42737584087951500D-02  1.56249461037769200D-01
51 17 -1.22744984662057000D-02  5.87362037264616400D-01  7.77602504809803200D-01  1.52979195915397200D-01  2.40744650092248300D-03
51 18 -2.85712157945326900D-02  2.61637692936110100D-02  2.91913383366316400D-03  8.09562171474937600D-02  2.52622365913037700D-02
51 19  2.77125665226490800D-02  9.17679642085617000D-02 -1.10068455952326500D-01 -1.15753219152440700D-01  2.51116857835264600D-03
51 20  1.34237499731774700D-01 -1.30662937227744400D-02 -7.85378599178469800D-02 -3.48670480580343700D-01  7.94545854038971700D-02
51 21 -4.52297035680715200D-02  7.00240399312230400D-02 -3.42913497263197400D-02 -2.65480636652979000D-01 -5.86449773017794800D-02
51 22  3.24125613954758700D-01 -3.22212500355520800D-03  9.81477245874625400D-03  5.22236564173887300D-02 -2.01730017332867800D-01
51 23 -8.74581996912010000D-02  2.89188217024068300D-01 -1.59309666332653900D-01 -6.80923235970511200D-03 -1.16049520686766000D-01
51 24  1.68624625425477700D-02  6.10348057413405400D-02 -1.38027571748225100D-01 -1.40412975928723300D-01 -3.87319040724151800D-02
51 25 -2.77935519442125900D-02 -1.27021768969125200D-02  4.63519465859735700D-01  2.69665683014000900D-02  8.52056743855747200D-02
51 26 -7.62988323337827900D-02  4.06228402645469100D-02  5.17902484209245700D-02 -1.41095034543671500D-01  2.29501730143654700D-02
51 27  1.18144861529305700D-01  1.23907607599490200D-01  6.73249091350124200D-02 -7.25881091377633500D-02 -1.18018113390437000D-01
51 28  9.49822841655500700D-03  1.08519884973882000D-01  2.89837015007658600D-01 -3.51509101447140200D-02  1.22715371607299800D-01
51 29 -6.59139842555882800D-02  1.05917803626823200D-01 -4.61260880828892200D-02 -2.49442206958644600D-03 -2.11984101679776700D-02
51 30 -1.05314313838432400D-01  2.57481954446449300D-01  3.61660656607880100D-02  1.17721444639030200D-01  9.18770026727525600D-02
51 31  2.61628951896372300D-02 -4.30674896180673900D-02 -1.79479879413227700D-01  1.43989619688373500D-01 -6.43578528024631600D-02
51 32  1.79060315395627200D-01 -3.10188936315712300D-01 -1.48366770951656600D-01 -6.90001976862315400D-02 -2.29720672010564500D-02
52  1  1.90543595680874200D-02  5.20320768033658000D-02 -4.13299672434146000D-01  9.74519050300317300D-02 -6.31358278807401300D-02
52  2 -1.10445557320947600D-02  1.49354869318745400D+00  2.54513017482081500D-01  3.26124199443221900D-02 -2.89491718761101700D-02
52  3  9.14452761753544600D-03  1.98046442585741400D-02 -7.04970638983691000D-02  2.77554820600284000D-02  5.90539857191150900D-02
52  4 -4.21376556631194300D-02 -1.27917511435049500D-01 -5.01534232944241100D-02 -1.71769219626110300D-02  4.74522910762161900D-02
52  5  4.15346202591193200D-02  9.12792864347868800D-01 -6.37384351497491500D-01 -3.62090540045123700D-02 -1.91043639745792100D-01
52  6  1.80555363904002700D-01  1.04882758417895700D-02  9.76748688348009500D-02 -5.82143312305665600D-02 -3.53990361802793100D-02
52  7 -3.27785944762108200D-02  2.68542188385958200D-02  1.42463504227484000D+00 -1.83916355203175800D-02  1.25048743139284900D-02
52  8 -6.58465734709151700D-02 -8.14591655374435200D-01 -1.33434475300620900D+00 -6.39382943817758500D-03  3.42784995182561000D-02
52  9  1.57064901703657200D-01 -1.91343401221913500D-01 -2.82836265630180900D-01  6.89279978486766900D-02  2.52527349392167200D-02
52 10  1.32473288463370800D-01  3.13471875741336500D-01 -7.68384662214978400D-01 -4.97055116061201100D-02  2.23469990964095200D-02
52 11  1.53628745602155700D-02 -2.57039747912673900D+00 -1.17338492006507300D-01  6.23888033149488700D-02 -1.97453296109379800D-01
52 12 -6.70447464463147700D-02  2.64498042555695000D-01  2.57392467948172300D-01  8.90882156746061200D-03  7.09044940569891100D-02
52 13  7.50974728465608800D-03 -5.42756715278472600D-02 -6.69016544561023400D-01 -1.83480123064341500D-01  1.54305464379058000D-01
52 14  1.89178942058416000D-03 -3.30231633102438800D-01  1.20338748021294500D+00 -2.36045037509407300D-01 -1.40878651042507500D-01
52 15  5.39170278017470600D-02  8.69616232407605500D-02 -8.63974684435373500D-02 -9.62248508250554000D-02 -9.04371832018746300D-02
52 16 -1.31218706177882000D-02  1.74297166464752500D-02  3.24018491145545300D-01 -3.72441986745232800D-02  8.84870842010858200D-03
52 17  2.23235713890134300D-02  9.47932313880836700D-01  9.30048088001429600D-01  2.05585299354774900D-01  1.01738010068850900D-01
52 18  6.84072476009671200D-03 -1.08578734828947400D-01  6.12386391149475100D-02  5.53114852464213100D-02 -1.14157839774850400D-01
52 19 -2.02639816997211100D-02 -6.44968381985762800D-02 -4.86910121216822900D-02  1.15249382736600100D-01  8.79865423466915900D-02
52 20  6.21413998313354200D-02 -7.48938388039646900D-02 -3.37372710266618500D-01 -7.61767149061875200D-02  5.22787747839143600D-02
52 21 -2.82618607611117800D-02 -9.48888544729522300D-02 -2.31279600806166100D-02  1.93406739163616300D-01 -9.15684904064795100D-02
52 22 -1.01838248757136200D-01  9.51805039140704600D-02  1.38903462953945600D-02 -3.15040094028709800D-02  2.29451922864451200D-02
52 23  7.45082135249196300D-02 -9.74534058113652900D-02  1.04544231501394300D-01 -1.82912429225574900D-02  1.55328140281066300D-01
52 24  8.91033157547226400D-04 -1.07252218984425700D-02  6.78904439529923700D-02  3.38885092621368200D-02  7.35300411188647100D-02
52 25 -2.26079966498706700D-02  2.34479823552887600D-02  5.88359414947997500D-01  3.77293189441956900D-02  3.58223136916929200D-02
52 26 -2.19816122401930700D-02 -4.15069648950695500D-03 -1.04059100679120400D-01  1.31646326026353000D-01 -2.31382219651152500D-01
52 27  9.97358936247994100D-02  2.35843548666205900D-01  5.48643390477268300D-02 -4.62374825803587800D-02 -7.41782323211163000D-02
52 28  1.37208062880614900D-03  7.28061516923101000D-02  1.74469562285845300D-01 -7.02061246804834700D-02  1.46888060126255800D-01
52 29 -1.42241355311108800D-01 -8.75924707610872000D-02  3.52795401344808800D-02 -1.92614900953623200D-02  2.52180871323370800D-03
52 30 -1.41414022112389500D-01 -2.61575413448622000D-01 -1.05638431101252400D-01  8.12030512230057500D-03  1.16216738148772800D-01
52 31  1.54681602408239000D-01  3.07825173844472800D-01 -7.91319042972676900D-02 -1.33993329450834900D-01  1.00274082871599900D-01
52 32  1.39219075191885200D-01 -1.57169382857039000D-01  1.64949420002585500D-01  1.04794407794314500D-01 -1.29350797456022500D-01
53  1 -1.00539595106101900D-01 -1.04190612578276400D-01  4.26268223873667500D-01 -1.33300828541622600D-01 -1.12352590930522500D-01
53  2  1.07557275893891300D-01 -1.97928549978622500D-01 -7.63693298453190500D-01 -4.72820870810235800D-02  1.00761271168861400D-01
53  3 -1.86036462972968300D-01  8.52751918041066100D-02  4.13142795934248400D-02 -8.06791646192621300D-02  7.34668348257471900D-02
53  4  9.27794948406181900D-02  2.04248548934845300D-01  5.26890052301713500D-01  2.31621535298579100D-01 -1.52798836177181100D-01
53  5 -2.97611448441063700D-02  3.92282844979978500D-01 -2.51888301858399900D-01  1.96637565646769800D-02  9.65912176659484600D-02
53  6 -6.94065734927196000D-02 -2.71846441732286600D-02 -1.87016762891053300D-02 -8.32179670180981000D-02  4.48210254490180800D-02
53  7  2.16006689421511500D-01  4.40450788600215000D-01 -1.73414552845498900D+00  1.97017843254575900D-01  5.63816394870473900D-02
53  8 -1.07396999035316800D-03  1.09784548091358900D-01 -4.41703793267899700D-01 -2.86846372824858800D-02  1.30142037061211000D-02
53  9 -5.81838481255146400D-02  4.51696444193942400D-02 -6.60375004906241200D-02 -8.01161128868226600D-02  6.23379773082500800D-02
53 10 -1.28294741345654800D-01 -1.81204399043249800D-01  6.20434404921338800D-01 -4.23907072060061900D-02  5.12116471941744700D-02
53 11  2.74487121602064000D-02  1.81923790350403300D-01  8.95695574621265300D-01  8.38460133016934500D-02  2.36088721114499300D-01
53 12 -2.36660314869276000D-01  5.71593754776308300D-04 -7.68140497421338100D-02 -1.59738157451835000D-02  2.53379723628852500D-02
53 13  5.15885211326227000D-03  4.85154246514463100D-02  4.27553899478728200D-01 -8.69957665144920800D-02  1.91947530004744400D-01
53 14  8.27770138067290400D-02 -7.76074574795090300D-01  4.55245570582331100D-02 -9.18467419654704800D-02  7.97785883172010100D-02
53 15 -1.60016031727473900D-01  8.02374434102724200D-02 -1.15379411394186000D-02 -2.03642377098305100D-02  3.57562289836556900D-02
53 16  5.64515815131117200D-02 -2.22045398694090400D-03 -1.13492909904677500D+00  2.20988233639325300D-02 -1.66473258390695000D-01
53 17  1.27840776231533600D-01 -3.13888077502032000D-01  4.24458689954055100D-01 -1.01997183234063100D-01 -2.62461737561096200D-01
53 18  2.07684469397173700D-02  2.41693290621378200D-01 -5.80922670732269300D-02 -1.50989079798064800D-01 -6.51531018154779700D-02
53 19 -7.83969209637003500D-02 -1.92694012055630300D-01  4.81851900944796700D-01  4.06936416477804200D-01  7.34030288145537400D-02
53 20  8.46636178503921800D-02  1.16649401592154100D-02 -2.73903159801141300D-02 -1.98143086602681700D-01 -1.54038728121514000D-02
53 21  1.54400132062212500D-01 -2.70718711140376400D-01 -8.05543178750315900D-02  4.15651221412346700D-02  1.60841893233741900D-02
53 22 -5.76493114646090000D-02  5.93283158930784100D-04  1.23135023983398700D-01 -2.97163101014204800D-02 -8.46719705173211700D-02
53 23  1.28785038696457200D-01 -4.41130681791362600D-02 -1.06744844455083600D-01 -8.96226402517467400D-03 -1.78880765330213400D-02
53 24 -1.61402006966215100D-02 -1.41330894541695200D-02  4.52038832105099200D-01  2.93234973182779500D-01  1.63665362237536900D-01
53 25 -7.61301120529983700D-02 -4.40117030166659500D-02 -2.66722435445778200D-01  1.99290258224644600D-01 -2.18659528134315900D-02
53 26 -1.53161988054080300D-01  3.12547346488126400D-01  1.27277373765897100D-01  7.30438924161660300D-02  2.28935427161737600D-02
53 27 -9.59374351323394600D-02 -1.11494168178733700D-01  9.30327378466286500D-02  9.86013718346958200D-02  7.41144944800939800D-02
53 28  1.60390228906978800D-01 -2.34504723387072700D-01  5.39478321981648000D-02 -2.24445152277715000D-02 -2.14077680599693300D-01
53 29 -2.02617726456723800D-01 -2.33228352135174600D-01  1.13374923523306400D-01  4.85848689668261100D-01  1.24831483256259000D-01
53 30 -1.03456250990423700D-01  1.14528865331500500D-01 -1.54234825137703900D-01 -2.38181350483649500D-01  7.87334162437318700D-02
53 31 -1.34315005243206100D-01 -7.21827461596084900D-01 -5.01718717940536600D-02  4.14561506549493100D-02 -1.13606580287456600D-01
53 32  1.04357359656117400D-01 -8.76680972071239200D-02  9.33134208687217700D-02 -7.04619493567513300D-02 -1.13534065181706500D-01
54  1 -1.68209630858045600D-01 -3.38403586576486100D-01  1.25402648922284800D+00 -6.60548278662893000D-02 -4.84243100101306000D-02
54  2 -2.18252039165024400D-02 -6.49880445073522600D-01 -6.13777323248260600D-01 -1.09322018878884400D-02 -3.62730371145509700D-03
54  3  1.23845189441085200D-02 -8.75721523265254000D-03  2.47912514508525800D-01  8.00846138483351500D-02 -6.53375089898341800D-02
54  4  8.55807650426819700D-02  2.08272072247587100D-01 -6.41603240515357300D-01 -1.26418445922441800D-01 -5.52235143076128200D-02
54  5  3.01998938093598300D-02 -1.22698821112741200D-01  5.50114765973348500D-01 -6.23063352684099600D-02  2.74346334234954200D-01
54  6 -2.50815664578329900D-01 -2.35306696566246800D-02  8.69193581013643500D-02  4.75233925965344800D-03 -4.85323352706583400D-02
54  7  1.20801706318351500D-01  2.01701690654881100D-01 -4.06353222276044900D-01 -7.73521061762186400D-04  5.47588576667755700D-02
54  8  1.43743809559965800D-02  8.70647236683030600D-01  4.41982510009396700D-01  7.13666078636220200D-02 -1.04652952374123000D-01
54  9  8.76919779590979000D-02  1.69609744150247000D-02  1.00977189892274200D-01 -1.35206473236753600D-01 -6.55532997790708900D-02
54 10 -8.00881066432160600D-02 -1.79966599410720700D-01  1.58014384272940100D+00 -7.90534611712253000D-02 -7.50699892523824200D-02
54 11 -3.49555439319300800D-02  3.78965626650292200D-02  1.00103155765435400D+00 -2.86628691723145200D-01  1.18885068179653600D-01
54 12 -1.97829526075304200D-01  7.89444578956508500D-02 -3.60116811955905100D-01 -7.26139276604295700D-02  1.24454600207146700D-01
54 13  1.62698506719196000D-02  4.85411487278973100D-03 -1.11849255677163500D+00 -4.68436405004799300D-02  1.62776013968520400D-01
54 14  7.87693305073471400D-02 -2.20926641442359100D-01 -3.56753267180683700D-01  1.75539067949291900D-02 -5.95391315297804600D-02
54 15  5.55277300676918800D-02  4.01140146208851400D-03  6.14836464575278900D-02  4.18994099104714300D-03  7.89813806238103700D-02
54 16  9.03843146454653800D-02  1.78794023448780500D-01 -7.08432537768052600D-01 -1.58951950004784100D-01  1.73467848461311300D-02
54 17 -3.82325174730510300D-02 -1.08704662150713900D+00 -5.90002824659163400D-01 -2.32172837372276200D-04 -2.70581955025527600D-01
54 18  1.16469546278316000D-01  1.54112408747211100D-01  1.82167727135703300D-01  1.35676800233746600D-01  1.03021252870245800D-01
54 19 -6.22326433733157200D-02 -1.43579928739717000D-01  1.60210674701670600D-01  3.00936970684602000D-01 -7.02238352488360100D-02
54 20 -2.33160465015550700D-02 -1.55684655424373000D-01  1.18204461217486200D-01 -2.65086639329311800D-02  1.93807056480292900D-01
54 21 -2.47157970405481200D-01 -1.86942975434254300D-01  8.76828489751555900D-02 -1.12738725817174800D-02 -5.09414420855086100D-02
54 22  6.22153146672260900D-02 -2.04847026108747300D-01 -1.12912374005046800D-02  2.80764961108710400D-01  6.64324887816466600D-02
54 23  8.52601655986924600D-03 -7.49585053415155900D-02  2.24777380720674600D-01 -4.36637561368924000D-02  7.47283679906801100D-02
54 24  2.34564909143124100D-03 -2.59954441586996500D-02  1.19420435936577100D-01  3.32312454954713700D-01 -2.08684760181189900D-01
54 25  1.15748425367330100D-01 -4.70829550614984500D-02  8.78577058191588600D-02 -2.04200359971547000D-01  2.29276043342478500D-01
54 26  1.01825071369195700D-01  1.95067137509933600D-01 -2.41196376871305300D-02  5.47001617458612900D-02 -8.29685915815987100D-02
54 27  2.82684298357372900D-02 -9.88164495815714200D-02  1.03433778286815800D-02  6.74667500225188800D-02  1.24769738956017900D-01
54 28 -2.27558330010109600D-01  1.02788591054091600D-01  2.60770569318432500D-01  3.56046179373986200D-02  1.96205369578327700D-01
54 29  1.55947291818205400D-03 -7.16262055883552200D-02 -1.47804806954313700D-01  1.26853029285010200D-01  1.72521320408523000D-02
54 30 -1.82069878103343400D-01 -5.29415098108982900D-02 -2.09276053755900500D-02  2.00607041651275500D-02  2.21025400983364700D-02
54 31  1.42591572314366700D-01 -2.41533851334313000D-01 -1.67736515555794400D-02 -2.38119112189000000D-01 -1.98913130973424600D-03
54 32 -1.60869143997316800D-02 -5.15415303599298100D-01  3.80295265934535800D-02 -1.28441521756636200D-02  4.20712043388910700D-02
55  1  1.36384706354893900D-02  1.83871897383700800D-02 -4.41014396120791500D-01  1.96315174564889000D-01  7.02898097409882100D-02
55  2  1.11149398966397600D-02 -1.63736933474339500D+00  4.00588362054301100D-01  3.80056941116865400D-01 -7.81276035031344500D-02
55  3 -1.24949019792243300D-01  2.03076623295377600D-01 -1.45211447487726700D-01  7.54670105146377800D-03  1.07955215570511100D-01
55  4  7.37710725993424200D-02  1.51844127113955200D-01  3.34826063431519900D-01 -7.65479181500689800D-02 -9.34747509101675300D-02
55  5  6.88667684616296700D-03 -2.45846116069767200D-01  1.48721586933809700D+00 -8.33727287010996900D-02 -1.93105537552324300D-01
55  6 -2.87910711209381900D-02  2.21896608673262000D-01 -1.25107012101119000D-01  7.62386819868116800D-02 -3.29183508939215100D-02
55  7 -1.42609642333010900D-02 -1.65591928154863600D-02  1.38378155914900100D+00  5.79515799455105500D-02  1.05988597957864400D-01
55  8 -1.42834324354107500D-02  1.61954417814479900D-01  1.77198260856978000D-01 -1.80759130378179000D-01 -1.27312455200526800D-01
55  9  3.73650663558578400D-02  8.99473888446685300D-02  1.06569592001996500D-01  9.45549004212353500D-02  6.97515691810841500D-02
55 10  1.43003163399835400D-01  3.06165206321441600D-01 -6.19569535600980400D-01  2.65746681241503400D-03  3.38709935960218700D-02
55 11 -1.87887554776706800D-02  1.58786285613489800D-02 -5.19541536934768300D-01  3.39022610757478800D-01 -1.37114696472811200D-01
55 12 -6.14722573209511500D-02  1.98586953793762400D-01  3.78537116750497400D-01  7.07948219143994500D-02  4.06285755082509100D-02
55 13 -1.15681603387163500D-02  5.22175343586329200D-03 -9.18413943788195200D-01  1.50864176461691100D-01 -2.21856127534096600D-01
55 14 -4.42068627508221200D-02  4.68237566344157200D-01 -1.35971332541238100D-01 -1.20584909081995800D-01  2.44499370139127500D-02
55 15  1.83315019417409900D-01 -2.07764956431322600D-01  6.11150616774114500D-02 -2.04054165356241100D-02 -3.02874389065965300D-02
55 16 -2.16191919677688600D-01 -4.14677004723579900D-01  3.60747419804686600D-01 -6.90048925758995500D-02  1.36071075260093700D-01
55 17 -4.81626610080448900D-03  1.50687839887295700D-01 -1.51966687216377600D+00 -5.74871851525080100D-02  2.50833725127337100D-01
55 18  4.12092275459872600D-02 -2.92042952673324200D-01  6.08075893629922900D-02 -5.19270440277477400D-02 -5.95402162964999400D-02
55 19  7.30104580669239300D-02  1.35184510543471200D-01 -3.14037713030488300D-01  3.35134485792723800D-02 -1.18735166378204800D-01
55 20  1.06367548828618700D-02  4.40135405344224800D-02  4.69647177804880400D-01  7.05307728114842000D-02 -2.23369118185723900D-01
55 21 -2.91189711004607100D-01 -6.36871649330281600D-02 -2.69275140079720700D-02  5.56678927108087900D-02 -9.54330926069979100D-02
55 22  3.97651998961894900D-02  4.41061152672725900D-02 -1.86956401800373700D-02 -2.07088758238775000D-02  2.77564393931854700D-02
55 23  3.04450030234964800D-03 -3.08009396955354300D-02 -6.86768921367672300D-02 -8.42830293113193900D-03  2.33628580525832500D-01
55 24 -1.53653802290926600D-02 -4.30668936082890300D-02  2.40979808293099600D-02 -2.82564030354834200D-01 -1.94914948361286900D-01
55 25  6.91667445327989500D-02  9.17100469894765600D-02  4.45466463338501500D-01 -2.29868307312140700D-01 -2.23538785450430500D-01
55 26 -2.49330477952976900D-01  1.50529163375560900D-01  6.31528156727639200D-02  1.64131552801409600D-01 -1.67784927223161500D-01
55 27  3.65337442175146500D-03 -2.25454254267608700D-01  9.25093034527652500D-03  1.88162742281496400D-01 -1.57366953296466800D-01
55 28  6.04411268164652400D-02  9.69258264800014900D-02  9.86114627960627300D-02 -7.65248568604086200D-02 -1.73958220583605600D-01
55 29 -2.17880924946932800D-01  4.03133146990302900D-03 -2.21349094136569400D-02 -4.96268675591849700D-03 -2.85669652944729700D-03
55 30 -3.48507307605582500D-01  2.27219581997623000D-01  7.53347298297553500D-02  1.86727293760326000D-02  1.29679893541920900D-01
55 31  6.80115382758120400D-02  1.40318587014977800D-01  2.37202901602010300D-01  9.25653679601355500D-03  9.76930466398642400D-02
55 32 -2.81310531240399200D-02  2.58570491392833700D-01  7.95816852574477300D-02  1.95008648526414800D-01  3.60410449162591300D-02
56  1 -1.12462740693474300D-01 -2.15752764063281100D-01  8.22382464826950100D-01  2.43783322298597700D-01  5.51166247760094700D-02
56  2 -4.47274741968440100D-02  2.17847685896731100D+00 -1.68668567871440600D-01 -4.76705693194864900D-02  1.12656406210504300D-01
56  3 -2.27312819319040600D-01  1.14656413108536400D-01  9.67832836465308300D-02  6.29915619036027400D-02  1.07107134179190100D-01
56  4  1.73683025807055800D-01  3.53807824389654200D-01 -1.15175824128976100D+00 -2.33109297008105800D-02  2.91029354140325900D-02
56  5  1.50428345623861800D-01  1.15796258348118800D+00 -1.41525610981521700D+00 -7.41652504236893500D-02  1.63506571001479900D-01
56  6 -2.82496193893079900D-01  1.18989622891601000D-01  5.25969851836191500D-02 -3.07759006742958700D-02 -5.87944743654027400D-02
56  7  1.29828287634648800D-01  2.27949671590720500D-01 -5.00746975136737900D-01  3.68638184481284800D-02 -4.02176246503226500D-02
56  8 -8.17265416769029800D-02  2.29872127459730300D-01 -5.89001474595062600D-01 -8.40807690774923400D-03  7.61648917206432000D-02
56  9 -2.48088349468970800D-01  1.71923457748327900D-01 -1.26934071761173500D-01  6.33020956399434300D-02 -2.56895283720853600D-02
56 10 -1.54303867262620500D-01 -2.90542298090448100D-01  1.05961287028313700D+00  2.49849569553087200D-01 -7.48922272934124500D-03
56 11  8.13443035976887900D-02 -5.55484966734714800D-01 -2.20727031667647500D-01  1.14798517466383700D-01 -1.57037241685995400D-01
56 12  1.02248122895800300D-01  5.47891187901958600D-02 -1.20005984043418600D-01 -6.77113240210583400D-02  1.03264180326494300D-01
56 13 -5.50643369894702300D-02 -6.38032512603804000D-02 -1.86343847571658800D-01  8.22658305326355600D-02 -2.76434908206782400D-01
56 14 -6.45448008234897600D-02 -1.81006332135470000D-01  1.39022953714262900D+00 -1.70839944454886500D-01 -1.02512690730204700D-01
56 15 -3.63469914042943400D-02  1.38859682134499300D-01 -2.93848931018119400D-01 -7.61890132090072600D-02  6.01909354282905700D-02
56 16 -1.51557295977433500D-01 -2.97524871896824800D-01  5.35854659597323800D-01  1.53015254473385500D-01  8.62267218206680400D-02
56 17  8.30518377507504200D-02  7.24304962981160200D-01  5.85124124649924500D-01  1.04879092911288400D-01 -3.22253069648460300D-02
56 18  2.26259952709352300D-01 -1.94034645744505700D-01  1.67896626878838500D-01  9.68502086289268600D-02  2.06688632069900000D-02
56 19  8.03023183506898200D-02  1.92140613239995900D-01 -1.09188971863630500D-01  5.25674794112909300D-02  8.45725753900919400D-03
56 20  4.38008190194046800D-02 -2.10724431527727700D-02 -4.08487728159623700D-01 -1.09648376327347500D-01  3.56046188139606300D-02
56 21 -3.69804113033333700D-02  6.54710263996224600D-02 -7.37765955025194000D-02 -1.66371984435258800D-01  2.29052791845642900D-01
56 22 -6.26808074103835200D-02 -3.38508819160695400D-02 -1.81706532488667100D-02  4.32157310599317100D-02  7.68532723165364900D-02
56 23  2.37810078984703400D-02 -1.00634280215006700D-01  4.56536185792722000D-01 -2.35023340281564200D-02 -9.30536064772185800D-02
56 24 -2.64979274897012400D-02 -6.21816452617356800D-02 -2.09381303336424300D-01 -5.92136180282457800D-02 -1.26891522209692200D-03
56 25 -1.68005610922041500D-01 -1.08675800515581800D-02 -1.14710087439749200D-01  1.73099621035300600D-01 -3.53177216610016700D-02
56 26 -7.75282641099602900D-02 -1.20010047691768400D-01  1.05841934435424200D-01 -2.42649126630656900D-01 -3.68146144501303400D-02
56 27  2.79463741080787300D-01  1.63399941131574900D-01 -3.79681962038365900D-02 -1.54768817868294300D-02  1.76332902843228200D-01
56 28  6.58569867104528400D-02 -2.42189889553681200D-01 -1.43415322911659800D-01  6.63824663959287600D-02 -1.47730000776178600D-01
56 29 -6.91220452437615300D-02 -1.74872299009720100D-01  1.09180050089744500D-02  6.56005399779585600D-02 -1.16302075829890700D-01
56 30 -2.41440207112792200D-01 -3.65764013472275800D-01  5.88497685690142400D-02 -3.53146449003214200D-01  7.03818559805905900D-02
56 31  3.49152885207986100D-01  1.33982159367184200D-01  1.62660839731389400D-01  5.85007458637724300D-03  2.53026868647838600D-01
56 32  1.97836267890546600D-01 -3.11985494399542400D-02  1.43019773575732600D-01 -8.31455189175158100D-02 -1.82306090844414300D-01
57  1 -3.41613427536067900D-02 -6.60741322943700800D-02 -1.95880942021222000D+00  1.30358255431106400D-01 -1.92102727891343900D-01
57  2 -1.36472328771841200D-02 -1.91137286085256600D+00  1.15478710166309300D+00 -2.30682052701787300D-01 -1.97926424499989000D-01
57  3 -1.02692317922482300D-01  3.00618742422470400D-01 -1.46960126042310100D-02  4.22597466739808100D-02 -1.12668967483467800D-01
57  4 -1.79370050622397500D-01 -3.57871556082604500D-01  1.74133349684944700D+00 -4.98173018449978000D-02 -3.87229670564182100D-02
57  5 -1.14375362559533000D-01 -1.47193775034085700D+00  1.00970536292177500D+00  2.16283646390446300D-01  1.88545395750827700D-01
57  6 -1.31118175041908500D-01 -5.74272207089199900D-02 -9.40989948064890200D-02  1.06141555421380200D-01 -3.25104891059566800D-02
57  7  6.95454566556688200D-02  1.35284319364321400D-01 -5.43713491446404500D-01 -1.13330043317680200D-01 -8.90212079619751200D-02
57  8  5.73583987539456100D-02  3.46956779405054400D-01  1.19426352085808900D+00  3.95961627200309400D-03 -4.14171147538326500D-02
57  9  1.22303094650034400D-02  2.91868052888304700D-02 -9.08602647898372500D-02 -2.07704000550771900D-01 -1.21325163162221900D-01
57 10  1.84482648075862500D-01  3.73450194641421400D-01 -1.85875944433541800D+00  7.83890001232915600D-02 -1.11606157929482200D-02
57 11 -5.10420329776759000D-02  2.41999050036840200D+00 -9.16035886160809300D-01 -3.04581431632580700D-01 -1.91401552104527300D-01
57 12 -3.99817414861174700D-02  2.31383293590644100D-01 -2.01054515678328600D-01 -5.30094790467590500D-02  1.85169899843444600D-02
57 13 -1.48992133310716500D-01 -2.51119791193312000D-01  2.31775184366387900D+00 -9.50171975443070000D-02  3.90113103905504600D-02
57 14  4.45424937813629100D-02  1.40856503657766900D+00 -1.26982566445568600D+00  3.64580162835570700D-01  4.40602077777434300D-02
57 15  1.21029383319644400D-01 -1.65089591097388200D-01 -3.62206926710125000D-02  8.32702734013641000D-02  1.67599102752861100D-01
57 16  6.50142628518034800D-02  1.89217619029022700D-01  2.03921561890043200D-01 -5.88861569436870100D-02  2.31103351731593700D-01
57 17 -1.24331148051609400D-01 -2.41164226548156700D-01 -8.15896094010144700D-01 -1.44319932217427300D-01  2.19449670330786700D-01
57 18 -1.49739705711771400D-01 -6.97099646190158400D-02  5.29798217183790100D-02  3.66641831967176900D-02  2.45298228822380100D-01
57 19  5.45563265442751300D-02  1.35252912620247000D-01 -2.10943641241654100D-01  3.88827860778533000D-02 -1.23692190014403500D-01
57 20  5.10956150262477600D-02  1.31766446600509500D-01  3.40432750313334000D-01 -4.10496329267483300D-01  1.90248573482378000D-02
57 21  1.27670392697793500D-01  1.34608315926659700D-01 -1.05521607356578800D-01  3.48567176480436500D-02  7.06331075834843400D-02
57 22 -1.05489825231528900D-01 -5.94187159677667000D-02 -4.38823644411047700D-03 -1.27381265018342800D-01 -1.41191734178189000D-01
57 23  3.01038503744378800D-01 -1.59846769566190100D-01 -1.33512555897791000D-01 -4.71307281086344000D-02 -3.33395128698549600D-01
57 24  2.88377181557946300D-02  5.28919217992150200D-02 -1.65310051758721500D-01 -3.93004042956950100D-02 -1.41430178186490500D-02
57 25 -1.03950912953220700D-02 -1.27915805960955200D-01 -4.11565831192154000D-01 -2.68541948705709600D-03  2.14722474630154300D-01
57 26 -9.36287867591007300D-02  1.21027811430057300D-01  1.08220307462193800D-01  1.67143020987886900D-01 -2.84225839272950100D-01
57 27  1.17082818285063500D-01 -3.26916252690200900D-02 -2.49749418062959400D-02  5.08471809253577900D-02 -2.22530325732226700D-01
57 28  1.44894463651321200D-01  7.76358620809055200D-02 -2.47773090508551000D-01  7.91995698760907000D-02 -6.43164662941499300D-02
57 29  4.93494194830713000D-02  8.79145695549447000D-02  3.55819309692513900D-02 -2.25292691795962200D-01  3.03262253424279900D-02
57 30  2.77868535042110900D-02  3.35070896601703900D-01 -1.04969361356714000D-01  1.45082942805795900D-03 -6.80809221715499800D-02
57 31 -1.88476391446439900D-01 -1.07809490636201900D-02 -7.48380253220495000D-02 -1.23763543992002800D-01 -2.20477020918383300D-01
57 32  4.80415988400931900D-02 -1.84966925984041300D-01 -3.25284584949843000D-02  3.18204889686426600D-01  2.44919978684977300D-01
58  1 -3.88134341880550900D-02 -7.32049844004230300D-02  1.10774822259843600D+00  1.35283391319986200D-01  1.90973496853564500D-01
58  2  1.71895377264628900D-02 -8.24289233569816800D-01 -3.13082842098126200D-01  1.43241714544922700D-01  2.94442900988335400D-01
58  3 -1.77237481720187400D-01 -1.17205419268147500D-01  1.55599243107573500D-01  1.62839428200210000D-01 -1.49971325936566300D-02
58  4 -1.37555957763461900D-01 -2.94953658700543500D-01 -4.94631937293247100D-01 -1.51189539503178300D-01 -1.57840756025427200D-03
58  5  1.06845232726834600D-02 -3.52760427380289800D-02  6.28564453259967300D-01 -2.19772281110661900D-01  1.95244776247503700D-02
58  6  1.36177727029347600D-01 -1.55702204654098300D-01  1.15381519464753600D-01  1.69598986859105100D-01  3.86805813335648800D-03
58  7 -1.91330630328033400D-02 -7.96520170676460600D-02 -1.12676615406152300D+00 -9.56338662067251200D-02  3.44484665135632400D-02
58  8  5.83599586839325000D-02  1.21347319644422600D+00  1.50973842749749100D+00  2.11709916411929600D-02 -1.25412530374530600D-01
58  9  1.83130726804653100D-01 -5.77181964301223300D-02 -1.02486835689685100D-01  7.17219875510440400D-02  1.20348012386757200D-01
58 10 -2.67471905793037400D-02 -4.30856022578618100D-04  9.74379397390888900D-01  1.86743825981763800D-01 -2.37249623974939000D-02
58 11 -9.97203129674449600D-02  2.07003433438867500D+00  4.84718361565228500D-01  1.03529769799199200D-01  4.75343836667225400D-02
58 12  6.96961846048491700D-02 -1.17230568271571900D-01 -2.79800320554465900D-02  1.47066897725067800D-01  1.89617968505812300D-02
58 13 -7.46409420351769500D-02 -9.97976683042239600D-02  6.91760247251891800D-01  1.59737193091700300D-01  1.18155222525090400D-01
58 14 -1.08562104821612200D-02  2.25406137232083600D-01 -1.36578292540751800D+00  6.62085943658031800D-02 -1.37383996206421100D-01
58 15  2.77518339721797600D-01 -1.40134343515376300D-01  3.16934495589446500D-02  1.16977751995152600D-01 -9.59868608576331500D-02
58 16 -1.44453039302549400D-01 -3.37687347962032100D-01  3.79173714330688400D-04  1.00463302657668800D-01 -2.12379351359020100D-02
58 17 -7.98212991034578400D-02 -8.56055250851256300D-01 -6.05825837059430800D-01  7.36054734222423700D-02  3.44565439184231300D-02
58 18  6.59752032751707400D-02 -1.00431747193594100D-01 -2.24731155793624300D-02  2.55900297444842600D-02  7.81652070986039000D-02
58 19  1.01252501160134100D-01  2.14588698137670500D-01 -2.59574619555295400D-01 -1.32119691071869100D-01  1.54628382316876000D-01
58 20  2.02446599270798900D-02 -6.60157976526485100D-03 -2.00022990857705400D-01  3.56822909731694100D-01  8.86904377851099700D-03
58 21  1.54859844334896700D-01 -3.58620575052734400D-01 -1.02901656718342300D-01  3.59722454911053300D-02 -3.18382896512941800D-02
58 22 -4.13395583981172200D-03 -1.36071607313912900D-01 -5.79472602844318300D-03  3.85359452440374000D-02  4.16974241722300400D-02
58 23 -6.10447722612120400D-02  1.93473480889828400D-02  1.55531842796338500D-01 -1.77842059842474800D-01  2.62785123678384900D-02
58 24  2.05232263860690300D-02  4.96287363346836800D-02 -3.96195374534501800D-02  7.33790518062085600D-03  8.76249169587006200D-02
58 25  1.24490369518100400D-01 -5.19981973041331800D-02 -4.67649628116043000D-01 -2.64106668759398000D-01  4.97653952385443200D-02
58 26  1.80038022745727600D-01 -1.28390726553185700D-02  1.26472764110596000D-03  4.38892787505003300D-02 -1.05015680364852900D-01
58 27  6.11264016143528700D-02  1.80099398073473000D-01 -2.62041004795321800D-02 -3.68184442944922100D-02 -3.05813308703791000D-01
58 28  2.20388257677886700D-01  8.54250510259041400D-02 -1.69299791508189000D-01 -1.61821383454845300D-01 -6.76433979840499300D-02
58 29 -9.29713511604805100D-02 -2.08014651482457900D-01 -1.14245903664282100D-01  3.33914910971274700D-02  8.16292580067845100D-02
58 30  8.05069266878167700D-02 -1.13701012726595000D-02 -1.66822158186597100D-01 -1.94103025153135200D-01 -1.34677699668091600D-01
58 31 -2.13340169778423100D-01 -1.59909932770495300D-01  1.69550226245869000D-02  1.11027570937567600D-01 -8.59983730474919400D-02
58 32 -1.88006884496112900D-01  5.15046623740944400D-02  6.35235931182353300D-02 -9.03627266015361300D-02  4.92347463997638600D-02
59  1  9.16921622452839500D-02  2.39918251886714900D-01 -7.04104861069400800D-01  1.52941620890586000D-02 -2.09770656466041000D-01
59  2 -1.17554078238999900D-02 -1.77263106639468300D-01  1.61695895964238600D-01  1.19739198323172100D-01 -1.93703076490981400D-02
59  3 -3.14959664334332600D-01  3.34329971983430500D-01  1.00400187216145800D-01  7.96979427746022500D-02  1.20435036490333500D-01
59  4  8.39246713641293700D-02  1.72707289697404000D-01 -1.98258968160140100D-01  7.80366990626663600D-02 -1.22903742088479000D-01
59  5 -7.73140249020756600D-03 -4.93354710800464300D-01  5.80089392379956900D-02  3.75178527122113300D-02 -1.59945523376601900D-01
59  6  4.23382405238639200D-03  1.55711699324215800D-01 -4.10188292582779800D-03  1.06643060287202700D-01 -1.30598508054937700D-02
59  7 -2.61969305607922200D-02 -6.33630356824315400D-02 -3.33740885688388400D-01  4.76562485861459400D-02 -7.88512068455142600D-02
59  8  9.54913664083906400D-03 -8.52298504749241100D-02  6.11810764309363100D-01 -1.58788739118971900D-02 -6.24349113222759500D-02
59  9 -1.77550092776179800D-01  2.39985004098455900D-01  5.41112989438417100D-03  3.20932118000771300D-02  7.42543179408434900D-03
59 10  1.78300847155769700D-02  6.41532935680292600D-02 -4.87913495391233600D-01  6.13992049349486200D-02  1.77118785179492700D-01
59 11 -1.97321677091870300D-04  7.23592243900426000D-01 -3.39080862696787900D-01 -1.10438738619625200D-01  8.07262529234271600D-04
59 12 -2.18310830911333800D-02  2.10238205618988600D-02  2.59095402718027700D-02  1.01843224958440700D-01 -7.20842724372706600D-02
59 13 -4.39146876418488900D-02 -9.58849605014926900D-02  6.23494591598511900D-01 -6.65347942602302300D-02 -9.04109744617727900D-02
59 14 -4.40796793544188100D-02  3.12908446753997500D-01 -5.51511927355819200D-01  2.10876397971257500D-01 -5.44051655155573400D-02
59 15 -1.30068048791107500D-01  1.84473214306665100D-01  7.31526602735284600D-02  2.68105234085043000D-02 -7.74637223253640500D-02
59 16  2.27610214630008500D-02  1.09706117725647100D-02  5.55581316741153500D-01 -1.70719174887592100D-01 -1.44291466208314400D-01
59 17 -6.43238674425456900D-02  3.33293804361796500D-02 -1.07049130460183800D-01  1.59011361515690300D-02 -1.14874236810100500D-02
59 18  2.87942658767712500D-02 -1.73068421957611700D-02  3.56692483780572900D-02  7.80179804357798400D-02  7.16737663679616600D-02
59 19  1.63171822842333900D-01  4.08823450693679600D-01 -6.78088157637189200D-02 -1.70599387103620000D-01 -1.60464065007687700D-02
59 20  1.23191814211910700D-01 -2.35950703316386600D-02  3.95639219170451400D-02 -3.36760622189928400D-01 -5.51060764437598500D-02
59 21 -5.95804086058144900D-02  1.56720503947038000D-01 -2.57138610998917800D-02 -1.75211278280019500D-01  2.33088052653327500D-01
59 22 -5.78767743733084000D-02 -4.98985370745229900D-02 -2.70839661710974500D-02  2.56202925437847700D-01  1.08154146140114800D-01
59 23 -3.31398638383916700D-02 -7.50142823017232000D-02  4.05115033166706000D-02 -8.47354181765340900D-02  4.59860083688031800D-02
59 24  1.29288204213163600D-01  3.06140740571370600D-01 -4.04752923580182400D-01  1.57234942762531000D-01 -7.84118583042820900D-02
59 25 -7.33723553426568800D-02  2.82273139248573100D-02  4.19062756978267900D-02  2.46748704828978500D-01  1.35099589944930800D-02
59 26  1.81418888254637900D-02 -1.57957321010161900D-01 -1.21872512918518200D-01 -1.83225702890571700D-01  2.66296009105005000D-01
59 27 -8.30703062144331800D-02  4.55004294441418000D-02 -9.58524691832764900D-03  3.01262273065287300D-02  1.05071650675071300D-01
59 28  1.11833661267456800D-01 -2.16905311942528100D-01 -9.04690358322902400D-02 -1.02292635851361400D-01  9.64436536691241500D-02
59 29  1.05852352855910200D-01  3.49757550811123500D-01 -4.25742988685536300D-02  5.24666241927479200D-02 -1.34692148368952200D-01
59 30  2.28995788680779000D-01  5.06202835790011600D-02 -2.81891372366040700D-01  1.71454398447370000D-01  1.89999975084303900D-02
59 31 -1.97689426564752100D-01  1.81358336172363500D-02 -8.74687493393542100D-02 -1.76571722829752600D-01 -1.07921573733032200D-01
59 32 -3.24346340488375100D-02  4.67887307356103200D-02 -2.80831101253135400D-01  1.32822959008735600D-01  3.87479263768347500D-02
60  1  1.40542175444986900D-01  2.77717092145871900D-01 -6.78004163983643800D-01 -1.57045510234555200D-01  1.35133738157083100D-01
60  2  7.49182286202735100D-04 -3.25993319242955700D+00  6.54212664945950900D-01  2.29810347732295700D-02  3.47449894141053300D-01
60  3 -3.23627919006110700D-01 -2.38219751349427300D-02 -1.21324518053258100D-01 -6.55145858123969700D-02 -1.29071545686625300D-01
60  4 -1.24380672288850600D-01 -1.72500601433366100D-01  2.18188026721822800D+00  1.83228976030667200D-01 -6.26166157017153500D-02
60  5  3.10997990160770300D-02 -1.38169704119971100D+00  1.75142321951617500D+00 -1.27229787140243400D-01  2.41867636130684700D-01
60  6 -1.44639727118393600D-01 -9.72279090122923800D-02 -4.48143887848782800D-02 -2.24381804403309000D-02  1.48279981644763100D-02
60  7  8.85983390729398500D-02  1.91932010434814000D-01  6.20627767192810200D-01 -1.45812978489823400D-02 -8.73926132643049900D-03
60  8 -5.05122160049368100D-02  1.74690011550840100D-01  5.73417954139920200D-01  1.37738872659674400D-01 -5.75120365251839700D-02
60  9 -8.12918484551263300D-02  1.38803884980310800D-01 -2.04080585668816800D-01  2.10925964296820700D-03 -1.01243154305933900D-02
60 10  7.24334491392412000D-02  1.46738583273224800D-01 -8.42038505077097400D-01  2.44241511365308700D-01  9.73519327953353700D-02
60 11 -2.96413694698800800D-02  8.11410136566074400D-01 -7.78462479390190000D-01  4.08247923038283600D-02  6.30887148338512300D-02
60 12 -1.51607812083607900D-01  8.85190972497560100D-02 -2.93193917103925600D-01 -1.14521930434475800D-01  6.14410589719767600D-02
60 13 -9.91081751622960400D-02 -2.27369677273875700D-01  3.12518004669144500D-01  1.20976483421158900D-02  2.69052186067525700D-01
60 14  3.90621727081495500D-02  8.73737072973847500D-01 -8.72501568715607100D-01 -1.98757448096597900D-01  1.73476836468443700D-01
60 15 -1.56440531740234500D-02 -1.57832783294420700D-01 -8.74856640687062800D-02 -1.28552851051221000D-01  5.04798461941682300D-03
60 16 -6.54076100808229800D-02 -2.35733060888697100D-01 -1.07940776540011700D+00  2.16979276171990600D-01 -5.31001535782576300D-02
60 17  5.73811549680930500D-02 -5.62216854233334800D-01 -1.58124833144545300D+00  3.11523923422676400D-03  2.39138345926323800D-02
60 18 -1.60418854421698900D-01  1.36505019829066000D-01 -1.84452083753401700D-01 -9.99953530177237600D-02 -1.37972783374889900D-01
60 19  1.03210152635411200D-01  2.21591945452683700D-01 -1.84607039950840400D-01 -5.95514184597008400D-01 -1.33823125246215300D-01
60 20 -7.66691444465017500D-02 -4.01788303703949300D-02  7.07597498606083100D-01  3.37942391271589100D-01  5.76392746931265100D-02
60 21  1.07852172259499300D-01 -1.45966202788667200D-02  1.10027185785668900D-01 -7.68158081229455700D-02  1.15331480526232500D-01
60 22 -3.85156724032872000D-02 -7.19514836075669400D-02  2.52362047217941900D-02 -5.21415269117746000D-02  1.84058094305395100D-02
60 23 -7.23503665755631900D-02  5.39445571450232500D-02 -4.25073241138000500D-01  8.33102805194158000D-02  4.32802468378481000D-02
60 24 -1.48947774791965600D-02 -3.90310005147143900D-02  4.11824675028834700D-02 -4.47908416144354400D-01 -1.95781842930769800D-02
60 25  8.47195731783396500D-02  1.23956531970406500D-01 -1.50893494997221800D-01 -1.16965671676746200D-01 -1.04648658066467300D-01
60 26 -1.95201704493879600D-01  1.63375668469876300D-02 -5.18433082242869800D-02 -3.43187508986827700D-02 -6.22894732824040000D-02
60 27  9.66082241810863700D-02 -6.69455264236462800D-02  1.81713101207206000D-02  1.71821084144100700D-01 -2.13470892624610100D-01
60 28  7.27539090386571000D-02  1.40716983585953100D-01 -2.93076228325552400D-01  9.74827532667056900D-02  1.47849599318655600D-01
60 29 -3.72588437052754000D-01  6.94973842863757800D-02  6.92481535009531500D-02 -2.34135327728894300D-01  4.89123504710762500D-02
60 30 -1.04966661282855900D-01  2.62553921560859900D-01 -1.33942479903203000D-03 -5.22766977401652500D-02 -4.50273248532400400D-02
60 31  1.14669826103392400D-01  5.93080012478151300D-02 -1.38197573405603600D-01  7.83527701925335600D-02  3.00329856575032500D-02
60 32  3.39970880066972200D-01  3.55326768436738200D-01 -5.13497472359828700D-02 -4.27691957064591300D-02 -8.68175880821408800D-02
61  1  1.26553320793858400D-01  2.95826702976022400D-01 -1.25264292687793100D+00 -3.52718400808313000D-02 -1.02370738801852300D-01
61  2  1.56600259983494400D-01 -3.30682232819195100D-01  1.27508877703687900D-01 -1.18303774482821800D-01 -2.83287458841607100D-02
61  3 -9.75154488311001500D-02  1.25844194715260800D-01  8.17991732699841200D-02  2.31378550863595400D-01 -3.41346313404080600D-03
61  4 -1.15917908115098200D-01 -2.17711479378540300D-01  5.00327361375112400D-01  2.22113482847704000D-02 -3.93962517617309800D-02
61  5  2.47917246499885300D-01 -8.00599740460527600D-01  5.01799667053336200D-01 -1.27552773288808900D-01  4.26140301926693200D-02
61  6 -4.41138475987049800D-02  1.49981740603467000D-03  1.02176925041463400D-01  2.19356535197879800D-01 -3.33479108967041400D-01
61  7 -3.21744336120377700D-01 -7.49448213551267800D-01  2.00224834370793800D+00 -7.37409587208409800D-02  1.07269934578320500D-01
61  8 -2.03156610885569900D-02  8.33083856227241300D-02 -1.14623887184036800D-01 -3.92519420178907200D-02  7.07889581119720600D-02
61  9  6.93001044184667100D-02 -1.40089062530439200D-01  1.46242029153116500D-01 -5.35567212675564000D-02 -1.94797404097344700D-01
61 10  9.37884317220936300D-03  1.28652073933162700D-02 -1.22617037508304200D+00 -2.50233025134960100D-02  2.51424600914960900D-01
61 11  4.27197265783333300D-02 -7.84579630554868100D-01 -1.08607680128000600D-02 -5.99316841151920100D-02 -5.57577397434420200D-02
61 12 -2.06532465644959100D-01  2.62290205388401500D-01  1.95369827106972500D-01 -1.11361924671251000D-01  1.84379052076470600D-02
61 13  1.23802040732128800D-01  2.43785849658171700D-01 -9.53955701829021500D-01  1.72607867282354600D-01  1.77667041985678600D-01
61 14  1.51944657667769900D-03  2.01623524367773200D-01 -4.69098289007293400D-01  1.11467128689812400D-02  3.77300886617889400D-02
61 15 -1.93242842046384200D-01  1.55512753384595400D-01  2.51631066772677300D-02 -5.38870270006567300D-02  1.62629115568765100D-01
61 16  1.70658349792742500D-01  3.65915115698532900D-01  3.28781417516464000D-01  1.48645032138160300D-01 -6.79555950491793100D-02
61 17  1.19741706951233600D-02 -5.02436432535990600D-01 -9.90649341554819300D-02  1.61189802176811700D-02 -8.56168120543313700D-02
61 18 -7.48519274253843000D-02  1.60468739479715300D-01 -1.56420650487389100D-01  2.07472218424842000D-01  1.30776842609572100D-01
61 19 -1.33963379978753100D-02 -1.31209912920843600D-02  2.77505738989644500D-01  7.95077558397952300D-02  6.21427388145615400D-02
61 20 -1.74161339674971300D-02 -7.19381866452755300D-02 -1.68048637628318900D-01 -1.29766048436493900D-01  8.06718118751712000D-02
61 21  6.54340374041802200D-02 -6.64421079898974100D-02  3.50062111931732600D-02 -1.28220558908932100D-02  5.62680173553121200D-02
61 22 -4.34459614644189100D-02 -5.95781268013540400D-03 -1.07123140274176300D-01 -2.99742479510291200D-01 -1.38220324017831200D-01
61 23  2.23774014187706400D-01 -8.55536901698755500D-02  7.79601504513628600D-02 -1.09812428236586100D-01  1.98184781791218800D-01
61 24  4.10540437570162500D-02  1.43119528988733800D-01  3.26086529737860400D-01  6.65180137310739800D-02 -1.22790999590653900D-01
61 25  9.94551486769874000D-03  3.67795287059440700D-02  4.15697234481413900D-01  3.25412545404428500D-01 -8.39937611664103700D-03
61 26  7.20745564988099600D-02  1.94732057241127600D-01 -3.69603021942779300D-02 -2.72651103761479600D-02  5.16681985465755300D-02
61 27 -2.44030881704277100D-02 -8.83079562060961300D-03 -6.90892688982228100D-02  1.19958043825410700D-01 -6.43247063672293300D-02
61 28  8.70439729062276200D-02 -2.27192665389982100D-02  2.54499815418043800D-01  8.73667647630602800D-02  4.00931587960183700D-02
61 29  8.54873309922037400D-02  4.57082698703601500D-03 -2.25167101741929900D-02  1.72188576410607800D-01 -1.51184449393257500D-01
61 30  4.37631353639511000D-02 -2.72813413985969300D-01  7.05446370230883700D-02 -1.03510293426750600D-01 -6.24804907738787700D-02
61 31 -4.84426541796585800D-02  3.66479101178676300D-01  1.65891283932447200D-01  2.40261553439436600D-01  9.33244224926218400D-02
61 32 -6.82593337394685500D-02 -2.38985527181011600D-01  2.11307432937844500D-02 -2.97462310234517400D-02  3.73685616607303500D-02
62  1 -2.18146402778479800D-01 -4.32227181222690500D-01 -6.56991051728534600D-01 -2.29635106826575800D-02 -3.47922919719244300D-01
62  2 -3.50079001589488900D-02 -1.12188005917346500D+00 -7.57372811983437900D-02  2.21273918705262800D-01  2.41788212216912900D-01
62  3 -1.49883860403143700D-01 -9.19043518137689400D-02 -8.08052117834675700D-02  3.77763094044992100D-02 -8.44691616546242900D-02
62  4 -1.63558493529403000D-02 -1.07416888310924100D-01  4.40632284557347800D-01 -6.50036435851139400D-02 -2.85571248900122100D-01
62  5  3.32132942816373000D-02 -8.38134990656865500D-01  4.93911597661659700D-01 -1.99098831917642500D-01  2.07989438214906300D-02
62  6 -1.82442940991373000D-01  1.61643997169882200D-01 -1.38168617698852700D-01  6.25725838663866300D-02 -2.23721402026938000D-02
62  7  1.24820248647778500D-01  2.58998160925707000D-01  7.60312131361332600D-02 -9.11008490312086000D-02  1.19747745942556200D-01
62  8  1.76682364918009500D-01  4.09421788807294600D-01 -1.90125863110072800D-01 -1.69024340778739100D-01  1.01278603463407000D-01
62  9 -9.47317429018987400D-02 -6.54686056150777800D-03  1.21117812190031000D-02  2.43880760023876300D-01  2.37764427725365800D-01
62 10 -3.71563672216333500D-02 -6.11134008616143800D-02 -5.25292625808357200D-01  2.20384972652564400D-02  8.10513361852104300D-02
62 11  2.30423474143149200D-01 -2.11527891233860200D-01  6.63167081259173600D-01  2.16430692651888700D-01  2.96212378288735300D-01
62 12 -2.99127685012338300D-01  2.91530672360348600D-03 -1.54178149216693600D-01  1.10741820652654700D-01 -1.12739487928717700D-01
62 13 -1.09008543945286500D-01 -2.49970962533208100D-01 -3.84943567022178800D-01 -1.05557543887124600D-01  8.19433353939368800D-02
62 14  6.78353093063320500D-02  4.35142517402030800D-02 -1.69325818890309800D-01 -7.49508025653161200D-02 -3.59865169433239100D-02
62 15  1.43992657913320500D-01 -1.08006140969997000D-01  7.89579078616425200D-02 -2.22710329486440600D-02  8.53555173872137400D-02
62 16 -9.53389665739016900D-02 -1.84112661671002000D-01  6.01775851217163200D-02 -4.01720714423179500D-02  6.54222521192538600D-02
62 17  2.86978736814495600D-02 -7.59018536926895200D-01 -5.12623457820355000D-01 -1.15788587180739900D-01  5.79807716773742500D-02
62 18  8.70738930610830300D-02 -1.45054664738457700D-01 -1.57299451747265700D-01 -5.88730332321334500D-02 -3.69078364486210300D-02
62 19 -2.55342873028864400D-02 -2.17425982366835300D-02  2.72103692197808300D-01  6.97410444641908800D-01 -7.10533902999955100D-02
62 20  5.16909270223268700D-02  2.76740268877007700D-02  3.18105547936760800D-01 -6.48493201087456200D-01 -1.72755692715154300D-02
62 21 -1.64284302819594900D-01 -3.18504338409965000D-01 -8.16618440208251600D-02 -1.62631413674955300D-01 -2.24616376654671900D-02
62 22  1.85093051340422700D-01 -1.79562223029473900D-02  2.96712572615315100D-04 -1.01192420206854100D-01  9.34214013457377600D-02
62 23  2.47796653277476200D-01 -3.41218054623214000D-01 -1.48095621129349600D-01 -6.91141010781007200D-02 -4.54628690073587100D-02
62 24 -3.93411807159067300D-02 -6.53214079517424500D-02  6.28044250678913300D-01  4.43093967672078600D-01 -1.32459354576248100D-01
62 25 -4.49825513437444100D-02 -6.31444127282106000D-02  2.41451675060151200D-01  4.14634015604554000D-01 -5.64421173519186400D-02
62 26 -1.43267994769683200D-01  1.83058702431704100D-01 -9.32781945606943200D-02 -2.18505182208499600D-01  1.01856987610160400D-01
62 27  1.16648194598339100D-01  7.08567574733041700D-02 -5.52522673343758400D-02  1.63106277767104800D-01  1.90261424497437400D-01
62 28  5.78120743192087300D-02 -2.48073498816646100D-01 -1.13140977015116700D-01 -6.72803804144345400D-02 -3.32204529972345000D-01
62 29  5.10970824873825900D-01  9.48972885356037900D-02  8.35349677331164400D-03 -1.65739308314171900D-01  1.98967058446732400D-02
62 30  1.99455306023192500D-01 -4.24274478616509700D-01  1.16719264648220300D-01  7.96187525807268100D-02 -9.68027901765451400D-02
62 31  2.17356718328491200D-02 -2.20409037558873000D-01 -2.39811236823810500D-02 -5.47747924556768900D-02  3.15223154302177500D-02
62 32  1.43873122865309700D-02 -9.34957856503696800D-01 -7.59164047018481600D-02 -1.80295705583939800D-01 -1.87779968898616400D-02
63  1  2.29604338315188900D-01  4.72429528001798500D-01 -2.23859682380417400D-01 -4.73240429268637900D-02  1.52597176795828400D-01
63  2  5.92400597695310700D-03 -4.72255423019404000D+00  1.04913782034497700D+00  2.05059220979586800D-01 -2.19574219247398100D-02
63  3  1.55394250779971200D-01 -1.33436828855231800D-01 -4.10820184769242100D-01  5.53594455576444200D-02  1.78318993154687100D-01
63  4 -2.43420621686422700D-01 -4.50232513384874800D-01  3.99749912642320200D+00  5.86433332085427700D-02 -2.52208693776999700D-01
63  5 -1.81609270868233200D-03 -2.08729712113582700D+00  1.70173166211355300D+00  4.16819911990950500D-02  3.46076349950442600D-03
63  6 -7.92341839165871900D-02  7.57734204170825300D-02  2.54141786096382000D-01  1.41311641635213600D-01  1.74927981972179800D-02
63  7  2.02475577288253000D-01  3.43287996603675600D-01 -1.90584916513497300D+00  5.44787518548497700D-02 -4.70026671525971000D-02
63  8 -4.11782449572795600D-02  1.69541335114022200D+00  8.77917760637778900D-01 -2.33440640094209700D-02  2.79553970519236800D-01
63  9 -2.20134481638822800D-01 -5.94194888804117800D-02  1.00727060277050900D-01  4.61775906332696700D-02 -9.42259340088724300D-03
63 10 -9.74293102944557300D-02 -1.64877262539968100D-01  5.65354967949760300D-03 -2.33658623695958000D-02 -5.28808067228140200D-02
63 11 -5.82757517005001800D-02  3.55822001538313100D+00 -1.00146699776978800D+00  1.54680550072988200D-01  1.95127806541628400D-02
63 12 -9.55372561050891300D-02  7.60244754509250000D-02 -5.61194509363306100D-02  1.31357995607601200D-01 -1.83624923135293400D-01
63 13 -2.54928281197945100D-01 -4.76362334650862600D-01  2.37434408494729100D+00 -1.39334420497176000D-01 -1.86834070985137700D-02
63 14 -1.12127165760267800D-01  2.49096691910825400D+00 -4.85412146257119000D-01  2.70124502699378500D-01  1.83957084533107200D-02
63 15  4.95422226976691200D-02 -6.79379311509805300D-02 -1.70230560786299800D-01  5.14935535778244300D-02 -1.02922854589913000D-01
63 16  2.31524541356799500D-01  4.53504064617927700D-01 -3.51292311824686700D+00  1.33937191739444200D-01  3.13179818332621200D-01
63 17 -5.11029006557853800D-02 -1.31621284894540900D+00 -2.33295428229018600D+00 -3.79616273271069400D-02 -4.65469911290755200D-02
63 18 -7.70668136591539800D-02  1.23613804788227800D-01 -5.59167569957217100D-02  1.92436040538986100D-02  9.81862772986276900D-02
63 19  5.68422858715801300D-02  8.42083277115974500D-02 -7.04733498069238900D-01 -3.44975694483239000D-01 -1.71055582071329300D-01
63 20  1.13917634573788800D-01 -2.81874028914106900D-02  1.07601745665311500D+00  2.59226040625271000D-01 -8.00655947017117800D-02
63 21  7.30701307548378000D-02  1.33527482320087500D-01 -9.38870628326863700D-02  4.03174512917558500D-02 -6.39086004244284600D-02
63 22  2.35911491326722600D-02 -1.22214646589207200D-01 -4.78933270609574900D-02  2.77949594491540700D-01  2.14334287065523400D-01
63 23 -1.52595334535600500D-01 -6.17389525299233900D-02 -5.24796213094716200D-01 -5.42485277468845900D-02  9.43342937357181400D-02
63 24  8.43553020696302900D-02  1.45868757214426000D-01 -6.41884287513989500D-01 -2.59013836157497600D-01  3.10616728922003500D-01
63 25 -4.39329191556086900D-02  3.71795371968979700D-02 -1.03092223838060000D+00 -5.90312063713493900D-02 -1.19044927498032200D-01
63 26 -1.16972958065907300D-01 -2.40701470855425800D-01 -1.53312242896740500D-01 -3.35737429884988200D-02 -1.49791190100514200D-02
63 27  4.85528619985498500D-02 -3.88133883909105000D-02  2.78451505328651600D-03 -1.10596588715721000D-01 -4.55896202644696100D-02
63 28  1.01207879244219100D-01 -5.56182589797494900D-02 -3.31311004837550100D-01 -1.33186576712061800D-01 -5.15400102158634700D-02
63 29 -2.75571049645889300D-01  1.03183090789827700D-01  1.04514151986391900D-01  8.65453000712260200D-03 -1.71272349643424500D-01
63 30 -5.99233920772311200D-02 -2.49982774028181500D-01  1.49250902067376700D-01 -2.44511159040115700D-01  1.74009433762563900D-02
63 31  2.18885723502436500D-01  5.83294786866060300D-01 -2.98465962476126300D-02  1.93487122827884000D-01 -1.26231858587283300D-01
63 32  3.50470565694788300D-01  3.78348066302415700D-01  2.21941751954636900D-01  2.90363403058205700D-03  3.54822543567403900D-02
64  1  7.25707626086458300D-02  1.64562406765345300D-01 -1.69773353426986700D+00  2.89820474328102100D-01 -1.07529907482036900D-01
64  2  6.97994649737217100D-03  2.59630801448367400D+00  2.55063731732917100D-01 -5.49902982309788600D-03  8.97893984519532600D-02
64  3 -2.04580230482144100D-01  1.14790832030190300D-01  1.49043657018012700D-01 -6.74801792115426700D-02  4.45635332745494500D-03
64  4  1.46131331498719200D-01  2.15122851260959200D-01 -2.29516732027310600D+00 -1.49868468128840300D-01 -1.57872074230443600D-01
64  5 -7.41288862966841700D-02  5.87630967913323400D-01  1.03485419115350000D-01  3.16114791539750700D-02  8.66601386993431100D-02
64  6 -2.48478843392745400D-01  1.61818704693402800D-01  1.78058392271393700D-01 -3.99328496155552100D-02  1.14166313447707900D-01
64  7 -1.56345201250595500D-02 -1.15759066768190200D-02  1.65834987374503100D+00  5.12580488606089900D-03  1.49368475719609600D-01
64  8 -1.20828340683915600D-01 -8.48998873315867900D-01  9.17537792525087700D-02  2.46997986734487400D-01  3.51862869939640200D-02
64  9  2.55508456120717300D-02 -6.07371326060365900D-02  3.06010587097403500D-02 -8.94885334478998100D-02 -9.62584921794930900D-02
64 10  1.28394245283697800D-01  2.97271149574916800D-01 -2.21911525387500000D+00 -2.71716689065689500D-01  1.87631183188825800D-02
64 11 -1.27940703822388000D-01 -2.32285313235130100D-01 -3.67026027598650500D-01 -1.88133928071205400D-02 -9.78654458886649700D-02
64 12 -4.61783588153702700D-02  1.44043804704036100D-01  1.39032709173222100D-01 -4.23213542842597900D-02 -4.21996841190434900D-02
64 13  1.04732894566461300D-01  2.41606161432694500D-01 -2.33169221728857800D-01 -4.61184407243020800D-03  9.21346786673355200D-03
64 14 -3.00726314529503100D-02  2.46306637539012700D-01 -3.81491293454526600D-01 -2.72026059464188400D-02  2.74050083208762000D-01
64 15 -2.14218773241678000D-01 -5.98313099670826400D-02  1.43994860330119700D-01  7.36864262692095900D-03 -1.80229669186702400D-01
64 16 -2.32926280939115700D-01 -4.55765170722219500D-01  3.25754805516692200D+00 -1.96898198560236100D-01 -3.42406714740512000D-02
64 17  1.26784974111097100D-02  1.33937267163834600D+00  8.41515605777815500D-01  1.35863578483095100D-01 -4.29863359145841100D-02
64 18  1.26212571296003000D-01 -8.32262353814182000D-02  1.68266801551741400D-02 -1.49642673870255900D-01 -6.82101920549029900D-02
64 19  5.04028556562775300D-02  1.24014576249622800D-01  1.32937140848471400D-01  1.00933385239325500D-01 -6.21821280869633300D-03
64 20  7.44326748738389200D-02  3.41589587447905300D-02 -4.74466468484321300D-01 -3.57729475274060300D-01 -6.32103051920686500D-02
64 21 -2.82036930407155200D-01  3.67469206420372000D-02  1.90299714834756900D-02 -4.58446821251366500D-02 -5.65598107525417100D-02
64 22  1.02404492877678300D-01 -2.92443259440174100D-01  7.59047241809697600D-02 -1.30183819393973100D-01  1.10126741482341300D-01
64 23  1.41862033002666900D-01 -2.51988774485007400D-01  6.64976761600753100D-01  3.14727527943270800D-02  1.01234721966846400D-01
64 24 -4.52243667000048000D-02 -8.97458045200537600D-02  3.34756306716680900D-01  2.13131836154613600D-01  1.82171814414307200D-02
64 25 -1.06872369722977200D-01  7.00466511796547500D-02  4.83318979610406800D-02  4.13152333661473100D-01 -6.45787725538040000D-02
64 26  9.38370308198835900D-02 -1.95616073978237900D-03 -4.00331352877895000D-02 -2.07597411665946400D-03 -9.36738842353400200D-02
64 27  9.57498583519995300D-02  2.15223305851603700D-01  6.55880726077638100D-02  8.01632349216210000D-03 -3.26495814728007700D-02
64 28  2.11987882443613000D-01 -1.79338300970812300D-01  1.32434647867543100D-01  2.18619826369365500D-03  7.99466116676856600D-02
64 29  3.01160557926472600D-01 -9.03774455722110400D-02 -2.73770884077917600D-02 -1.16866606737407400D-01  5.21464334375208600D-02
64 30 -8.44633039709448100D-02  3.67742897409158400D-01  1.85056106038150900D-01  1.44269020472210800D-02 -5.60676792628679400D-02
64 31  7.43150629064541400D-02  9.56743309143800000D-02  4.98300733990204200D-02  1.14907184228726200D-01 -9.52268300711027900D-02
64 32 -3.70128384561301500D-01  2.48898964115087200D-01 -1.56069320443167400D-01 -7.79856905534141200D-02 -1.83135930549319100D-01
65  1 -1.15150017621119800D-01 -2.91983455962092400D-01  5.17803859896270200D-01 -2.54755263504935400D-02 -6.31756181237090900D-02
65  2  1.52949246492935000D-01  7.86808415323496800D-01 -6.58014415570345600D-01  5.06996254188198800D-02 -1.41348557425670800D-02
65  3 -5.86596739640767500D-02  7.27945297066436200D-02 -1.43938293313194300D-01  9.79482965904528900D-02 -7.29971483766297500D-02
65  4  8.10509634488766600D-02  1.07685397426579500D-01 -7.65086398572924500D-01 -2.34258601327631900D-01 -2.42327518819170300D-01
65  5  1.11161350478254000D-01  9.91964011198575100D-01 -2.76431075688754800D-02 -9.20523086707093500D-02  4.96583019169789700D-02
65  6 -1.10907447926146100D-01  6.12491460091680700D-02 -3.19867822385318600D-01  1.25516409421161400D-01 -3.11735933603978100D-01
65  7  2.08648479521907200D-01  4.22132928571116900D-01 -1.85536322169662300D+00 -3.26659988359407200D-01  9.91736537878792500D-02
65  8  9.39084294022841400D-02  4.15933742916976000D-01 -1.62431670935243700D-02 -1.28528427971760600D-01  1.33619683490204100D-02
65  9 -1.37210826762556200D-01  1.23848858413536100D-01 -5.50710474128096200D-02 -4.54777187477458100D-02 -1.60748571105473400D-01
65 10  2.14166040428212700D-02 -6.53161589227012200D-03  5.06089996658617800D-01 -1.84686330621379000D-01 -1.58197767997493600D-02
65 11  5.21111505476161700D-02  1.43778194368836100D+00  7.05931320438888300D-01 -1.04482941554044900D-01 -3.70078046289100300D-02
65 12  2.49753366585120900D-01 -2.12745561956211500D-01 -2.10852023534826200D-01 -7.29120901334445700D-02 -2.94659082438706600D-02
65 13 -1.07043927030939700D-01 -2.14567715323996700D-01  7.19650287208633700D-01 -2.41610992735766800D-01 -2.71380926186363000D-01
65 14  1.30228127457948700D-01 -1.45559109625963900D-01  1.60386961804393800D-01 -9.90955984099289000D-02  5.08137421929831400D-03
65 15 -4.77072453431447000D-03 -3.10649684983885600D-04  1.27700171051544700D-01  1.13965180025049000D-03  1.25566594229757300D-01
65 16  2.18625358345717500D-02  4.77198782911515400D-02 -4.01289157439904400D-01  1.01566748775072700D-01 -4.81203593932671700D-02
65 17  3.66196525488816200D-02  3.12031490368761000D-01  6.50598345767924400D-02 -8.36475559983446100D-02 -9.85970621223874000D-02
65 18  1.34945063245084000D-01 -3.63480011226967500D-02  3.14401531575181100D-01 -2.18175390937943900D-02 -2.87015782956062700D-03
65 19  1.23112575274002500D-02  7.00863687614480100D-02  2.66978591038958700D-01  1.76528468818808000D-01 -2.58745284461968100D-02
65 20 -1.33197696767374800D-01 -2.39658397198050300D-02 -6.33588481255235000D-02 -5.15619914139133000D-02 -4.26655264609634100D-02
65 21 -1.06962412198715600D-01 -1.38191642683100100D-01  1.43017160729117400D-01  7.27291261327319600D-02  4.19444698864311300D-02
65 22 -1.14673596019162800D-01 -3.57939562111440000D-01 -3.68079789261076700D-02 -1.72733069084418800D-01 -5.36419650335019000D-02
65 23 -2.43768083644704400D-02  7.80187733979729700D-02  1.91791175350880100D-01 -4.40227448340257400D-02  2.17876440660506400D-01
65 24 -2.37483888174814200D-02 -4.12411484521468600D-02  1.84811962290702900D-03  5.92830890298024800D-01  1.41441607906510800D-01
65 25  1.79085525240362600D-01  1.08187973067607800D-02 -5.16432062356772200D-01 -1.97077645458115700D-01  8.97412833483142600D-03
65 26 -2.44122793588204500D-01  3.34731318263707400D-01  1.31792742884395300D-02  1.23880179763494700D-01  2.20927047084947400D-02
65 27 -1.45972884471989100D-01  1.78632508314324400D-01  6.98229458459969000D-03 -8.38025605486406600D-03  6.21866692756551000D-02
65 28 -7.38479513854896900D-02  1.16612821098346900D-02 -4.80370483116856000D-01  3.47241066440884100D-02  1.31620587844232600D-01
65 29  6.71093533451061500D-03 -5.75672917095210700D-02 -1.66969912798681700D-01  2.24383193045880800D-02  3.96098742056450900D-02
65 30  2.17521192590976200D-01 -9.91338866702174100D-02 -1.30073699086022100D-01  1.55068669699470600D-01 -1.15784130517661100D-01
65 31 -2.77799468914067100D-01 -1.63570506689278100D-01  1.25579791051593400D-02  3.98705712999824500D-02 -1.05113080128232500D-02
65 32  3.05262301030516700D-01  1.97070182045659700D-01  2.17088495147320400D-01  1.46738844669924400D-01 -8.19248509929097800D-03
66  1 -2.47334029538352400D-03  1.36093359355711100D-03 -2.73435905559700300D-01  3.26842526724853400D-02 -1.19881969680113400D-01
66  2 -4.35704122192057700D-02  3.15434862044695800D-01 -1.89330684523201800D-01 -2.32046140430047900D-01 -2.44096798958213700D-01
66  3  2.52304674064869000D-01 -8.20787510665445300D-03  2.66067183662399200D-01  1.23731076317741900D-01 -5.18107270237367600D-03
66  4  1.77108525357322400D-01  3.76160213914312500D-01 -1.09310286719382400D+00 -2.22598200465261200D-01  1.22898930951349400D-01
66  5  1.09137859503421500D-01  1.17110265261536800D+00  4.84098664312956100D-01 -1.46713375170452600D-01 -2.48167837756538800D-01
66  6  1.30472585413007200D-01  1.17695252343531400D-01 -1.97143678832586700D-01  1.71243777171182200D-02  3.14292381085000000D-02
66  7 -2.15206031648237200D-03 -1.56988341732551600D-02  5.00082192567852700D-01  1.55513120252447000D-03  1.44935621490553900D-02
66  8  3.76894719660341800D-02 -8.21486652439672300D-01  5.15038158469819900D-01  1.50871825878248000D-01 -1.06365258547753800D-02
66  9 -8.56884096506437900D-03  1.92053668198384500D-02 -2.36927162828558100D-01  1.00013511249069100D-01  8.03163842246307400D-02
66 10  1.43297981109481400D-01  3.21620832949739200D-01  3.41556855207007100D-01 -3.98650147756563600D-02 -1.84517757999357000D-01
66 11  2.33628102800272100D-02 -1.52251168269701800D-01  3.89049119501909700D-01 -4.09124636914630900D-01  2.48395516547539800D-01
66 12 -2.17186289309003900D-01 -3.12092272385354300D-02 -2.84250418037246000D-01  1.63923972131699600D-01  8.32830416941918600D-02
66 13 -1.52196073165925800D-02 -3.13250465681995400D-02 -1.08628677851134200D+00 -3.49164596444370900D-02  2.05431713769211800D-01
66 14 -6.56411198217563400D-02 -1.00056758711841100D+00 -7.32021336499321200D-01  1.41482043095452000D-01  1.19606660658565700D-01
66 15 -4.53427313183520200D-02 -7.42639293402142500D-02  1.06240637919972300D-01  1.87104646889745800D-01 -1.40938345652690900D-01
66 16 -2.94743922315118100D-01 -6.98997630507760900D-01  1.63682110578895300D+00  5.95024687590612100D-02  6.08039574756044600D-04
66 17 -7.89132266932807300D-02  6.50885774367724100D-01 -5.70879844978674100D-01  2.35999966386085500D-01 -2.39799904957774700D-01
66 18  1.88316973381609200D-01  5.14829315761662800D-02  3.80730839374735500D-02  2.12636853184784900D-01  7.45225061061395900D-02
66 19 -8.30352953693252000D-02 -1.92631964604865300D-01  1.25300520770269000D-01  4.65261172680050200D-01 -8.15897423065287700D-02
66 20 -8.21406177251798200D-03 -4.66926981900193000D-03 -3.67375148955588300D-02 -1.04262103331888300D-01  5.76879609332953100D-02
66 21 -5.74371518824383600D-02 -1.12468504385828900D-01  9.97864346240993500D-02  9.52968958576701800D-02 -4.97740783658925200D-02
66 22 -4.55228174917778800D-02  1.73151726905965400D-01 -1.48356380284151400D-01  8.60720844852844000D-02 -1.87226543141520700D-01
66 23  1.61301111840720100D-01  2.59254313008006000D-02  7.13877616757803400D-02 -2.84349206816581100D-02 -1.42585339136663600D-01
66 24  9.84232555893639100D-02  2.15311263780812800D-01 -8.83413237766923500D-02 -6.71959903451990100D-02  3.20040185206763200D-03
66 25 -2.10642632531763900D-02 -2.89950412986297800D-02 -1.38012806226541000D-01 -2.04355585510201200D-01  1.81821792042906200D-01
66 26  1.00518903573823800D-01  8.34302394002128200D-02  4.30544918663987600D-02  6.42162238663622500D-02  5.62244626833318100D-02
66 27 -1.20440686549694000D-01 -6.19006097320103300D-02 -3.53339475042304800D-02  5.41949019576475700D-04  1.94016942421282200D-01
66 28 -2.08771515246022500D-01  1.47545728247402700D-02  3.32088219596563300D-02 -1.84275304173367400D-01  1.78342556946822800D-01
66 29 -9.66928801019033400D-02 -4.47056388232936800D-01  1.08420112290663900D-01 -2.44938784964412200D-01 -1.12938449149578400D-01
66 30  2.35906989976111900D-01  2.65836046099720000D-01  2.00106249014395400D-01 -1.37434668619565200D-02 -1.24105388071734200D-01
66 31  1.24896677349034900D-02 -7.16057060804400600D-01 -1.06850099225518300D-01 -1.30646462810798700D-02  9.07541380561275000D-02
66 32  3.02216343833134300D-01  1.50197391645615600D-01  1.82263375191267500D-01  1.78353255835725600D-01  5.21787002231509300D-03
67  1  2.65123068483484600D-03 -9.08225160893184200D-03  2.62298761981043300D-01 -1.63229023786978200D-01  6.56132847409450900D-02
67  2 -3.85331407127569500D-02  1.38872281923702200D+00  5.87059805089450700D-01 -2.19508029074153000D-02 -1.77960646811608900D-01
67  3  1.56299156762070400D-01  2.16614900495395500D-02  1.80523840764048100D-01 -8.29645574521690300D-02  1.75626227225308800D-02
67  4  1.77612638774937900D-01  4.19228198090387500D-01 -2.08530226925195900D+00 -5.49258387727714500D-02  8.78500679704165800D-02
67  5 -4.56160803889545500D-02 -4.40291201690712700D-01 -7.11417476654846900D-02  1.06005812445186100D-01  1.30558183102078000D-01
67  6 -3.04848790460040000D-01  1.74290607357962100D-01  4.55684336613698300D-02 -4.05386061810112300D-02  1.68067156605271900D-01
67  7 -3.94503004337503300D-02 -1.24242230350272100D-01  1.53980387125761500D+00  6.74078731047287000D-02  9.32281287684997100D-03
67  8 -1.94745267779586200D-02  3.43056676883535800D-02  4.63816874409841400D-01  1.11200937683022400D-01 -1.49579436340669300D-01
67  9  1.75431498428157600D-01 -2.58520620874904100D-02  6.38917195209608700D-02  1.70922271055958700D-02  6.04940563107680800D-02
67 10 -8.41778258469437100D-02 -1.00842357728859300D-01  3.01184871359468500D-01  4.26512165184782000D-01 -2.03606444147853400D-01
67 11 -5.21628466017653700D-02 -1.18976369308636200D+00 -5.18579320902330600D-01 -2.36346410001998500D-01  4.44824308278912000D-03
67 12  1.70040803528727100D-01 -1.74489046611515700D-01  1.24714878221833300D-01  7.83337947197000800D-02  1.46335449365844500D-01
67 13  2.71070584400142700D-02  1.34916610028537900D-01 -1.65696390756051200D+00 -3.40757257315002400D-01 -2.61303119827810800D-01
67 14 -2.80147293046794900D-02  8.15268940519662600D-01 -4.04750809624108300D-01  1.96033141467872700D-01  2.76441430722949900D-01
67 15 -2.89195979877303000D-01  1.27545491543539600D-02  4.67945157812648900D-02 -7.24166557865876100D-03 -1.25017395080094200D-01
67 16 -6.77513036894191300D-02 -1.39107207739893900D-01  2.36635203960048700D+00  2.06526947255908100D-01 -1.45438538992438300D-03
67 17  5.17149613395225800D-02 -6.39363206351031100D-01 -3.64641696048038100D-01 -1.96445495178974000D-02 -1.54221018017266100D-01
67 18  4.08736439177955000D-01 -2.54515421160687800D-01  3.15689181008547800D-02 -7.19343016082187300D-02 -1.85364142554718500D-02
67 19 -5.08845450133991400D-02 -1.49417497767696500D-01 -2.68305464286711300D-01 -1.38821641032440100D-01 -7.20511613418786100D-03
67 20  2.45817108967489600D-02 -4.90977509034039600D-02 -3.47771283064120100D-01  1.55540137589991800D-01  1.34107830267832000D-01
67 21 -2.03863076764998400D-01  1.67706975608661000D-02 -1.79592658823477600D-01  2.58598088521213500D-01 -9.11894636793339300D-02
67 22 -1.67408624841879800D-01 -3.45220532719667200D-02  5.05488428792894600D-02 -1.98394842264739600D-02 -1.96147290272775700D-01
67 23  7.29229428123391200D-02  1.23224347460437600D-01  2.63385890886083800D-01  1.79908231932045000D-02 -3.44184451034608700D-02
67 24 -2.07170597814214700D-02 -9.45849578827096100D-02 -4.04978177666012600D-01 -2.53152524524278500D-01 -1.59730624615926800D-01
67 25 -9.87192232794004600D-02 -5.10747370927413600D-02  6.16624795618146900D-01 -2.46142175839628100D-01  2.37376518012689700D-01
67 26 -6.82185655639904900D-02 -7.81687258037017700D-02 -8.32309871963256300D-02  2.29563326552735300D-01 -2.36172654227517800D-01
67 27  6.60932767478252100D-03  1.92390411756268300D-01  4.28967234088202200D-02  1.58913820160969400D-01 -1.97065022883140000D-01
67 28  1.27366021485654700D-01  6.96990013974854400D-02 -3.05744229918178600D-02 -7.48415659505893700D-02  9.71777459595159100D-02
67 29  8.30605365980276500D-02  6.02415789395251800D-01 -1.18305542430043200D-01  9.08013549391038500D-02 -1.28616398549145100D-01
67 30  1.75053054535094300D-01 -1.74335574283696800D-01  1.09969179247113100D-01  1.19353262930284400D-01  3.14684605421874200D-03
67 31 -3.01466920880814800D-01  4.12077708639610100D-01 -1.41380971704098500D-01  5.96832965918807600D-02 -2.03943738664671700D-01
67 32 -1.87131355830853900D-01 -4.27882149923557300D-01 -1.31553381958631100D-01 -3.87123165201359000D-03 -1.13626464265597600D-01
68  1  3.45770275584021300D-02  1.01949180491377300D-01  8.97414546330588800D-01 -2.50505167366565400D-02  1.51045105335678400D-01
68  2 -2.47773853813053300D-02 -2.04542476980096200D+00  2.64385089143695200D-01 -4.00544794723383500D-01 -2.93893547247276100D-02
68  3  1.31189018608910700D-01 -1.01799663884182400D-01 -5.85192834504517700D-02  1.20562016974606100D-01 -1.51406451563655000D-01
68  4  9.04330303340757300D-03  6.24643438031815200D-03  3.20908438379407500D-01 -4.51602661473462500D-02  4.72400059227887500D-02
68  5  8.87620288325040400D-02 -2.52342791208299100D-01  7.77963442958920100D-01 -1.36194581413930800D-01  2.59028819459810900D-02
68  6  2.38137838281148700D-02 -4.97166657740964200D-02  2.03063005545973800D-02 -2.66962477548438300D-02 -2.54365316550111200D-02
68  7 -3.99631870625217700D-02  6.13203580781474900D-03  2.87975849651955900D+00  7.30354488491652700D-02 -1.84808380605835200D-01
68  8 -9.82483996798179400D-02 -1.45187039941236600D+00 -2.87162342968366000D-01  1.79755113780925700D-01 -1.57267257038528300D-02
68  9  8.11294221695732200D-02 -6.54026964657216500D-02  1.33918001454005200D-01 -5.75597278667957800D-02  6.23713164871983800D-03
68 10 -8.34540118510415400D-02 -1.80167948444104900D-01  3.26940771829311700D-01  1.26273586942469800D-01 -1.06237214500790600D-01
68 11  3.62708652836624100D-02 -3.28383373469674300D+00 -7.68686012301691100D-01  5.91165002314119300D-02 -2.94008414922197900D-01
68 12  2.70415879551246600D-01  2.35925353709512700D-02 -7.31818664840471100D-02 -2.11775770299992200D-02 -1.39691912501145600D-01
68 13  1.19793503881070500D-01  2.23975177563333300D-01 -2.56288550625014300D+00  1.54448033867492600D-01 -2.82241977370313500D-01
68 14  4.34751746043308300D-03 -1.32234832031366600D+00  9.79488623828700800D-01 -1.64769651681561900D-01  2.26427247380670300D-01
68 15 -2.04197665796199600D-01 -2.22295815844703700D-02  2.98777206834878500D-02 -2.21640445683690500D-02 -8.28976381539890100D-02
68 16 -4.74183990365998500D-03 -1.20780370802198100D-02 -8.53170416188452100D-01 -2.23884544619606500D-01 -5.71444180764944800D-02
68 17 -3.84288937019780400D-02 -1.26546160912027800D-01 -1.08423992448790200D+00  3.05857915179052300D-01 -1.89309284185730900D-01
68 18  2.45114409394511800D-01 -5.58051252087799700D-02 -3.02593939987331700D-01  1.99640760980621400D-01 -2.03491803742738900D-02
68 19  3.47366234062693700D-01  7.64180076392438900D-01 -1.43963417639456300D+00  4.86431726973471600D-02  1.42970568731812300D-01
68 20  5.23918471876707400D-02 -8.40042997555824300D-02  2.27125486651111800D-01  2.17127790703588900D-01  2.81061322579587900D-01
68 21  3.57144241939919600D-02  3.65591047084516300D-01  6.57968989105552300D-02  2.31024414134027900D-01 -1.28360916834690600D-01
68 22 -1.02663497299337300D-01 -1.03584880321437000D-01 -2.81871884276388400D-02 -1.00334569169660000D-01 -1.11219854722710100D-01
68 23  3.25202124102233300D-02  7.86996423124860200D-02 -3.15988170073903600D-01 -5.60283883185689300D-02 -1.55133767401376400D-01
68 24 -3.85564390939809900D-02 -1.15912582379138400D-01 -4.72149504522211800D-01 -5.10075005511641800D-02 -1.09917538322641500D-01
68 25 -1.11707735129362000D-01  1.40230616941876200D-02  6.96268712873047900D-01  8.65105982401849700D-03 -8.95471835453693400D-02
68 26 -7.39898884580307700D-02 -1.41820532985277000D-01 -4.04783683038043400D-02  3.81713731677187200D-02 -1.37926379874863400D-01
68 27  9.97550067071440300D-02 -1.70482303517674600D-01  4.65769729067999800D-02 -1.97839461323160600D-01 -5.78126504278884300D-03
68 28  1.10312232285341400D-01 -1.04530967242552500D-01  2.42489478147099500D-01 -7.19823616300640400D-02 -1.97966100150937100D-02
68 29 -1.39019909315802100D-01  5.44634940909126000D-01  3.75992112130566300D-02  9.32512528224114400D-02  8.90688572981996700D-02
68 30 -6.17412921685948800D-03  4.38871079242718700D-01  3.26375866485675500D-02 -6.34898591770009400D-02  2.29272181003438200D-02
68 31  1.78209358958901800D-01 -6.14891348164927900D-01 -1.38942425156186900D-02 -2.35412767279202500D-01  5.27315914704142600D-02
68 32 -9.54323331471096200D-02 -8.82946673784060400D-04 -1.64812667700171500D-01 -8.48557532743110500D-03  5.30745116109838200D-03
69  1  2.19002168407974000D-01  3.92653638918275500D-01 -1.41282547888461000D+00  1.83791526043905500D-01  1.40713242844820800D-01
69  2  4.18026984381900300D-02  5.27774696933576500D-01  6.40426246030914000D-01 -1.10965430613023400D-01 -2.70496018810055500D-01
69  3  1.35684163768820900D-01  1.34811855041233900D-01  1.43857950201519900D-01  2.07171978174952300D-01  2.01466203082289100D-03
69  4  1.55249564971226000D-01  3.76179536226495800D-01  1.14947800815777500D-01 -8.13773134470286400D-02 -1.55611180795251100D-04
69  5  7.61733889017301600D-02  5.89111657734946700D-01  2.12212073256596000D-01 -3.69529036449036800D-01 -1.91797866994147500D-02
69  6  5.85763774981870500D-02 -3.93965907987724700D-02 -4.75720465329854300D-02  9.25481145548665400D-02 -1.45125891975469100D-02
69  7 -5.63128208130621700D-02 -9.31819881986235800D-02  9.98903282364855500D-01  3.81409723211168300D-01 -1.35784648630115700D-01
69  8 -3.53290100226308400D-02 -1.45736534324393900D+00 -1.53793493953464300D-01  3.65997593812518800D-01  2.14663992116877300D-01
69  9 -1.60904542476645300D-01 -5.37594496402326500D-02 -8.94419491889900500D-04 -1.71561587713625100D-01 -2.77391652844630900D-03
69 10 -2.48219134143646900D-01 -4.44436443198008300D-01 -1.27772879985398500D+00  1.54748620229991700D-03  2.40609378725474400D-01
69 11  6.72671250782201500D-02 -1.51623930781248900D-01 -7.14004024272158700D-01 -5.69856297741828500D-02 -3.35837079950944400D-01
69 12  2.85251239951150900D-01  5.05858399997934200D-02  1.41542380600650400D-02 -2.36458779419567200D-01 -8.30705897540125500D-02
69 13 -8.00889847494733700D-03 -2.87089415041934100D-03  3.61406353197706900D-01  9.48133980530591200D-02 -2.13647278680366400D-01
69 14  1.28975753328936600D-01 -6.40409858848672900D-01 -4.01639254191994100D-01 -2.49579937389322500D-01 -1.31632360797339300D-01
69 15  2.02930877899205100D-01 -7.12985171018660400D-02 -2.93068553858588300D-02 -4.54831408150993800D-02  2.35021270038034200D-01
69 16 -9.63742999883293000D-02 -1.34194996508978300D-01  1.31127838527204700D+00  1.60552675547725000D-01  1.35932311158809100D-01
69 17 -1.27953877044993900D-01  1.13172428436745700D+00 -1.71136349614626900D-01  2.36832489185299000D-01  2.81773714216863600D-02
69 18  1.29685096902637700D-01 -1.57862468324323600D-01  2.75130380316316500D-02  1.49735651251018600D-01  1.93783897295878600D-01
69 19 -6.81395225978991100D-02 -1.75356667554282400D-01  4.07503994069998800D-03  2.18830102765739600D-02  6.02192219378362100D-04
69 20  1.08145307749306000D-01 -2.61914793967098100D-02 -1.60708893869350000D-01  3.98013467117172600D-02  7.11990655231352200D-02
69 21 -1.06776050306911100D-01 -2.15765212066173700D-01 -2.45560111532456800D-03  1.58142034344527700D-01 -1.90041308289322500D-01
69 22  3.18992739447945600D-02  3.29021638363091900D-02 -2.28861026475885800D-02  1.49924573323716300D-01  5.17681843035071400D-02
69 23 -1.23970279397077300D-01  7.22020950935695600D-02  1.90225734064188600D-01 -8.85040255971245400D-02 -1.02313054860098900D-01
69 24 -2.00456641842708000D-03 -2.72506609688929700D-03 -3.58739217330454600D-01  5.12035266080239900D-01  2.07832248209827200D-02
69 25 -1.41607450706814400D-01  4.51169741667662900D-02 -9.67540200617090100D-02  4.66912185523463300D-01 -1.52872114999307100D-01
69 26  5.05286079039490200D-02  3.65126323562264000D-02  1.43637405578038600D-01  1.86343861588497400D-01 -1.47719887998425800D-01
69 27 -3.86239735900716200D-02  2.68254592523614400D-02 -3.31868396874594700D-02  1.90892432127093200D-01 -3.06672186214292800D-01
69 28  5.61146319744767500D-01 -2.54474133530474800D-01 -5.57213027762687500D-02  1.59951747804427000D-01 -1.66540746816257500D-01
69 29 -1.13844617859252200D-01 -4.14355113652641400D-01  9.84415480333114000D-02 -2.16292828874275000D-02  2.11993508114286100D-01
69 30 -2.72839620352147100D-02  2.00763226427570000D-01  2.02779661412361400D-01  4.89706871738535800D-02 -1.84614656054044500D-01
69 31 -4.74802041870039600D-02 -7.66832724677324000D-01 -3.25671634100093600D-01  1.91919413726234600D-01  1.58626484989638500D-01
69 32  1.88288967255204000D-01  2.41097137795498400D-01 -7.76626251959470900D-02 -1.80311970762939200D-01 -1.09585436302302200D-02
70  1 -4.12103989816511200D-02 -1.29871066422869300D-01 -8.05492086561189000D-01 -4.00206747703438000D-02  3.05898060921753000D-02
70  2 -1.79922487045698800D-02  1.69556810538530500D+00  2.31207042260482600D-01 -9.52839212116333900D-02  2.37928142102831700D-02
70  3 -8.80399701298847900D-02  6.42471559196019800D-02  2.90576063448501500D-01  3.44296403252629000D-02  4.92059229824086700D-02
70  4  3.07099124174951600D-01  6.41395434310929800D-01 -2.54877283038150000D+00  8.27554151423245700D-02 -9.87975993749605500D-02
70  5 -1.46235384625465600D-01  3.50615231609681900D-01  1.06758729512352300D+00  7.48276216951354900D-02  3.40595107642391400D-01
70  6 -4.46916333965929000D-01  1.06321226323537000D-01 -8.99634395796707300D-02 -4.02359285119415600D-02 -1.28938173356719600D-02
70  7 -7.31817772421330300D-02 -1.91522932837049500D-01  2.86387122220819400D+00  2.48509157358816100D-03  1.76162720020610200D-01
70  8  1.10964739442122700D-02 -5.06081253536717800D-01  2.06118790573824300D-01  8.05423112876539100D-02  5.76963100227134400D-02
70  9 -2.10696914097445500D-03 -5.55893408817407600D-02 -1.43581197366420600D-01 -5.22949428221641000D-02 -8.84515315251290000D-02
70 10  2.60885538429574900D-01  4.50495686582774300D-01 -8.52873639416690900D-01  1.79939109557258600D-01 -7.81479852281132300D-02
70 11 -7.18105459054138900D-02 -1.65977294836591100D+00  3.69637583326109500D-01  2.73488601198087600D-02  1.55137390133885700D-01
70 12 -2.39965928581040100D-01  8.48285384471553500D-02  1.14670575604708700D-01 -1.05456524278657800D-01 -4.31988190829766900D-02
70 13  6.03244798786953000D-03 -3.23729661866663000D-02 -2.41260935154358700D+00  1.09631118909406200D-01  1.82158075576382400D-02
70 14  4.13783505619475200D-02 -1.07895324822858000D-01 -1.61253485345702400D-01 -2.48314896636547700D-01 -1.67594072534715200D-02
70 15 -4.28928419643582100D-02  5.96522492178299700D-02 -2.92033101877334100D-01  5.94359066123946000D-02 -2.28819891137274500D-02
70 16 -3.40014306661414500D-01 -6.98423118846120200D-01  2.74815750251887300D+00  1.60458566752617300D-01 -1.51879524891377000D-01
70 17 -1.42480054567157500D-01  1.00926566659903500D+00 -3.74132189190222300D-01  3.27200243710457600D-01 -3.70879139287850600D-02
70 18  2.87321350579802500D-02  8.35577887080553800D-03  2.41494837064601300D-01 -5.20186718654090600D-02 -1.40235911677785100D-02
70 19  1.55488255505523800D-02  5.62276695663400700D-02  1.18938717268255900D-01 -2.33687679302209300D-01  3.42360702010430900D-01
70 20 -9.67628206506283800D-02  5.80880262536998000D-02 -1.05956731550791100D+00 -2.25849299778914600D-02 -4.57302683488041200D-02
70 21  8.23067839593541500D-02  1.12315755261063500D-01 -5.36828639574642900D-02 -1.03078131303571500D-01  3.70084181271759300D-02
70 22  6.60697131763956900D-02  1.13119178119067000D-01  5.33998905246579800D-02  2.33586616245370900D-01  7.45577160538327000D-02
70 23  6.80748862745408500D-02 -1.42632602328373200D-01  1.86718074571485600D-01 -3.99929517888702900D-02 -1.67772832992224600D-01
70 24  8.00892326941327800D-02  1.93296257445006000D-01  2.00222856920040600D-01  6.38191260178298200D-02 -9.36177108974783400D-03
70 25  2.72266516469700000D-01  6.57036466015264300D-03  3.59938557158690600D-01 -2.26148780711395600D-01 -2.95135836571175700D-02
70 26  2.71354683368043900D-01 -7.30518752562484900D-03  4.41570046171544900D-02 -1.80570013885240200D-01  9.44788932933409700D-02
70 27  8.60911205918991600D-02 -1.32157430495992600D-01 -4.88410606101085300D-02 -7.36385405610925400D-02  2.68973328624393700D-01
70 28 -3.36815870978641500D-01  6.78425423542479600D-02  3.23022197246890700D-01  1.19681498427447600D-01  6.49278985422311200D-02
70 29 -2.77815105204820200D-01  1.51957713547430700D-01  4.89866142384563300D-02  1.86488858399321400D-01  2.61626427598387100D-01
70 30 -1.21591164181453000D-01  9.06579149213198600D-02  1.20924044947867100D-01  5.48395645453253800D-02 -1.63908926303039300D-01
70 31  2.28721803199763200D-01  5.55585853792661800D-01  2.75485811736103700D-01  1.21865022143768400D-01  1.34422365413455300D-01
70 32  4.16620615832978800D-01  1.31527902433194500D-01  3.76000899596625100D-01  1.21908939062623900D-03 -3.47572801359694600D-02
71  1 -4.04669892933823700D-02  3.18389692927459500D-02  2.86197500190765200D-01  5.94299694774301000D-02 -9.00157488948838100D-02
71  2 -1.65037046076941800D-01 -9.44052946748261500D-01  1.14464707420874100D+00 -4.11390360918140300D-02  7.84082907628473800D-03
71  3  1.67234002781701900D-01 -1.75074831857986100D-01 -1.13405770312613700D-01  1.18821993921712700D-01 -1.30308101150323600D-01
71  4  1.06158477854564300D-01  2.31742638208624800D-01  5.56558903702790500D-01  1.23369682530031500D-01 -2.45900311192558900D-01
71  5 -8.21179955321136700D-02 -4.00479064718226400D-01  7.57230921045342300D-01  1.73644266366362300D-01 -1.30191924067564900D-01
71  6  1.66230091157747800D-01 -3.60381670901831800D-02  2.01158147640599300D-01  1.82168881885410500D-02 -7.97961144844190100D-02
71  7 -1.32511665104228100D-01 -2.69554919751487200D-01  1.45796531686154500D+00 -3.29141109234175600D-01 -7.15123997414286000D-02
71  8 -5.78154267689260400D-02  2.28856942213161600D-02 -3.46441420250836000D-01 -1.16840193188943900D-01  1.75039591959722100D-02
71  9 -7.64413083240388400D-02  5.89373491280663700D-02  8.25370082617106300D-02 -4.34285341836012500D-02 -9.82499349580224900D-02
71 10 -5.88053968009430400D-03 -9.36133840743296900D-02  4.14315510661526400D-01 -1.25203688726662200D-01 -5.51140429362465500D-02
71 11 -2.15000238181557900D-02 -8.24436795195661200D-01 -9.40405469286098400D-01  3.07614842061565700D-02 -1.02631808468329500D-01
71 12  9.28279638192606000D-02  9.80384464906875100D-03  6.31274413929112800D-02  2.95218310925195900D-03  1.26879722695181800D-01
71 13 -5.93688100560030300D-02 -1.21753885770581800D-01 -9.74073996519845700D-01  1.39671462576400500D-01 -2.07990891469992700D-01
71 14  1.82194173874496900D-02 -3.88095141430685300D-02  8.65268886287062000D-01 -1.45894283448773400D-02 -1.99902614030185500D-02
71 15 -1.21202082663736000D-01  1.41192344066754800D-01 -2.27663054094558800D-01 -6.01587055599305700D-02  5.63689149711778400D-04
71 16  4.77307367014921100D-02  1.02092175943966000D-01 -4.95487482650860600D-01 -2.64613228284282100D-01  1.40009730122312600D-01
71 17 -9.75442247487514800D-03  5.48925824627556100D-01 -1.02417145376985300D+00  1.17047186850627200D-01  3.06743706035883300D-02
71 18  1.64156651013857300D-01 -1.94831021617445300D-01 -2.17229193286586800D-01 -6.77511475447002100D-04  1.41220913716250600D-01
71 19  1.47407031767676800D-02 -4.14521664693156500D-03 -6.53079701977450700D-01 -4.47480813664564200D-01  1.93271834439940700D-01
71 20  2.04370720254502600D-03  1.48938872163024200D-02 -1.33489057339460200D-01  4.54559787846986300D-01  9.12064438143211500D-02
71 21  1.41380890606939600D-01 -2.01545596774241800D-01 -3.34606554900425400D-02  2.39338591879740900D-01 -1.01970673256742900D-01
71 22 -1.37367918622997600D-01  5.52667213153466400D-02  1.42940144732284300D-01  6.64403763991120700D-03 -2.88367237327268000D-01
71 23  2.85053440966663000D-01  3.31379636060447700D-03 -1.18795744134141400D-01 -2.20422289427683900D-01 -1.55653230984960300D-01
71 24  8.84933713049931800D-02  1.71332130258673400D-01 -7.61851018257186500D-01 -2.63022540876730800D-01  1.55444273935230900D-01
71 25  4.50393295168321000D-02 -4.16996666884956600D-02 -1.31231971682307200D-01 -3.45945429202270900D-01  1.25250289063173200D-01
71 26  1.45989562785928300D-01  6.38006892032980900D-02 -6.28383508226137400D-02  1.40266007538914800D-01  1.62698882370669300D-01
71 27 -3.02964889909585000D-01  5.04438323294221800D-02  7.16831446303554400D-02  2.44241079657426300D-01 -8.16565022167677100D-02
71 28 -5.98152784120000800D-02  1.41471780628767900D-01  1.31894438192425900D-01 -6.43513677537448100D-02 -9.11402769323874500D-02
71 29  3.27785749134985400D-02 -2.57125003394469300D-01  3.63396529949283000D-01 -2.58645630850069300D-01  1.37080237222684800D-02
71 30 -4.08969314284109000D-02 -1.20425830173122300D-01  2.19001565701533800D-02  1.40964093391397600D-01  1.77825963504108400D-01
71 31  2.53751233934688800D-01  3.34778590640565800D-01  2.94812116946330900D-01 -1.67466363079431200D-01 -3.78725733524560000D-02
71 32  3.44954899672619900D-02  3.36432203401681500D-01 -3.71802700694668000D-01  3.90398523532048500D-02 -2.33261356338404600D-01
72  1 -3.00090157386043700D-01 -5.88475445206059000D-01 -1.44056045381746200D+00  2.69871185004416800D-01 -1.98126456079671900D-01
72  2  1.18349753657023900D-01 -1.05733333513158500D+00  8.08133864610755300D-01 -2.13347306522318900D-02 -1.87506628511738500D-01
72  3  8.65484626171198100D-02  1.00958165894618700D-01  1.13789745696820600D-01  5.68513129779184100D-02  2.00151345454251500D-01
72  4 -1.57577717140381500D-01 -3.01466480751151400D-01  1.28551470024451900D+00  1.02523001309079200D-01 -2.43697861180905000D-02
72  5  3.93397248011895000D-02 -4.39944361407767000D-01  7.04247577494734200D-01  1.95839615548215800D-01  7.22876072537451400D-02
72  6  5.02195962266174200D-02 -1.22507203480363400D-01 -1.68015888550782700D-01  6.15734229305897500D-02 -1.41718773004453700D-01
72  7  2.84503495950170200D-02  5.72038947079572300D-02  2.29838532451602000D-02  2.67618252066879400D-01 -3.16617903607786400D-01
72  8 -9.06125769291073200D-02 -9.51085482371785300D-01  1.03063106563187100D+00 -1.48582628488141500D-01  1.28329934837136000D-01
72  9 -8.94872793277510900D-02 -3.88426555093849800D-02  7.94907164071075700D-02  1.64159711193302800D-02 -1.98082057877970300D-01
72 10  3.60695420079280000D-01  7.18069669337986100D-01 -4.99607574809773100D-01  1.23865147122464500D-01 -2.38926292647562300D-01
72 11 -1.23485161764326700D-01  2.12802208705368300D-01 -3.61844293991513900D-01  1.60017647594465200D-01  6.82988552233930700D-02
72 12  1.65656421374431600D-01 -2.33955276597824800D-01 -2.93423083643019700D-01  3.19722734460452900D-02  4.00294779564799500D-02
72 13  5.80821722651101900D-02  1.08839002758984600D-01 -2.41303079690035800D-01  1.86986412190517300D-01  1.26826344099560300D-01
72 14 -5.64355215737169200D-02 -5.16420853793249900D-01 -4.37477022276748200D-01 -7.70817318549557300D-02 -2.73705714213883300D-01
72 15  2.11614031713686600D-02  2.52544311042513000D-01 -6.94078905906968500D-02 -2.33942946363989500D-02 -1.44111322796285500D-01
72 16  8.16154510376978900D-02  2.07132458642788000D-01 -7.96790075005565100D-02 -4.93689514298177900D-02 -5.25261823397874300D-02
72 17  3.13662606489036900D-02  8.93456965251475300D-01 -1.95458134241843200D-01  1.91570227486252000D-01  1.27000396707619300D-01
72 18 -2.00243192478762200D-02 -1.06976077459743300D-01  2.54586691673384500D-01 -2.53198187398840000D-02 -1.71691094896163700D-03
72 19 -6.23819005438877800D-02 -1.14591707116792700D-01  1.10382048640039500D-01 -4.20100012277876800D-02  1.06040621503028100D-02
72 20  1.02000681624037700D-01  1.04624916551724400D-02  3.84839785397505000D-02 -4.94753115038869800D-01 -1.52151439035174000D-01
72 21  1.95543962315007600D-01  8.43355950692472200D-02  1.82559021913720000D-02 -7.81827130344469900D-02 -1.79485435167221900D-01
72 22  2.57668148201668300D-01  5.70647282274448500D-02  6.38319975538834600D-03 -9.65212792493924100D-02 -1.95267422439848600D-01
72 23  4.68390726135593100D-01 -2.73123303695745300D-01  4.96926013740279100D-03 -5.92740903033025200D-02  2.75153967399693600D-01
72 24 -8.67059935294253600D-02 -2.67241950437180200D-01 -1.55206382882223900D-01  1.87993532997017300D-01  9.83175574179561700D-03
72 25  1.10952905121101700D-01  1.44628713146733400D-01 -1.96761690309906500D-01 -6.38889005253347800D-01 -1.87491103547661100D-01
72 26  9.59485679874665900D-02  4.37971203681423200D-01  2.97944700550969900D-02  9.44751083954403800D-02  2.46909243101791700D-03
72 27 -9.69442008264580900D-02 -3.86799371301779800D-02  6.18830679912937300D-02  6.10583558148155800D-02  6.00900180189323900D-02
72 28 -3.01258816015335100D-01  2.41168797996402600D-01 -1.82293177215654700D-01 -8.96536528405741700D-02  1.10326755444871300D-01
72 29 -1.46157162558488800D-01 -2.68372007792625800D-01  1.18667343387474400D-01 -2.61044826676526400D-02 -1.31980187492583700D-01
72 30  2.85142181445601400D-01  5.04419786133975300D-01  6.91447673965357900D-02 -2.23553417773874200D-01  4.32752148208138300D-02
72 31  1.67938590371496800D-01 -3.54309952403861600D-01  9.23666853423210100D-02  1.65286604099899700D-01 -4.66031388074957700D-02
72 32  1.59430003854821300D-01  4.76548185330214400D-01  5.71137964503616900D-02 -1.95438385988060800D-01 -1.97347044269234300D-01
73  1  7.56715616953606300D-03  4.07377247104423100D-02  1.71339660079624700D+00 -2.37213715336477800D-01  1.78252506135924200D-01
73  2 -3.84554575923222200D-02  2.40153512263361900D+00 -1.01013108159017300D+00 -1.24217861608035100D-01  2.47910512690677800D-01
73  3 -1.53648481951390400D-01 -9.42620307392869600D-02 -3.80853747333035700D-01  1.05906393736632100D-01 -1.67874767520735600D-01
73  4  3.18432165415038500D-01  6.38230001089355100D-01 -2.98452067297102500D+00  2.34650674841657400D-01 -2.11849747583825300D-01
73  5  1.20039165801481100D-01  1.68039490937417600D+00  2.79340089463241200D-01 -2.23708909786770300D-01 -1.45043422769052800D-02
73  6  8.85825696815509300D-04  1.36185165800916900D-02  5.02696940883849400D-01  1.48940161580393100D-01  9.33159266539637700D-02
73  7  2.11605187745329300D-01  3.84653219952603800D-01 -1.86910683981352000D+00  2.44265273290829500D-01  6.11663341618318400D-02
73  8 -1.01314734767732000D-02  1.30027262740499000D+00  1.31368904353987000D+00  1.86202612136880000D-01 -3.83460857835403500D-02
73  9 -2.40823103868543800D-01  2.79169189652083800D-01 -1.01774786768447100D-01 -1.03128709694333600D-01  8.54917358125656400D-02
73 10 -6.19288234706055700D-02 -5.72928387369341000D-02  1.50875735419801800D+00 -5.29362898117882000D-03 -1.79569635170369000D-01
73 11 -7.68267682189977400D-02  2.99212193465141200D+00  4.26041828105916700D-01 -1.32935346761735500D-01  1.82901467531188400D-01
73 12  1.38792266668050300D-01 -3.21693734199239000D-01  7.98727773451058100D-02 -3.36341648333158700D-02  2.44158897195500300D-01
73 13 -9.73871949865575700D-02 -2.69441091827867000D-01  5.23612507502122600D-01 -5.71594054249715100D-02 -2.13022738697115500D-03
73 14  3.76481840321421700D-02  7.29323470009150700D-01 -1.85451352439349400D+00 -1.59467061683212000D-01  4.96558292039271000D-02
73 15 -2.03662084863794800D-01  1.54006255659868700D-01 -9.04294487995101100D-02 -1.90813453180009100D-02 -1.39101411125629300D-01
73 16  5.87894663764338100D-02  1.90692656198089600D-01  1.93397878113315500D+00 -3.49822634316909600D-01 -2.08534973186122100D-01
73 17 -6.05255149018129500D-02  5.81069396286514400D-01 -1.92070129809179500D-01  2.40406984959938300D-01  1.13300819092092900D-01
73 18  2.99741738606351700D-03 -1.16298236478156200D-01 -9.66601418707266100D-02  1.69941441069265300D-01 -6.71063663377986100D-02
73 19  1.06066009276547000D-01  2.09978204012749200D-01 -2.06539113657464700D-01  1.16403241971439900D-01  1.75268505608607700D-01
73 20 -5.58052465255241000D-02 -7.40646809174926600D-02 -5.26777670995677100D-01  2.66656640474478700D-01  2.48402813496762300D-01
73 21  1.11285217031007000D-01  1.11625383647385900D-01 -8.81347544805671100D-02 -2.48222280789877800D-01  2.92894905527727500D-02
73 22  2.18932790237104900D-01  1.17055752230772500D-02 -5.62538735878385300D-02 -1.76541698325715900D-01  3.03065329442550500D-01
73 23 -2.07293951930880800D-01 -9.57713775116679200D-02 -2.68335891537072000D-02 -3.00138802931323400D-02 -4.91646454978511100D-02
73 24 -3.79592935822818500D-02 -1.35400716482369400D-01 -1.80081954603322700D-01 -1.31870917602526000D-01 -4.43080713074443900D-02
73 25 -7.39939013834826900D-02 -1.08599345149864200D-01 -3.44726743779378800D-01 -3.23333726677453100D-01  2.78685203540657600D-01
73 26  5.36062851799914100D-02 -5.39441314200455200D-02  4.53482352038427800D-02  6.07691340459181900D-02 -2.93806375617837000D-02
73 27 -3.13884964841341400D-02 -2.80163431998223100D-02 -5.39959019092885800D-02  1.60978702749321700D-01 -7.41324228540440500D-02
73 28 -1.04207045801811700D-01  1.78339468655855700D-01 -1.24303269560624000D-01  1.92545708696430600D-02 -1.79689461176025400D-02
73 29 -4.10972971062665900D-01 -8.96751231117778400D-01  3.83027289945272500D-01  1.72344990766321000D-01 -1.18203183795463600D-01
73 30  8.10141421994365500D-02 -4.95802240572883000D-01  7.19446116209128400D-02 -1.77118047629601800D-01 -3.86586062609654400D-02
73 31  6.45766677769650100D-02  9.24379902805830400D-02 -4.20652567195064900D-02  1.20105039456625800D-01 -2.21354371570670200D-02
73 32 -3.96749530223152700D-01  7.98037655515097400D-01 -7.07962221214987100D-03  1.18821747513368600D-01  8.12286561187278700D-02
74  1  5.87375755155102000D-02  1.45505901878866700D-01  2.33579724547500700D-01 -6.58115585372117100D-02  1.49850873371208300D-01
74  2 -1.46905417575881400D-02 -7.81677201263296300D-01  3.29276281186350700D-01 -1.84714233158336700D-02  1.74511758981630900D-01
74  3 -1.17452134318534200D-01 -5.70596246630967500D-02 -1.25192618280634700D-01  1.37521839060293100D-01  1.00061255388052200D-02
74  4  1.40061632143051200D-02  6.42120554933675200D-02 -3.25930068141181000D-01 -1.08162848087759300D-01  1.95554520902657000D-01
74  5 -3.93654677174245700D-02  1.03527571018785200D+00  5.11370906766102400D-01  1.46183448520600200D-01 -2.64767807381544500D-02
74  6  1.11555730307365100D-02  1.53212077074183100D-02  4.96137428430856500D-02 -5.73574970279481300D-02 -1.85751805246532100D-01
74  7 -6.94352768383134100D-02 -1.54775167011801900D-01  6.66027664028750800D-01  5.02838143042081100D-02 -3.78877838945339300D-03
74  8 -1.10331329258665600D-01 -1.35224552000798700D+00  8.67412934382985700D-01 -5.09175885011273800D-02 -9.11139735670866300D-02
74  9  1.92993018368796400D-01 -1.01879044801711200D-01 -4.42895211144353500D-02 -1.03462603449628300D-01 -2.18778676993819600D-01
74 10 -3.21001862833216500D-02 -4.84935610826616500D-02  5.74502668565162400D-01  5.09791947848103600D-02  1.04730792622813400D-01
74 11 -5.21939967538963000D-02 -8.16296256874767600D-01  1.41950915212792300D-01 -6.50459128018751300D-02  1.19038609586913300D-01
74 12 -1.22694259919809400D-01  3.65565033289669300D-03 -1.88160326397561900D-01 -7.57342436782299500D-02  1.05994200539597800D-01
74 13  1.35533136395231800D-01  3.01583986807851800D-01 -1.88235105043480200D+00 -1.36789869303952400D-01 -2.05249834217175900D-02
74 14  8.86767013917681000D-02 -1.59932429628382900D+00 -3.03539519153018200D-01  5.04097245198357300D-02 -1.60666099049609800D-02
74 15 -1.52560131673028400D-02  3.13226230722634900D-02  1.28807300567932300D-01 -2.01673372210254500D-01  1.21249130744316800D-01
74 16  1.82635149714817100D-02 -6.15925265279514000D-03 -4.89985993614161000D-02 -1.79811647371919800D-01  1.56114982403670700D-01
74 17 -3.29740961088485500D-02  1.06320313307120200D+00 -1.75182565474327400D+00  1.42545306035066200D-02  3.05653404290102100D-01
74 18 -2.09839800750033400D-01 -9.58136035400686300D-02 -4.32586968183015200D-02  1.72818673555697900D-01  2.21245279976740700D-01
74 19 -6.23720615984942300D-02 -1.89721709325208800D-01 -7.05543779985574500D-02  2.35665203790702200D-01  4.04405857094292200D-02
74 20  6.25317874487857600D-02 -4.07525421817722500D-02  1.94995818397591400D-01  3.53845961728226800D-02  4.46264753306600400D-02
74 21 -2.93763566270740200D-02 -2.13379036451893100D-01 -2.23381026972743300D-02 -1.74569318673354100D-01 -8.63359585615769400D-02
74 22  2.60905277234931500D-01  3.27852971283037400D-02  7.47882168026390200D-02 -3.04250457260457400D-01  2.81160010900235800D-01
74 23 -4.46318341979518400D-02 -2.36528176702284400D-01 -1.45059841610834900D-01 -1.53072528222821700D-01  2.53131055791330300D-01
74 24  1.19853069949953900D-01  2.86735644541928600D-01 -2.92073917151266500D-01  2.28003536059561100D-01 -9.56247733853028700D-02
74 25 -5.42983415542180500D-02 -1.97168345063294000D-02  1.96857141686253300D-01  2.98969984097763800D-01  1.23062788117509300D-01
74 26 -1.67801471488204400D-01 -1.99748214961782400D-01 -3.48335158656040400D-02 -2.24062573433258600D-01 -4.91602646517856300D-02
74 27  2.73222838085044600D-01 -6.86364849197000900D-02  1.74087658420908000D-01 -9.37934806794643700D-02  3.25702015479604700D-01
74 28  7.04742435016067200D-03 -3.32749439829765100D-01 -6.55371584127265300D-02 -8.46432655235372800D-02  1.60160066219955600D-01
74 29 -1.37267235291858600D-01 -7.76168259479347100D-01 -7.57801180816342600D-03  1.07399567227149500D-03  1.23306570141506000D-01
74 30  2.38383591032554300D-01  1.04009389598657600D+00 -6.74177210015020600D-02  9.83667551058107100D-02  1.58825921119164100D-01
74 31 -3.99637254194615400D-01 -8.51615589212712400D-01  1.31222183508221400D-02 -1.22342534105429400D-01 -2.12374733096113800D-01
74 32  2.34260845926076100D-01  7.99538874981025600D-01  2.21743462798336300D-02  2.68722429666679600D-01 -2.93562930417316100D-02
75  1 -1.13529124462494200D-01 -2.14960441278104800D-01  1.40980123575914000D+00  4.51832611478579400D-02 -1.39203464170804400D-01
75  2 -1.08508844448358000D-02 -1.45777190926270300D+00 -2.75252318151977500D-01  4.33995531009728300D-02  1.08348797874301500D-01
75  3  4.24500467952436800D-02 -1.50798844669544500D-01  2.30343205040072500D-01  1.31253405434518300D-01 -1.24169618674937300D-01
75  4 -4.88563772234151300D-02 -1.62378383809102400D-01  4.62353641431218700D-01 -3.16280381870072700D-03  1.07107884723175700D-02
75  5  2.07218845444249500D-02 -6.16037786730168800D-01  5.17826192359558700D-01 -1.99588381066943900D-02 -1.16586951428440800D-01
75  6 -2.88059983306370400D-02  1.45392949759077700D-01 -1.12274971943587800D-01  1.15508257807918200D-01 -2.02010588704020200D-01
75  7 -2.88986530048377500D-04 -3.86610510668144400D-03  2.18998841834940900D-01  1.58178905819318000D-01  4.06254552446471300D-01
75  8  5.61348922753145000D-03 -2.32469728695290000D-02 -4.30783588818893100D-01 -5.98863880598579600D-02 -1.20697184198509800D-01
75  9 -7.16218725210700900D-02  1.92319056719578900D-01 -6.75304533509723700D-02 -7.85449723195555400D-02 -9.53977555692033400D-02
75 10  2.05236836690153200D-01  4.33892015219424400D-01  9.65362733827507600D-01  2.55327031941241300D-01 -3.51053910702770100D-01
75 11 -2.72544805399376900D-02 -1.15524434460076100D+00  2.31381129141006300D-01 -1.75292040283130800D-01  1.34439558267997700D-01
75 12  1.26991859536738000D-03 -1.35709476863364700D-01  3.85817873790637000D-01 -7.72463967979193000D-03  1.14302428749925100D-01
75 13  2.49384046210516700D-01  5.35094907066610400D-01 -1.52034579535527600D+00  1.17766838200496000D-01 -2.03249426282642600D-01
75 14  4.94320766165852500D-02 -1.69796334724577500D-01  7.85074042216651600D-01  2.33838240917808400D-01 -2.15704975986153200D-03
75 15  2.11227957451525100D-01 -2.09070907691663500D-01  2.30697184154055800D-01 -1.09445948114892100D-02  1.76353480358706900D-01
75 16  1.31069925106034600D-01  2.43598753580088600D-01 -2.16444143942786500D+00 -3.06768311933724600D-01  1.01318484704649900D-01
75 17  5.00249087359188700D-02 -6.88737976563670900D-01 -8.61802957173704000D-01 -2.35345685594423800D-01 -2.15482537703745800D-01
75 18 -1.43534566840743500D-01  3.59017104544489000D-01  5.17694404422550200D-02 -2.64888285105581300D-02  1.90788226231430800D-01
75 19 -9.49143015552481000D-02 -2.13247581840263200D-01  2.64744239987223100D-01 -4.33633053723694400D-01  2.18289142340063100D-02
75 20 -4.47238865423017800D-02 -5.20662320712729400D-02  9.37650255506764400D-02  7.18252847516231700D-02  1.47094867177166300D-01
75 21 -2.70891728948657200D-01  3.04462601219465900D-01 -6.36011558412056000D-02 -9.95617648567485400D-02  2.97419266599771000D-01
75 22 -1.97857501743022300D-01  1.11269573317650000D-02  7.83870051384082800D-02  8.80811324655587100D-02  1.53306126879795000D-01
75 23 -1.52381016001604300D-01 -9.25110878190971000D-04  2.18890821464784600D-01 -1.89795435224625100D-01 -1.28612334280513500D-01
75 24 -5.75917831153556600D-02 -1.84741498283190900D-01  6.34820221985150300D-03 -3.33443775901769900D-01  6.39053862982594300D-02
75 25 -4.63136080666428600D-02 -5.09671487943227400D-02  1.76754448153902800D-01 -5.04215362516157000D-01  1.74445279292148200D-01
75 26  1.35303548587279100D-01  6.76212776277636100D-02 -1.00649480148252500D-02 -1.21027818373132900D-01 -7.57238010328900200D-02
75 27  1.96751619406022200D-01  1.00984149608401000D-01  5.60373483297629800D-02  1.22893536990838500D-01  2.30622491964985500D-01
75 28 -3.61834415752772500D-01  1.31211923787786800D-01  1.28795888546705500D-01 -4.36208682499158200D-02  5.83927841274077700D-02
75 29  6.42814714573765300D-02  6.83883572164870200D-01 -8.91905374010804500D-02 -1.69671463751635700D-01  5.95437513208810400D-02
75 30  4.66208317302646800D-02  1.00228707094407900D-01 -2.01587174729729500D-01  1.42149923298676200D-01  4.54177973287865200D-02
75 31 -5.94208441448354600D-02  3.62268071715846700D-01 -3.49460214061123500D-01  1.49668374935341900D-01 -1.44648789103918700D-01
75 32  1.07497791182669500D-01  6.39016126903806800D-02  4.49351924526472500D-03  1.27111980941222700D-01 -4.77950364780635300D-02
76  1 -1.38453519039895100D-01 -2.58978374310962400D-01 -1.13732944205128600D-01  1.12928820605924000D-02 -5.42212923230715900D-02
76  2  6.20051099037146700D-02  1.93360307024405900D+00  1.95272777778301100D+00 -8.55428949652726200D-02 -2.46666271079637800D-02
76  3  1.99759276133471600D-02  4.69069949461714800D-03  2.91473236736647100D-01 -1.40934156608409500D-01 -4.44797361942386900D-02
76  4  1.45419497503331900D-01  2.69235522044831400D-01 -1.69954467927650500D+00  1.70338185781154400D-01  3.35747965058705200D-01
76  5 -7.04761940701006500D-02 -1.41234762366939300D-01 -4.52224307547563300D-01  3.93575260567308400D-01  3.13600039419111000D-01
76  6 -3.17688919788691200D-01  4.08888036958075600D-03  1.27862233352636400D-01 -1.43703110202592800D-01 -1.75989454049445100D-01
76  7  1.34063540514389300D-01  3.77296617423407800D-01  9.23890854683744900D-01  1.61547632716586900D-01 -8.79227866605053300D-02
76  8  1.55006463760595900D-01 -2.93098179557990300D-01  1.23705494060708300D+00 -4.59162118773986200D-01  3.47475033628463400D-01
76  9 -9.42445938714314800D-02 -2.53230439757033300D-01 -1.22150860108118000D-01  4.52006243546320900D-02 -8.36765787778538800D-02
76 10 -9.69017980131792100D-02 -2.28909615802874800D-01  2.16266868679968200D-01 -5.86126399320364200D-02  1.16056229010745700D-01
76 11  2.33756688569168900D-02  1.88705458814668500D-01 -1.85791428799195900D+00 -3.63401805706498000D-01 -2.00365908163727700D-02
76 12 -5.95060414338175100D-02  7.95426322501909100D-02 -1.57702794304785600D-02  1.63529616282151400D-01  1.80283625283841400D-01
76 13  8.63137918710173700D-03  3.74491574280781000D-02 -5.00847261361076700D-01  2.21895816167187000D-02 -3.40253649925291200D-01
76 14  8.70460725926350300D-03  4.34128504298459500D-01  1.16095897375789900D-01  1.93570049887536000D-01  7.32018364788488600D-02
76 15  1.49506562775799200D-01 -2.22708399254647200D-01 -3.29927847266098700D-02  9.62534628413947700D-02 -1.23389981785164600D-01
76 16 -3.42885893876785000D-01 -6.69543120950941900D-01  2.82781856657359900D+00  8.79306047897193800D-02  6.67965699801380800D-02
76 17  7.70719460494707200D-02  1.23071861776615000D+00 -5.94249004526910000D-01 -2.39836075330765600D-01 -1.36921703713000400D-01
76 18  1.44895966346981800D-01 -7.97426263397984200D-03 -1.25034323948877700D-03  1.58062241492813700D-02 -1.94041840784860200D-01
76 19  1.78801826770333500D-01  3.70040972270625700D-01 -1.31085182029915200D+00 -3.07110020352638700D-01  5.69290246682877700D-02
76 20  4.76018489187944300D-02 -2.70746675313070800D-02 -5.94009441687977800D-01  1.18945590897311500D-01  2.65159839922620200D-02
76 21 -1.90593366879839300D-01  6.32914166222408700D-02  7.96216932754137100D-02 -5.82246367379014200D-03 -1.44638229687115500D-01
76 22  1.50460693360905000D-01  5.93298727240457300D-02  4.03270434181715000D-03 -1.83934234139714500D-01  1.94640173064108800D-02
76 23  3.36750172387290400D-01 -3.56214189693701100D-01  3.33874090408227500D-01  5.39061598337064900D-02  1.39359699905688800D-01
76 24  2.81589472760365700D-01  6.14597658238483700D-01 -1.54268883030573800D+00 -1.83392290348381700D-01  4.28095458176627200D-02
76 25 -2.01424933903757900D-02  9.28842483249624200D-03 -1.04858386133357500D-01  1.12900991570045500D-02  1.44315893782772500D-01
76 26  3.32611179254093300D-01 -2.14501455962251000D-01  1.60819842753674000D-01  1.27862372356448800D-01 -6.23791940452921400D-03
76 27 -1.21624452951919600D-01 -7.38153438113080800D-02  7.52079444876259100D-03  5.44819762911493100D-02 -2.26018371557320200D-01
76 28  2.12531351379681800D-01  1.34870201776384700D-02  2.06051452010582100D-01 -8.79162169826949200D-02  2.88718119708260800D-01
76 29 -9.52024156129169000D-02  1.07536176753329900D-01  2.51073407797013200D-01  2.78314838359797500D-01 -1.42416472981859500D-02
76 30 -3.39099071303646000D-01  1.72681929333278200D-01  2.01900609303808100D-01 -3.41260423001533100D-01  1.36985610527657200D-01
76 31 -2.96458087288356000D-02  5.75341812773850200D-01 -2.51492954717574700D-01  3.33552325805417200D-02 -1.58104787719888600D-01
76 32  3.07536868969001400D-01  6.14648364007405600D-02  2.40007129840180400D-02 -1.12667968362082400D-01  2.53473706634510600D-01
77  1 -1.86999810944763300D-01 -3.07889360558063200D-01  1.52236173532706800D+00 -8.77133057303689900D-02 -7.14775460893010100D-02
77  2 -1.11150298605267700D-01 -1.61511879395687400D+00  9.19935421332948300D-01  3.82768771881534800D-01 -1.01619468521117400D-01
77  3  3.49553448698702800D-01 -2.47933980177585400D-01 -1.25029507829170400D-01  9.03979554559851000D-02 -1.24799116471278600D-02
77  4 -4.51507101930642200D-02 -2.28457982372610700D-02  1.86716037086014700D+00  2.01279556668816100D-01 -9.77812464845682500D-02
77  5  8.94104329934982500D-03 -1.43908496792875100D+00 -1.11127108069585600D+00 -2.38298325702942700D-01 -2.51589185559762500D-01
77  6  2.40606302141809400D-01  1.09828834179529000D-02 -1.61319038884623300D-01  4.50782965237314500D-02 -1.05974508060974700D-01
77  7  3.76779977449034600D-02  4.51156440055773300D-02 -2.63252241341350500D+00 -3.62157518128829700D-02 -3.68822003524867400D-01
77  8 -1.31468444925157200D-01  2.04830272207185900D+00 -9.88310598224095100D-02  2.43061805011690300D-01  3.93408530078569900D-01
77  9 -1.92733782149014100D-01 -2.00674747929553200D-01 -5.08445422276333900D-01 -8.44137314035785800D-02 -1.36983368517588300D-01
77 10 -1.24359040271557100D-01 -2.80415239446244400D-01  6.14180427795395500D-01  1.04822910203467200D-01  8.31602149854196400D-03
77 11 -3.92785218088869700D-02  3.19447695836393200D+00 -4.66882902403607500D-01 -2.16774799817001200D-01  8.38243761994198900D-02
77 12 -7.17751287370149000D-02 -1.20492474624055100D-02 -2.06490331921534500D-01 -1.16266248792394500D-01  1.88257313160292700D-01
77 13 -2.54686731829991900D-01 -5.08338850447776200D-01  3.19035717935010000D+00  2.36388371265607000D-01  2.48383153170473400D-01
77 14  6.23111721762596000D-02  2.10226487384151200D+00 -3.94067106663788000D-01  2.92046484281298700D-03 -2.05720063903489000D-01
77 15  2.35678803811125900D-01 -2.99587399076370900D-02  1.00139113081526600D-01 -1.87157222008952100D-01  3.42903391158408400D-02
77 16 -4.47635238737123400D-02 -1.24570143844426000D-01 -1.00865939388521800D+00 -7.56655741665696900D-02 -4.10234154546075700D-02
77 17 -7.56738804446104400D-03 -1.97499402539573200D+00  5.09777590144797600D-01 -9.41741284839274400D-02  2.55001124620032900D-01
77 18 -2.40194806541876900D-01 -1.48063180781563200D-02  1.11417992821496000D-01  1.04975259050249100D-02  4.72778876643721100D-02
77 19  2.29886974418757200D-01  5.04925915113345500D-01 -1.46665447779551500D+00 -2.46781522254440200D-01 -2.24678216530911500D-01
77 20  1.33539228890456100D-01  9.25261498793190800D-02  8.21602987788322700D-01  2.07087530023719600D-01 -2.14231902871800000D-01
77 21 -9.85466048695524700D-02  1.75668651336637600D-01  3.24874897609046900D-02  1.23142894629136000D-01 -1.34536225810731700D-01
77 22  1.13933311815953400D-02  1.20438397326292200D-01  6.28270697122693400D-02 -5.78565415169712400D-02 -1.32899948654368900D-01
77 23  2.34937769782892400D-01 -1.02037821128522800D-01 -3.64392002516241200D-01 -8.04670485248091100D-02  5.82935939749082300D-02
77 24  4.09040651684217600D-02  7.70148225763137400D-02 -3.21175816956707800D-01 -4.51581708271173300D-01  1.76633930927218800D-01
77 25  9.78274530461665000D-02 -2.91868593614954300D-05 -9.57737702217848200D-01 -2.72637309017249900D-01  1.30529632206618600D-01
77 26  1.22759502532513300D-01 -8.55294910834497900D-02  6.37466648382252300D-02 -1.22244721683126100D-01 -3.77339303391461500D-02
77 27  1.59978652022272600D-01  3.47183792516976200D-02  1.16214867964631300D-01  5.68171505705985800D-02  1.39774279090078900D-01
77 28  4.83548551472003700D-02 -1.88129134237279300D-01 -4.15337538485727400D-01 -8.63474750665361500D-03  1.29484832549193500D-01
77 29  7.28505550998349700D-02  8.89943380182381700D-01 -1.26683621592989800D-01  1.54773342944411600D-01  1.41951204907243800D-01
77 30 -4.59326656984153600D-01 -1.20349686787412600D+00  4.30160506917959500D-01  1.40577727896946700D-02  3.56605469606001100D-02
77 31  2.63591548561646500D-01  5.89032430857933200D-01  7.44533952356456300D-02  3.55258725015909500D-01 -1.22081716332139000D-01
77 32 -3.29220788390769800D-01 -1.07852587586232600D+00 -4.56572019879281000D-02  2.15298798126992000D-01 -6.59107040279772700D-02
78  1 -1.62264878803244700D-01 -2.81550013824814900D-01  2.43720798152524300D+00  2.89634136935827900D-01  5.28127680704038400D-03
78  2  4.21107000092015400D-03 -1.51686399424158600D+00 -3.32471269912017600D-01  6.60614944628639000D-02  1.91698352776564200D-01
78  3 -9.93463538193041700D-03 -1.81763717394634000D-01 -1.71365034780058200D-01 -8.88584240674633400D-03 -1.07081964900398500D-01
78  4  4.38359912400356300D-02  1.83972450724946300D-02 -2.29081455036262800D-01  1.15464916163457100D-01  1.11777742673918800D-02
78  5  1.31331549410572300D-01 -6.35922769549535000D-01 -3.40976823382328700D-01 -2.78854438725008500D-01 -2.04961425275484400D-01
78  6 -6.33450123546709200D-02  2.68306437630155900D-01  2.90995555680791700D-01  1.35819646766238300D-01 -5.59842175774973900D-02
78  7  2.76351287744880300D-01  5.75490077639584900D-01 -2.36748674464208200D+00  9.32324037157479500D-02 -8.81627169496520900D-03
78  8 -1.29112481215512100D-01  6.99210135564350000D-01  5.54034507979791700D-01  2.33358054904844100D-01 -2.21699271818604200D-01
78  9  1.13624452572598700D-01  1.08074819246007300D-01  3.67427022032019500D-01 -5.18040551070923900D-02 -6.42900374554028200D-02
78 10  5.25468517384715800D-03  2.98849515375932700D-03  6.81171552914816300D-01 -1.27477729499698100D-01 -1.98790618910737500D-01
78 11 -1.70320625023954800D-01  1.94440509414584700D+00  4.09981524062405100D-01  1.99433133582572000D-02 -3.95629880444619400D-01
78 12  5.26625714666712900D-01 -1.30995834222094500D-01 -1.78276476752472800D-01  1.09570328140456600D-02  1.77514822482139500D-01
78 13 -2.37706397628730300D-01 -4.38123153154192000D-01  3.46764431107256500D+00 -5.38844508879350100D-02  1.59868715874091800D-01
78 14 -1.92460397796132300D-02  7.28740590473862000D-01  2.13323777103163100D-01 -2.76616489324376100D-01 -3.11912384868780200D-01
78 15  4.90000676635925400D-01 -1.78088291767144400D-01  4.66591224032377000D-02  7.50238871449752800D-03 -3.42226603150436300D-01
78 16  6.70772276185567400D-02  9.61783809714821200D-02 -2.98820669227187500D+00  1.11717343833943400D-01  4.58716895833213200D-02
78 17  5.90348331313057700D-03 -1.48299820245177300D+00  1.10804018239224300D+00  2.39380283442017700D-01  2.67317623609649600D-02
78 18 -2.22411402315443500D-01  1.95679639954477900D-01  1.22913889870403500D-01 -7.26890442139424600D-02 -3.32521605677356900D-01
78 19 -1.12259136152773800D-01 -2.83830225813543300D-01  1.45289488965551300D-01 -6.98736893533633000D-01 -5.46067570824880800D-02
78 20 -1.10549079569112500D-01 -1.45003861947409400D-02  4.35061081633667000D-01  5.06566745163992900D-01  4.86145771110974000D-02
78 21  3.10864939150759700D-01  1.12775478219038500D-01 -2.74750132920242600D-03 -3.10654212110628100D-02  1.05335713881054000D-01
78 22 -7.42702926699922700D-02  1.53829073967189400D-01 -9.78467101094125700D-02  5.25669575454464700D-03  6.83865660028480400D-02
78 23 -4.52295719334791600D-02 -2.31569940693680000D-02 -4.78405787820509800D-01  1.24112603550175800D-01 -5.98179583519545600D-02
78 24  7.62110714671445900D-02  1.89093424194507600D-01 -4.58034603792935500D-01 -4.40967176907988000D-02 -7.64629461962024200D-02
78 25 -2.46912545668909400D-01  1.65922675891953900D-02 -2.42693971443564600D-01  3.67873146309755000D-02  8.27520816951493900D-02
78 26 -1.23772944079909500D-01 -3.72445283177193500D-01  1.14520102355433900D-02  5.88972986183759600D-02 -1.11533160680721400D-01
78 27  5.26358620623455900D-02 -1.50656076692457800D-01  8.20241954515291700D-02  6.22184402024210900D-02  1.30891976105802500D-01
78 28 -2.52934324120303900D-01  1.22042348014501400D-01 -2.42903006794431100D-02 -1.15988003116210500D-01  1.01916894666892500D-01
78 29  3.22202616385821900D-01  4.34323924064955300D-01  9.16813563704496100D-02 -1.11425275212730500D-02  3.11503329064666600D-03
78 30  2.15763714895899500D-01  2.75268515319090200D-01  3.56250169031073600D-02  2.19752108048004300D-02 -5.60997988547897400D-02
78 31 -3.67533543002838100D-01  3.51274612153721400D-01  2.17033018217997900D-02  1.64663073161888400D-01 -2.07905627947897600D-02
78 32  1.67080479577902500D-01 -7.87475640970973700D-01  4.80197829865226100D-02  2.98147054468146700D-02  9.55530895673554400D-05
79  1  1.12414210992887600D-01  3.53864619064535500D-01  4.32434341769178100D-01  3.20617469110249400D-01 -2.70338026643916700D-01
79  2  1.89104189195798300D-02 -6.38292746460029600D-01 -1.02448892400275700D+00  8.55977645714869100D-02  1.13475396274026000D-01
79  3 -3.40320364612378000D-03 -1.10072192627901300D-01  2.53448214118507200D-01 -1.16323166126063800D-01 -6.22049681471787500D-02
79  4  1.89064224964848900D-01  3.35264900767444000D-01 -1.28604656721651100D+00  3.36645969263289300D-02 -2.73202304865525500D-01
79  5 -7.67727316673943600D-02  9.02187309175036300D-01  5.81963688299424100D-01  9.56642454986850200D-02 -2.38460836366585900D-01
79  6  1.86942696822382300D-01  5.15181395442040800D-02  1.85650113966307000D-01 -3.04449589594557700D-02 -5.52400828842355700D-02
79  7 -2.02588846777707600D-01 -4.70574939323187400D-01  6.91503770504938100D-01 -8.80561680376139000D-02 -1.29587843224914800D-01
79  8  9.22696681311206000D-02  3.33580981680058100D-01  8.45933508853461900D-01 -1.46920723525836200D-01  1.15410787082916400D-01
79  9 -2.80688965708676400D-01  1.65278178625758400D-01 -1.99784162300275300D-01 -1.95237011829170000D-02 -6.51328063850135100D-02
79 10 -2.82554711039883100D-01 -5.09782281887214100D-01  1.57485334386297800D+00 -4.63571854549446100D-02 -1.83640606266290800D-01
79 11 -6.89515401474136600D-02 -2.46348048937324100D-01  6.54254342045422200D-01 -4.43869336695330700D-02  1.84882076833281600D-01
79 12 -4.09543803440822800D-02 -1.43927696489198600D-01  2.25025290938664600D-01 -3.65482686565472400D-02  8.25968022663162000D-02
79 13 -5.60001345185668800D-02 -1.18234642593940100D-01 -2.09623676700971400D+00  1.03947993415560100D-01 -7.08708713443498700D-02
79 14  6.94826878551353400D-02 -6.77745909357340800D-01 -7.57934993051996100D-01 -1.72923910595897200D-01  1.36099408574185700D-01
79 15 -1.60208935031152200D-01  2.41095264569662700D-02 -1.61155828462763800D-01  3.28605451014198600D-02 -4.34733177200855900D-02
79 16  1.33022166035121700D-01  3.18270269804031600D-01  4.43641270316270600D-02 -1.15909073236405100D-01  5.46892027339993200D-02
79 17 -3.67075499436921800D-02 -3.22030292939794200D-01 -1.41281167153504700D+00 -1.98250643732437900D-02 -4.17384430839980100D-01
79 18  4.42649453529682400D-01 -2.52650226897027100D-02 -2.57607854427196000D-01 -1.03257962917229900D-01 -1.79273126009006400D-01
79 19 -5.63964399757294200D-02 -1.03171531399330700D-01  4.69648312245147400D-01  7.91965837784068600D-01  6.32995015788338400D-03
79 20  2.63792759305129900D-01  4.14773201621016700D-02 -2.25306817534158900D-01 -6.22911423048538500D-01 -1.14294019471029400D-01
79 21  2.24908206840357100D-01 -1.52495037158284900D-01  1.39181482783436000D-01 -9.75148215522176500D-02 -3.78601884110634100D-02
79 22  1.35375009963280900D-01  1.08506519518165200D-01 -2.85907640426606200D-02  8.13848225292274500D-02  1.86665519042545100D-02
79 23  3.37200544385393200D-02 -5.23866063427936200D-02 -5.46050658579664400D-02  1.34185236371216000D-01  4.79111443859451700D-02
79 24 -1.34202549083257900D-01 -3.29359699426947400D-01  3.32707063884652600D-01  1.23788359651049300D-01 -1.29656535374652000D-01
79 25 -1.83816241881505900D-01  1.63994515103109500D-02  4.38973525686505000D-01  1.75481411216192100D-01  3.82561180081220200D-02
79 26  1.27118600431771400D-01  4.62945738860985100D-03  7.35915166537547400D-02  4.88911825958661600D-02 -9.51306826997777200D-02
79 27  4.62395001039116000D-02 -1.71784909696018000D-01 -2.18024802668791700D-02 -5.75959575418054900D-02 -4.02504972752667400D-02
79 28  1.12418934921540000D-01 -7.21684376462731100D-02  3.81282042101752700D-01  7.74490051483171900D-02  2.14819376197648600D-01
79 29 -8.73858811791081400D-02 -5.18824284634853100D-01  5.35261414418400400D-03 -1.05838993022965400D-01  8.53519929128921200D-02
79 30  2.54930552915619700D-01 -4.68337325523247400D-01 -1.74644990503086500D-01 -1.10558231357065600D-01 -5.14814650573511800D-02
79 31 -4.91196646298503200D-02 -2.26686535477128800D-01  3.50679673154391200D-01  1.63728700425749600D-01  2.69514806123509000D-02
79 32 -1.45053984581860400D-02  1.44314901642141100D-01 -1.18761763788554200D-01  5.76982057702352100D-02  1.35515236157934000D-01
80  1 -6.16690193144136300D-02 -9.52486594520081700D-02 -1.94925036341743600D+00 -3.59766642815053800D-01 -2.03389237567797600D-01
80  2  3.46499395161636700D-02 -1.67744913501951900D+00 -4.16473669461588600D-01 -2.58997697293468100D-01  8.72296992354142500D-02
80  3 -1.79749511925210100D-01  9.25198126897961200D-02  1.59021341870872400D-01  4.64805616964440000D-02  7.43045072339451100D-02
80  4  8.43951816527995600D-02  1.62736624252145300D-01 -1.54170737735617100D-02 -1.37987677107980500D-01  8.83360409140366300D-02
80  5  1.05829588859420800D-01 -2.04086276292552500D+00  3.25030056780782300D-01 -1.75639167960935800D-01  1.49099422619071900D-01
80  6 -1.23644141696570800D-01 -2.54552809225013300D-02 -3.60182846957996900D-01 -1.25740293465018400D-01 -3.49146855732476100D-02
80  7  2.06150229608092800D-01  3.97792472483699100D-01 -1.56265675117929400D+00  6.52077909622425900D-02  2.34482092729464500D-02
80  8 -1.11726197060875900D-01  2.15680398986480100D+00  1.09671958043441700D+00  2.51947093899732100D-01  6.15065002858843500D-02
80  9 -1.39720335523803900D-01  7.82138352379210100D-02 -4.68316402834296700D-01 -1.43980165152096700D-02 -9.73484427524215500D-02
80 10 -4.46797765425710800D-02 -7.00263115155036800D-02 -3.76647371694099700D-01  4.98492718366107800D-01  1.28022777549889400D-01
80 11  9.43355170007999200D-02  2.07676720380659300D+00  5.09085217954604300D-01  4.62728301615667800D-02  2.74182343867534200D-01
80 12 -3.23571250267050500D-01  4.93889063995176200D-02  2.03032977637667100D-01 -5.56719380145867700D-02 -1.98336387826936400D-01
80 13  4.57368743186439400D-02  1.40226299293986900D-01  6.06942705850166900D-01  1.98514567246400700D-01  3.02718559026324200D-02
80 14 -1.08226158860751400D-02  1.47401151355761000D+00 -5.02030401516814100D-01 -1.51868404133677300D-01  1.74810203806927700D-01
80 15 -4.77704928139358800D-02 -1.27039710992992200D-01 -3.39746197316582300D-01  2.24263665722105800D-02 -4.68242972400242700D-02
80 16  2.59738489421275100D-01  5.38570981109189400D-01 -1.03896965104447100D+00 -4.16919172878307700D-01  9.47151910273132500D-02
80 17  2.61213755648643100D-02 -1.17742652482551300D+00 -4.24106894784387700D-01  2.11348155864087800D-01  1.96532654420572100D-01
80 18 -2.02946154026022300D-01  6.41349960544853400D-03 -3.99507859049008100D-01  8.78445921167594300D-02  7.62432951264963600D-03
80 19 -2.62418054987493600D-01 -5.56870513384687400D-01  1.28302457535784300D+00  8.37779984979329500D-01 -1.28271122832096100D-01
80 20  8.58297016204508900D-02  5.68196331869080200D-02  4.56590485802207100D-01 -7.82763700099209800D-01 -1.27992275688706600D-01
80 21 -2.03443160854815000D-01 -5.43441040462118800D-01  2.78079113516811000D-01 -4.77269887848018900D-02 -3.36743982703025300D-02
80 22  8.14013870551038200D-02 -9.21314015771972900D-02 -5.03990565506274900D-02  5.19699112651115700D-02 -1.22746733233038800D-01
80 23  2.90276185930123600D-01 -1.67529452697084500D-01 -6.19973980749458600D-02  4.20249620117262100D-02 -6.62743085461233300D-02
80 24  9.21399034598084500D-03  6.20592312498598700D-02  4.73381883103295700D-01  5.45694881813832600D-01 -6.75831116811955400D-03
80 25 -7.46858871154038200D-02  5.80836239483119400D-02 -2.55354311589758000D-01  6.48122899623495800D-01 -2.16461379952948000D-01
80 26  1.36982905942074300D-01  6.61834551836621300D-02  3.31799821262505700D-02  2.01344199780076900D-01  1.16101092525382900D-01
80 27 -3.17445292305459400D-01 -1.06110561837952500D-02  6.90549124106630300D-02 -5.81549816488796100D-02 -3.21573012521000000D-01
80 28  2.49845457160803000D-01  7.17275553601970000D-02 -1.00041438511790700D-01 -4.37377615988587600D-02 -1.78575846276491100D-01
80 29  4.02280761619144400D-01  1.02412440155373100D+00 -1.31808125348942900D-01 -3.29200947470114400D-02  1.04851834933190800D-01
80 30 -3.73521434291523100D-01 -4.70218808880028900D-01  3.11516342865323200D-02 -2.72773911880005500D-01 -9.28269014773529400D-02
80 31  4.11137059262779600D-02  1.05829033272944500D+00  2.23364425983529700D-01  5.78920139045572300D-02  1.34165181371377200D-01
80 32 -3.88553825384730000D-01 -6.72280774740513600D-01 -2.54242708024939600D-01  3.79784644233682100D-01 -1.59215884381353600D-01
81  1 -5.36821111340523700D-02 -1.01265299050965100D-01  6.47800983161323300D-01 -1.63335782475257700D-01  1.54862249978955900D-01
81  2 -1.19300434469272300D-01  1.70956329508055200D+00 -3.61666426016591200D-01  4.24003565662929000D-01 -3.11221330752511400D-02
81  3  1.71118634745661300D-01 -1.39996501670408800D-01  2.65642250483190200D-01 -3.22623777437603200D-02 -1.56513532695751100D-01
81  4 -6.67667211427194600D-03 -7.39211762511260600D-02 -2.16817963567162800D+00 -7.67752272561578600D-02  1.50902781658885300D-01
81  5  3.15736988424241000D-02  1.32267681946827300D+00  8.00420900837160900D-01  1.80323489754628700D-01  1.07546931110954300D-01
81  6 -1.73707113581033500D-01  6.61601824700785400D-02 -3.55486422655850400D-01  3.28341334297276500D-01 -2.37548302442642900D-01
81  7 -1.88255194465254400D-01 -2.70417349318406400D-01  3.65052605461975300D+00  1.70878607891657000D-01  1.69791368534458700D-01
81  8 -3.70221246589268100D-02 -1.31332040655919800D+00 -1.25505816272283800D-01 -2.01425136587335000D-01  8.01144805289328200D-02
81  9  2.06465548304158200D-01 -2.86580028833093900D-01 -3.02697201721052000D-01 -2.30558686442755500D-02 -3.35426471205698800D-01
81 10 -2.31391234110588600D-01 -4.06103681456151400D-01  1.97647602918259600D+00 -5.68306174454430300D-02  2.19522169596280400D-02
81 11 -1.65047749089780100D-01 -2.41478537100570100D+00 -4.14710307990127700D-01  2.97721229427125100D-01 -1.06568024185526000D-02
81 12  2.35013951938724400D-01 -2.24357149520171100D-01 -8.06347703906884300D-02 -1.05919872610950400D-01  5.27679783982902200D-02
81 13  1.94238611526156600D-01  3.16471979818001700D-01 -3.32377337523500500D+00  1.77657707148859900D-01  1.77882040460109000D-01
81 14 -6.35192929216773600D-02 -2.46967278614207000D+00 -9.42772153846379900D-02  7.67289779669252200D-02  4.60619525391107800D-02
81 15 -3.48002336029867400D-01  3.01940383490757100D-01 -2.18231044400890200D-01 -3.09146817877462700D-02  1.00016205894070400D-01
81 16 -1.95521440720577800D-01 -3.72712801944418900D-01  3.02177679678382700D+00 -3.52450139421643500D-01 -1.11224859667095300D-01
81 17 -1.35995880653505600D-02  1.31435682356198600D+00  3.07648219556759900D-02 -1.89598070006613400D-01 -9.40992472072134000D-02
81 18  1.79236073003163700D-01 -8.51368257959483500D-02 -4.95014806633637100D-01 -2.85296606373252300D-01  6.29203715121153900D-02
81 19 -7.82770874179276900D-02 -1.79309011502787200D-01  2.51691906702165800D-01 -6.37070784418448900D-01  2.33449548806221800D-02
81 20 -4.61864501336540400D-02 -5.41393243563876400D-02 -3.95198631174546100D-01  4.06190522980740100D-01  1.58797112194593000D-01
81 21 -4.41192953023271300D-01  1.91182989186612600D-01 -3.55590846363244200D-01 -4.65747156101764700D-02 -4.57763320085173500D-02
81 22  9.23510476186939800D-02 -1.41511351459215800D-01 -1.07030751655393500D-01  1.11307375299255800D-01  9.95916761947673000D-02
81 23 -1.43701045412447600D-01  4.41093692176800200D-02  4.08489481799760000D-01  1.17949519099660600D-01 -9.56009872941984600D-02
81 24  9.10786125220688600D-02  1.80604734846465000D-01 -8.50621034952386700D-01 -4.65631511499852400D-01 -8.38020940464796300D-02
81 25 -1.47992196997842600D-01 -2.51411136227786700D-02  4.61377377867995100D-01 -1.42811523988302400D-01  3.62679952659548100D-02
81 26  8.08487113920394400D-03 -3.47645429445587100D-01 -1.23916896949227300D-01  7.28492880940573200D-02 -6.95390699569695700D-02
81 27 -3.31021813708844400D-03  5.22831200526690900D-02 -3.24495355527106200D-02  5.82323001235427000D-03 -1.17980801550495500D-01
81 28  1.45999758025985300D-01 -2.80189564754897400D-02 -7.41352093808357200D-02  1.35902890348513800D-01 -5.48974535731286300D-02
81 29 -2.00722115785419500D-01 -4.07338655109923800D-02 -3.49503925588381800D-02  3.73421127711949900D-04 -2.90030442541069200D-01
81 30 -3.87687107507873600D-01  3.53156853824276100D-02  2.49977015075576900D-01 -7.01578955754134900D-02 -8.63749983312957500D-02
81 31  6.35161327821704300D-02 -6.34891617305943200D-01  2.78254973581582900D-01 -1.11275469789547800D-01  4.42767963953344600D-03
81 32 -2.05140364189091200D-01 -3.53744631513081800D-01 -2.44039428012152900D-01  8.58559298763697500D-02 -7.08084058775915900D-02
82  1  9.40231193223928400D-02  1.27213365519428500D-01  7.97539152545476000D-01 -3.19767865195099900D-02 -1.28933573493654000D-01
82  2  2.14354954199120700D-01 -1.57252629856462900D+00  8.05688459338225400D-01 -1.37615309249250000D-01  3.41104332374982000D-02
82  3 -1.78153246153538200D-01  1.44042812916040400D-01  3.88824601787328600D-02 -3.62746924482884700D-02  1.47127852338788900D-01
82  4  1.13954559387744200D-01  2.14351882453191700D-01 -7.92577649903299700D-01 -3.51490780461155400D-01 -5.60133342195337000D-03
82  5 -7.64784466267676000D-02 -3.84997687385602200D-01  9.58832845968091500D-01  3.14326291725304800D-01 -1.50162928689287400D-01
82  6 -4.01770955970365600D-02  1.90340024286323700D-01 -1.21847752345822800D-01 -1.18431588232281600D-01 -1.78992230457045800D-01
82  7 -1.54714887924244300D-01 -2.65090326071417600D-01  2.34524654775646600D+00  4.47654986674894500D-01  7.05110169503340600D-03
82  8  1.20438116183282100D-01 -8.87334681534534900D-01  4.27550226336419300D-01 -3.27479612717742300D-01  3.12170798988913100D-01
82  9 -7.59182002113025100D-02 -2.36252598777610600D-01 -1.41328602749061400D-01 -1.07869235861711100D-01 -1.30118196635377300D-01
82 10 -1.86634932635685800D-01 -3.19913215246360100D-01 -4.32931777630172300D-01 -7.61101267951247600D-02  6.60719543672203500D-02
82 11  8.02794750194621000D-02 -2.68071157578613200D-01 -4.32020467226883000D-01 -7.30542443105450100D-02  1.99299424034264900D-01
82 12 -5.36926169299697500D-02 -1.45606807104294300D-01 -2.74226702350300200D-01  5.76482762122804700D-02 -1.10070028508081600D-01
82 13 -6.55706656368348500D-02 -1.80512688470738100D-01  2.27542485966410000D-01 -3.20144579266300400D-01  2.16363345170984600D-01
82 14 -9.72863332314271800D-03  1.01215210262822400D+00  8.08696142446835500D-01 -7.43489649772539500D-02 -2.79278448343867100D-01
82 15 -4.97799395941337600D-02  3.29058387938002600D-01 -2.28527990661699100D-01  2.96822183171476100D-01 -1.31033571218546400D-01
82 16  1.53679128611460300D-01  3.44779234201066800D-01 -1.50317491829951400D+00 -7.68565196020543200D-02  1.93738122025531000D-01
82 17  4.91849286228356200D-02 -9.16776190449270200D-01 -1.54483141894654700D-02  8.18136089057530500D-02  3.09493079747463400D-01
82 18 -9.29808981351448600D-02 -2.16512181612318300D-01 -4.38201961103322200D-01 -5.13246071834784400D-02 -1.59639332083299500D-01
82 19  8.34047738987165300D-02  1.84280547614583500D-01 -3.79540670362625200D-01 -9.64268193487105400D-01 -7.98097168338255900D-02
82 20 -1.59534940754980000D-01 -8.01120504386737000D-02  4.05177062393141100D-01  3.71511052295172900D-01  4.47760678255624200D-02
82 21 -3.55621389312826800D-02  2.44624364566440800D-01 -9.05291566850644200D-02  2.22547419181158800D-02  7.57449621651043300D-02
82 22 -9.79997040832210200D-02  9.93341046831435900D-02  8.31683824563748400D-02 -1.57838588232860100D-01 -6.26578306768391400D-02
82 23 -5.54133911745850400D-02  1.18071221851424300D-01 -2.64239563194420000D-01 -7.06560550171877700D-02  3.11981742173876900D-01
82 24 -1.23643946015125800D-01 -2.69509172940771600D-01  4.49035994138208900D-01 -5.42352415055357700D-01  9.14385657160720900D-02
82 25 -1.68390088116482700D-02 -6.54106196802372400D-02 -2.86909956891333200D-01  1.73820555546315600D-01  9.71567038076947800D-03
82 26  1.25900387785211800D-01 -3.88295676696008500D-01  9.88466970674063700D-02 -1.31580762373477100D-01  6.50305299006556000D-02
82 27  6.65502324728205800D-02 -5.13480927175930000D-02 -7.83499287212223400D-02  1.80320478221604300D-01  7.07770986792321400D-04
82 28  5.04021068527434200D-02 -5.11098778395357400D-02 -8.02380161909388700D-02  4.25339424938959600D-02 -2.35981725907128800D-01
82 29  5.55128587488310000D-02  8.22974909302042800D-01 -2.31534249292602900D-01 -2.97553479457187200D-01  1.56099815342018800D-01
82 30 -3.53423257899389300D-01  2.46252514444790000D-01  3.10178418165848600D-01 -2.10420438210183600D-01  5.60121139162490100D-02
82 31  4.88656290229117300D-01  6.30533862588110900D-01  2.05328787014646700D-01 -1.46028586536668400D-01  1.59953779482965500D-01
82 32 -7.46776572847002600D-01  1.41501778924887000D-01 -2.48256680390083400D-01  1.49576823415412100D-01  3.89004882610009500D-02
83  1  1.78989012101319100D-01  2.93551168235232600D-01  8.21703969297459300D-01 -1.24709912458093800D-01  1.34417905525193800D-01
83  2  7.30698608744024800D-02 -6.69247046936394000D-01  1.67633078198946100D+00 -8.98789565026843300D-02 -2.44305748404775900D-01
83  3  1.28060694833049700D-01  1.16245053571727600D-01  2.77441705861656000D-01  4.24669500381499800D-02  5.85174866117004400D-02
83  4 -2.04467358833905500D-01 -4.27404167323335900D-01  9.98505492292317100D-01 -3.03901711963227600D-01 -1.03982750867942500D-01
83  5  2.04615242255839600D-02 -1.30211825346320500D+00  2.54841341397555400D-01 -5.32242767474620200D-02 -3.05335284485043300D-02
83  6  3.61801267136405400D-02 -5.64659826513695500D-03 -3.08497327462009700D-01  1.95309655496323300D-01  1.08981002805292600D-01
83  7 -5.50093337297644200D-03 -5.57687226994919500D-02 -8.33944525705338400D-01  2.72303676699828600D-01  1.31695928389789300D-01
83  8 -5.33427530541761800D-02  8.76735480533061300D-01  6.57139419208612000D-01 -3.87321151847674600D-02 -2.46458609959462400D-01
83  9  9.41765530616087600D-02  1.52282056897852800D-01 -2.51565833305049400D-01 -2.27597040101466700D-01  1.60840904755377000D-01
83 10 -2.69229739652750900D-01 -4.67392416643589600D-01  2.96503359094437200D+00  1.88590272174176600D-01  4.73642679639384200D-02
83 11 -6.51785670975116400D-03 -3.09218502558770500D-01 -2.24265257210910900D-01  2.71433928712090800D-01  3.78634767238360000D-01
83 12  1.53197757837016500D-02 -3.93954543022061400D-01  3.91939640182076800D-01 -4.72108064921823200D-02 -9.91629549906933300D-02
83 13  1.14248226687506800D-01  1.94113474780082700D-01 -1.82266506789550000D+00 -1.61198410558987900D-01 -1.22525145666774800D-01
83 14  2.43582356058789300D-01  6.04598928898584900D-01  1.04028175542095700D+00 -5.76670095915698400D-01  2.26318434066552200D-01
83 15 -3.34375452032669800D-01  1.08057017966117100D-01  4.43447911666065900D-02 -1.47150676335520000D-01  1.30113592392304700D-02
83 16  3.33095614923225900D-02  6.14193532070250700D-02  1.58644202160642300D-01  1.65088084602860000D-01 -1.70926334415464200D-01
83 17 -1.86048163318280300D-01 -1.10141219165833100D+00 -2.49017264768653400D-01  4.43224622638932700D-01 -1.23705382944788000D-01
83 18  1.10045339750882200D-01  1.36600431939063900D-02 -6.73741222753064500D-02  7.47863075499014800D-02 -3.99007302971297000D-02
83 19  2.72352502664633300D-01  5.46127974998039800D-01 -1.70481650600570200D+00 -7.80923511830866800D-01  4.39299770824835800D-03
83 20 -2.66688876611489300D-01  8.82798966667333000D-02 -1.09466722735648800D-01  1.11288307140854200D+00 -1.60933510653365900D-01
83 21  2.29656921781371400D-02  1.09232313682139100D-01  5.84159061878301200D-02 -1.47125633866181000D-01 -1.63927350857513700D-02
83 22  1.63518368951932800D-01  5.16744399892431600D-02 -1.41041533859386900D-01  1.45547136815629800D-03  2.97560064345883000D-01
83 23 -2.07349716566505200D-01 -9.02103477793781100D-02  1.16389355180815500D-01  1.45442585815082400D-01  4.65751260337875600D-02
83 24  1.58257373379609300D-01  3.08326245896475200D-01 -1.18191068977746400D+00  1.93181936095304000D-01  9.56372523828103600D-02
83 25  6.32675968772012500D-02  7.60812747794168700D-02  9.51700962247532100D-02 -4.25621929639044900D-01 -2.73224466587897700D-01
83 26  8.70567883350658000D-02  2.83157381367938200D-01  1.98169571787490800D-01 -1.89779288089775600D-02  6.40422784283504600D-03
83 27  1.25737009661428700D-02  6.39795558283060400D-03  2.36143023942267400D-01 -1.76727528651654700D-01  1.17861551093179600D-03
83 28  8.45530255762054900D-02 -8.57316410871373200D-02  1.40734217533048900D-01 -2.03244549121775100D-01  1.56090949273805900D-02
83 29  6.18230919361478000D-01  2.30710638982702600D-02 -2.22874006799678400D-01 -3.24958850363338300D-01 -1.21289106750264400D-01
83 30  9.52918549543874900D-02 -2.20281775505453000D-01  3.56297041879177000D-03 -1.96131128376543300D-02  2.95382921073849300D-01
83 31  3.43265860031553100D-01  6.18664362315816600D-01  9.04302312340846300D-02 -1.72418281740255300D-01 -6.86346644563287400D-02
83 32 -6.92588785423828000D-02 -7.48799490779436200D-01  2.28141297305747100D-02  1.10139966299645300D-01  4.68628619712095800D-02
84  1 -1.94599385318237500D-01 -3.43149398517145800D-01  1.35253742857183300D+00  9.17962470652771300D-02 -5.11727060041007000D-02
84  2 -1.40215942137215700D-01 -1.12094549687756000D+00  1.58627530344429200D+00  2.99436014769459900D-01 -3.27903925431432100D-01
84  3  3.43962003403352900D-01 -1.60580779719213400D-02 -2.45574815755683100D-01  7.46988365811299300D-02 -1.14085544745093100D-01
84  4 -4.81685679874544100D-02 -9.14425185876753100D-02  1.57679396226577500D+00  1.46783154112685000D-02  1.52262166738592900D-01
84  5  7.52021491623669800D-03 -1.06413712515955100D+00 -1.09350957834542600D+00 -6.90319835737460300D-02 -2.72104602050312000D-01
84  6  4.10580319197375900D-01 -1.38475717147063300D-01  2.18179742145148800D-02  1.44207251700187700D-01 -9.44406306128655100D-02
84  7  2.10411566081734600D-01  4.33205336194242800D-01 -3.10496140854347300D+00 -3.31950217546160800D-02 -1.91828644271089000D-01
84  8 -5.48342882060154200D-02  6.50464635944635800D-01  3.10597425752269800D-01  1.32057903402953500D-01 -1.76954876078908100D-02
84  9 -1.91046149308427200D-01  2.08741636916317600D-01  6.43430869977343900D-02 -1.12174435719822500D-02 -1.81476846486840900D-01
84 10 -4.41982149922709000D-01 -8.74420843615671900D-01 -1.15119074004318900D+00 -1.14182271959117200D-01  7.09790330435090400D-01
84 11 -3.53698596882758800D-02  9.66204341138026700D-01  9.04527330678371200D-01  8.23112046044413400D-03  3.50965450578701800D-01
84 12 -4.22141111821184100D-01  7.11756612424828800D-02  4.87550668338339500D-02 -9.86218234959821400D-02  4.25036063547400800D-02
84 13  1.35118664602450000D-01  3.03723512527363800D-01 -5.87947667042997300D-01 -3.64054713718959600D-01  5.01301554318411000D-02
84 14 -3.33064283123021400D-03  1.13442988362165500D+00 -5.10838150223713000D-01  1.77630359448009000D-02  2.31931748654280700D-01
84 15  4.69971797528554600D-02 -2.78928928407136600D-01  2.23061164184798700D-01 -4.04527401603524200D-02  4.59303752715491900D-02
84 16 -2.48477714818036000D-03 -5.34976879232174900D-02 -4.14738512335360500D-01  5.12461080461133800D-01  7.73628378913643700D-02
84 17 -1.68302952026101000D-02 -7.81374244429869800D-01 -1.28291447208285400D+00  1.30229156606037400D-02 -4.50634022880646600D-02
84 18 -2.63787622489597400D-01  3.08851024777661300D-01  3.77749026879612400D-01 -1.38825673785524200D-01  1.11104863757402700D-01
84 19  3.24616661422315500D-02  7.20013721781969900D-02 -9.03023401200422900D-01 -8.63577019627204200D-01  6.27766639014405700D-02
84 20  3.13026004720578600D-01 -4.56491247120914500D-02  1.69937245561898000D-01 -1.52814816176155500D-01  1.32022407423778100D-01
84 21  1.03959774857028000D-01  5.79163836990071000D-01 -2.45691079614204200D-01 -3.72475946436535700D-02 -1.18491336011300000D-01
84 22  1.55738930654955600D-01 -9.94455880684638400D-03  2.09213569463631900D-02  2.99455019942458300D-03  8.33863891973577600D-02
84 23  2.07540877305639600D-01 -2.90927266502996900D-01 -1.24193644765182600D-01 -5.76886070882364600D-02 -3.53974924804315900D-02
84 24 -2.76075267794854400D-01 -5.07218642977026800D-01  1.77454477961572200D+00  9.60535293525676300D-01 -9.97541524903690900D-02
84 25  1.30969685906324800D-01 -5.13534404544309500D-02  1.29161682378824900D-01  1.20827215171460700D+00  1.20970581813409700D-01
84 26  2.03817091738896600D-02  5.78397529622070400D-01 -1.21926720986995800D-01  2.18679002799439700D-02  1.01362460009569300D-01
84 27 -1.23230360289512300D-01 -5.23771420732937700D-02 -2.50581756361750200D-03  1.50756200723311600D-01 -3.46627240846079300D-01
84 28  6.83546616340745800D-01 -3.36919375494666700D-01  2.16758487653547900D-01  7.32897094144634300D-02 -9.55776687726514600D-02
84 29  7.46271858483643600D-02  8.17926181504638700D-01  6.55700179696826600D-02 -9.44088073757695800D-02 -4.22703021827913400D-02
84 30  3.19325477235930500D-01  2.08330165437860800D-02 -8.61675829784358400D-02 -1.03267076705257400D-01 -1.41318829557666300D-01
84 31 -2.35420786407098800D-01  3.93828139666414300D-01 -1.75120543553749400D-01 -2.45374806439799900D-01  1.39130510437063600D-02
84 32  3.22085760496453300D-01  4.78183544341620600D-01  5.22327997526470300D-01 -5.91730581738736800D-02 -2.31740910110077200D-01
85  1  2.64899923097608700D-01  5.03080691890331800D-01  3.01108811470175600D-01  6.54220036460089600D-02  2.11510393217556600D-01
85  2 -7.07736679066075900D-02  1.15803456702056500D+00  9.81002424533102000D-01 -6.88491461913256600D-02 -4.03699654997472000D-02
85  3 -1.65500042292723000D-03  4.20249659226748900D-02  1.02114760981691900D-01  1.79668775876666400D-01 -1.47346154703387200D-02
85  4  2.00877160995497200D-01  4.13596931877080400D-01 -1.61346330511539800D+00  1.40671549317663700D-01  2.50295829567784000D-01
85  5  1.38161781412425700D-01 -3.47256337442771700D-01 -1.21688464109419800D+00 -5.96557226475218100D-03  1.23045022287977200D-01
85  6 -5.48702122764021900D-02 -6.81748100115743500D-02  1.17034974432144000D-01  3.16776763837947800D-02 -4.13855831477550000D-01
85  7  1.23913389697710900D-01  2.75498483469515200D-01 -1.47222514100061600D+00  2.41701530705404900D-02 -5.25707687359015800D-02
85  8 -9.51373805697532400D-02  6.99876524407984500D-02  9.68385781291847000D-01 -7.35920806376052400D-02 -1.91791827051407600D-01
85  9  7.89808162298450700D-02  1.12811010821563500D-01 -3.66408907882055200D-02  8.88864495359116900D-03 -3.52590651581978700D-01
85 10  1.24067416151725000D-01  2.97515018244801400D-01  1.40049806438088600D+00 -1.85675105784637300D-01 -4.02588172554119200D-01
85 11  1.54472964576388600D-01  1.27190335493792800D+00 -1.75965558947915700D+00 -4.12952396095200000D-02  1.91014547569354300D-02
85 12  2.08218686977641800D-01 -2.27320141734578000D-01  2.74875152834916300D-01 -9.50936953597300300D-02 -1.77637125283593300D-01
85 13 -1.46708231431091900D-01 -2.79422526382597500D-01  1.47571230598320000D+00 -2.23430055912452300D-01  1.67074748735053400D-01
85 14 -8.75433730671388300D-02  1.30613697626821500D+00 -2.18712310463420100D-01  3.60123226977040500D-01  1.86368385980202900D-01
85 15 -1.86259331427457100D-01 -1.09054552745341300D-04 -1.33489853533063900D-01 -1.91629140174872700D-01  1.08750698678933500D-01
85 16 -2.02448324930467200D-02 -6.80417675124706400D-02  5.50995529069590900D-01  2.34465060275470700D-01 -3.98431864800277300D-02
85 17  9.51857073795611100D-02  2.55666058803451800D-01  3.36687075632515200D-01 -3.50688393677564300D-01 -1.81947649630862700D-01
85 18  1.37426528415069800D-01  4.45211212157939300D-02 -6.60506451878908200D-02  2.46571787382607300D-01  1.27138951963144900D-01
85 19  1.57658375198506100D-01  2.78919527929173400D-01 -1.11407445347878000D+00 -2.06908733174843500D-02  1.35654984382750000D-02
85 20 -9.27733178025899100D-02  7.15807746804913000D-02 -2.25538630528448700D-01  7.44234240652218800D-01 -9.87578797658348200D-02
85 21 -1.75680909133222600D-02 -4.29351064004234000D-01  2.18169111637064800D-01 -2.19814563377362500D-02 -2.27652737048380800D-02
85 22  4.47467300425736300D-02  5.63407485696895500D-02  4.37891126797050500D-02  1.42225373584892300D-01  2.23863154816086000D-01
85 23 -2.35665179030782600D-01  1.18020242146976500D-02  8.32518121544427300D-02 -2.07647775136109500D-01 -2.97620845877097600D-01
85 24  8.38156155422843500D-02  8.18924565332974100D-02 -1.31531457681815800D+00 -1.40363560330788900D+00 -2.34637020908388400D-02
85 25 -1.24716759166970400D-02  1.68309515992910200D-01  9.02571753541703400D-02 -1.08106545309868300D+00 -3.93894023600201000D-01
85 26  3.23639142029780900D-02 -4.13707643483126900D-01  1.89609046635707700D-01  3.75755923858551900D-02 -1.30170261059397400D-01
85 27  9.25946686735426000D-02 -5.22481105501048700D-02 -4.36961227861757300D-02 -7.92474268307502600D-02  1.55561259841187800D-01
85 28 -2.35798855190967100D-01  8.02375953497793700D-02  2.34060415583671400D-01  1.09081612270435400D-01 -1.34774349348695500D-01
85 29 -4.45791919537337100D-02  7.93782512175692500D-01  8.44890389416200900D-02  1.40045471250975700D-01  3.45810627345755800D-02
85 30  1.45514003251090500D-01  4.36121031115801900D-01 -1.43220423996273000D-02  1.18720771030967600D-01 -2.73609447126486600D-02
85 31  6.05740655518133100D-02  6.42716526379054400D-01  1.11391356425921800D-01 -6.90344158107884000D-02 -1.75035755343484500D-01
85 32  1.84036293324972200D-01  3.17532030617375300D-02 -2.16081966028499000D-02 -4.09002384163207200D-01  1.68387837380591000D-01
86  1  1.45041874352981000D-01  3.46585323119734800D-01 -3.11645968852319900D-01  5.01391610507624100D-02 -1.66154441155717400D-01
86  2 -5.86645524859757900D-02  1.33074663781971100D+00 -6.75534360598286200D-01 -2.77406062619211400D-01  2.66339198219754300D-01
86  3 -2.70839971451120900D-01  4.50077323136621000D-03 -1.07844891564725500D-01 -2.87657811064161200D-03 -8.73754933579513300D-02
86  4  1.29241916440027700D-01  1.31451621294344800D-01 -3.51650292414057400D+00  7.83816874557823100D-02  5.87834806246853500D-01
86  5 -9.10413652912070600D-02  7.12862473047777800D-01 -2.63627087748325500D-01  4.03113029888618300D-01  1.48953191452693100D-01
86  6 -4.20785138797319900D-01  2.71831947344627000D-01  1.79996372969537800D-01  5.54344617340934100D-02 -1.83086690512330100D-01
86  7 -2.15026983985464200D-01 -2.97884320981494700D-01  3.62504445103910100D+00 -1.75141335198727700D-01  3.99483158901976700D-01
86  8  7.42202880827628900D-03 -9.07953771581012100D-01  1.13441128765361100D-01 -3.53623428410313700D-01 -1.06298653557774700D-01
86  9  5.20593627414332300D-01 -4.14294973856557600D-01  2.67745095029554000D-01 -6.64940017348090400D-02 -1.78653849225102200D-01
86 10  4.31905503533546900D-02  6.08011608145397900D-03 -2.93689473859587900D+00 -1.26162820691297400D-01  1.22465962432192900D-01
86 11  2.82564046378104400D-02 -7.61413961733234600D-01 -2.17640390646231700D-01  2.39657156303408900D-01 -1.15033903759562200D-01
86 12 -1.27677773242958400D-01  2.42711677002521200D-01 -2.07023232802777900D-01  6.36687036032978200D-02 -1.30170537003185800D-01
86 13 -1.89697590827313900D-01 -4.28696430568537300D-01  1.35012435133529700D+00  1.06077958571140500D-01 -1.47428436394456400D-01
86 14  1.69604696809156200D-01 -9.29571421084762200D-02 -1.24856627203764400D-01 -4.75507514404871000D-01  2.95917956763728300D-02
86 15  3.99640640108615400D-02 -6.95558596872314500D-02  8.47243437760565600D-02  1.03217232191591900D-01 -1.08425516630633900D-02
86 16  1.26927910153268900D-01  2.84069173785910300D-01 -6.99926630114045300D-01  8.29123681728039400D-02 -1.69129290582532600D-01
86 17 -1.86538145639004700D-01  3.45371896926038500D-01  1.00852163472749500D-01  5.50914611224878700D-01 -3.51240208242345000D-02
86 18 -3.01276080791415600D-02  6.52516289033755900D-02  1.38270403030235300D-01 -1.26893058101729300D-01  4.55053430586999400D-02
86 19  4.75040675076857100D-02  1.19942718406652600D-01  1.69263606717247600D-01  1.04821340251627200D+00  3.24946144726079200D-02
86 20 -9.20170453589115200D-02 -3.46560844322252900D-02 -2.38059008067239000D-01 -2.33921476300210400D-01  2.33329380744764600D-01
86 21  5.21716262626804000D-02 -6.49395807153907200D-01 -2.06860782783609900D-01 -3.24887808061211800D-02  2.07759258746663300D-03
86 22  3.04111882186543900D-02  1.41981548784244600D-02 -1.79276164899997800D-01  1.76309871056567000D-01 -6.49554640373493800D-02
86 23  1.69406955229124100D-01 -1.04451491191774100D-01  1.76413403731024900D-02  1.76506842672323700D-01 -2.37974538450676300D-01
86 24 -1.57929467320251300D-01 -3.06855244855494100D-01  1.04530062240169200D+00  1.75387541310033300D-01 -5.15485905843748500D-02
86 25 -1.09219153087330800D-02  1.20376157505911600D-01  1.39498622014122200D-01  5.95858133171761700D-01 -3.48656999355036500D-01
86 26 -4.07068676943999800D-02 -5.48533352653110500D-02  2.28624001445399000D-01 -5.40442437911761800D-03  7.71757241291089500D-02
86 27 -7.17712997499920200D-02  5.08320154780864400D-02  2.78434202713703200D-01  1.50343736398627700D-01 -1.17393427962853000D-01
86 28  5.68063620217920700D-02  6.05870659410609800D-02 -9.97751172702045500D-02 -3.13346327310096400D-01 -1.37026027748986300D-01
86 29  1.74391817849637400D-01  1.66430407647502300D-01  1.22719565085556200D-02  6.70071141773528200D-02 -1.43979763371980000D-02
86 30  8.48633120923732900D-02 -4.41455216768450300D-01  9.91460424940862300D-03  4.18023621508386600D-02  1.22267489662909900D-01
86 31  3.72175377864851600D-02 -7.05516379051111400D-01 -1.39427577694602900D-01  9.67883558280082700D-02  7.11506995740428800D-02
86 32  1.01944140670123600D-01  6.42767947038962600D-01  3.12228341498890700D-01 -3.95259575707175300D-02 -1.77994081017126800D-01
87  1 -3.10018269570640700D-01 -6.21238499920018600D-01  2.60706865462747600D+00  2.70611835679524700D-01 -7.03414154765316000D-02
87  2  1.51909478891193300D-01 -1.40128399139359500D-02 -7.52796422070925000D-01 -5.38453359707618400D-01 -1.60274119126428300D-01
87  3  2.27251090220278500D-01 -6.69769710938499100D-02 -3.87895389797277700D-01  9.99391350123436200D-02  1.21743406430261400D-01
87  4 -7.32403517587460900D-02 -2.42636119633163400D-01 -5.55440585966178100D-01  4.74538025039670400D-02  2.12361618123959600D-01
87  5 -3.23441990343912900D-02  2.15588236115097000D+00  2.21323620722077000D-01  1.39380073150963700D-01 -1.47422682633468200D-01
87  6 -3.20222755203348400D-02  1.79444958153803400D-01  2.14239449931499300D-01 -6.43558186030447800D-02 -3.16670857010370500D-02
87  7 -2.77780034409780100D-01 -5.35464432315701700D-01  1.93305204284789200D+00 -1.86207671907004000D-01  4.28118609876356200D-01
87  8 -1.74598943329215100D-02 -1.44764265686523300D+00 -3.47671587747616200D-01 -1.20775351382245900D-01  5.63569624518062800D-03
87  9  4.71705560140629600D-02 -5.28062522592445900D-02  1.39099143134078900D-01 -1.43530495323345800D-01 -2.62417957333688000D-02
87 10  2.41355115550759500D-02  3.58562477605320500D-03 -8.56483256726612300D-01  2.77375677271618600D-02 -5.32898012429409800D-02
87 11  5.44300752102037800D-02 -4.49337207633254000D-01 -6.48836449032168200D-01  3.90500009367563600D-01  1.89669570677856300D-01
87 12 -1.47099092231572100D-01 -4.25704784462842000D-02 -1.25449771317204600D-01 -7.82740868026657200D-02 -2.15828411931556100D-01
87 13  5.99475289928119000D-05  3.03029530791367400D-02 -1.64030255917094800D-01 -1.72973843145529400D-01  7.63137213981372000D-02
87 14  9.40853998899870000D-02 -1.86613288628077700D-01 -6.83030369580920600D-01 -4.96995527454899200D-01  2.05783375955887400D-01
87 15 -1.29316296395045900D-01 -7.64670795608400300D-02 -1.73507851713109400D-01 -9.66204971030158000D-02 -2.48004126954518000D-01
87 16 -5.67560366790473600D-02 -9.34177045558254200D-02  2.96241557367407800D-01  6.39024848524843800D-02  1.20201811219574200D-01
87 17 -1.18194334510846500D-02  2.07373879898184200D-01 -4.45392289400682200D-01  4.80012314847698700D-01 -4.70946747493677700D-02
87 18  1.33087692970109300D-01 -8.59930182207407500D-02 -3.14357541352085200D-02  1.70670769401284300D-01 -2.27690591768206100D-01
87 19 -2.91456592981215700D-02 -4.89424982720547600D-02 -4.33290626193728000D-02 -1.97179734574929900D-01 -1.42687469836619700D-01
87 20  8.37258465733276300D-03  5.01099393490963600D-02  4.54367168483078700D-01 -4.88095626266584000D-03 -8.95779917699652300D-02
87 21 -1.37400382314553000D-01  4.11724985780298500D-01  2.68977452856479200D-01 -6.02174757123899800D-02  1.27289419375242500D-01
87 22 -6.70719436628527800D-02 -8.61425649307243800D-03  1.75162957365708500D-01  1.44949562740276000D-01  8.90179474201320100D-02
87 23  3.36626406912482400D-02 -1.22680588111380200D-01 -1.83246008547676100D-01 -1.97734578822829200D-01 -9.04481443407429000D-02
87 24  1.18104875112748800D-01  2.69851695077298900D-01 -2.51267599138333500D-01 -7.61532994986447700D-01 -4.82526519456592000D-02
87 25  1.13808573923325400D-01  1.07033605655008300D-01  6.56095996456233500D-02 -2.56680563233290700D-01 -3.97606135640823000D-01
87 26 -4.04250885752499600D-02 -3.68311132115430900D-01  1.12493499907788000D-01  6.45874875790026900D-02  6.57478478226930900D-02
87 27 -1.30335335401696500D-01  1.07155869913214600D-01 -2.32923849453406200D-02  1.14567172270396500D-01 -1.89491963923486500D-01
87 28 -1.12983810112234900D-01  3.02475774035721300D-01 -2.65820262964137000D-01  7.13418477797085900D-02 -3.14212474692055000D-01
87 29 -2.07591999324033800D-01 -1.05642228032349600D+00  6.37618269199476400D-02  1.96007379922997000D-01  1.69042181837400900D-01
87 30  2.83873005382243000D-01  2.09683709944097800D-01 -1.96437350555299100D-01  1.43623268858948700D-01  7.56132914635040100D-02
87 31 -3.54111224465594900D-01 -4.05222098853676200D-02 -7.82083788918720000D-02 -1.40512669804294600D-01 -7.54534719642166000D-02
87 32 -3.43991757410390000D-02  2.21626852234284800D-01 -7.38303986880053500D-02 -1.44865791624721600D-01  3.10331205682742300D-03
88  1  1.81634202336063100D-01  3.61205064106143900D-01  4.29552729428125800D-01  1.40456679039986500D-02  3.95877650674478300D-01
88  2  1.77600253980041100D-01 -1.29669350351585900D+00  9.78464038442836400D-01 -1.02927163823661700D-01  1.45205368542349700D-01
88  3  4.90830849135774700D-02 -1.94288453455926100D-01  2.92674989939976800D-02  2.57750280266916500D-02  2.37357422952857900D-01
88  4 -7.25947271984138400D-02 -1.37000467204665600D-01  6.44025813876108500D-01  1.71529148841109100D-01 -4.26174991572852500D-03
88  5 -1.26817155341870200D-01 -1.88173876907756300D+00  1.45313812152545400D+00  2.80265171115305600D-01  1.22959319018392200D-01
88  6  4.95063370024578800D-02 -1.72465656020850600D-01  5.70203737789527200D-01 -6.66024108215030700D-02  9.61194148983275200D-02
88  7  3.31395265294456600D-02  8.94948719979180600D-02  2.88333402789847800D-01 -9.56903212836414700D-02 -5.70731284062736900D-02
88  8  1.63737950269735100D-01  2.21627824125722800D+00  1.02445620567102300D+00 -2.70199360880734500D-01 -6.06049944792647600D-02
88  9 -4.26956183705104000D-02  1.03300612849775200D-01  3.89563565727230200D-01 -7.84350003486238300D-02  5.37147892397772500D-02
88 10  1.31120823274692000D-02  5.43180950603240400D-02  1.63568757794841900D+00 -6.85669595316058800D-02 -2.06878264695371700D-01
88 11  2.90505282559486600D-02  7.09867779687923000D-01  6.54181639977624200D-01 -1.85172411579728000D-01 -1.75208813471768100D-01
88 12  2.30944352075571100D-01 -5.57355386038043700D-02 -3.96357882614426200D-02  1.81595146657348300D-02 -9.09229725685763000D-02
88 13 -5.82615812480976000D-02 -1.02954741828333900D-01  7.16496763907431700D-01 -2.27292973011340900D-01 -2.72189343985897800D-02
88 14  5.41068780650484800D-02 -4.17890630651357000D-01 -6.07716628759165200D-01  1.50047801738946000D-01  2.18616564609668900D-01
88 15  1.62692205743918700D-02 -2.34885785184060900D-01  2.06626227986859800D-01  2.89462545090960600D-01  3.99873248928171500D-01
88 16 -4.80921082020784500D-02 -8.76999007434089700D-02  3.23906362268420600D-02 -1.34486919683083500D-01 -1.70304647736706300D-01
88 17  1.24856611892659700D-02 -1.86242482763063700D-01  4.55519295892637100D-02 -1.13634129222066900D-01  2.55755392672348800D-02
88 18 -1.25150009300599400D-01  9.95744700333644600D-02 -8.52879498089560200D-02 -1.48715731951573700D-01  4.85464811425733900D-01
88 19  1.79667863460480100D-01  3.28673005302405100D-01 -1.02171859133504400D+00 -1.44370818641680300D+00 -4.24659735131410600D-02
88 20 -4.92773355899838500D-02  1.77147442829052900D-01  1.98716743575249000D-01  1.00606011659925900D+00 -4.63750757989997000D-01
88 21 -8.64173983204339200D-02  6.09037901632536300D-01  3.10418288329731700D-01  1.40540068789873500D-02 -1.31149910926168700D-02
88 22 -9.39015786370371000D-04  6.08995382155456100D-02  8.66363203335080300D-02 -2.30360183162622000D-02  5.09881311454765300D-02
88 23 -3.82074704529390400D-01  3.31086573383914600D-01 -8.57188416479059600D-02 -1.25108915796015100D-01  2.75473976242732200D-01
88 24  9.55292860693386200D-02  1.87452629174948300D-01 -5.85779490109998200D-01  5.21532238083200700D-01 -9.64653014833629800D-02
88 25 -9.53927949073288500D-02  9.76528442854439300D-02  1.74827693612220500D-01 -2.28422470466977100D-01 -2.23391909181980000D-01
88 26  4.98883666519594600D-02  2.02103874779481400D-01  3.43864554429325600D-01 -2.63733539466356900D-02 -7.00892541346074500D-02
88 27  9.64626080812430600D-02 -1.43396835063273600D-02 -3.48661340186928000D-02 -2.92515485300563300D-02  1.82252343645838700D-01
88 28 -7.78295411086427400D-02 -1.04422802537196100D-01  1.08194985105390300D-01  3.94644061367505900D-02  9.97544993362084500D-02
88 29 -4.11175875461082900D-01  6.28298915730464500D-01  4.37093212279767700D-01 -1.05139898194300500D-01 -5.19108857072601400D-02
88 30  4.05385523864706200D-02 -1.02588559942077500D+00 -1.01982059096532800D-01 -1.93066262151341300D-01  6.66892684181073900D-02
88 31 -6.21831739641038200D-01 -4.42108198882836500D-01 -2.59167786897175200D-01 -1.20564289869662600D-01  2.50403310900437000D-01
88 32 -1.42902167314928100D-01 -1.41234371004369500D-01  6.94658818899030900D-02  5.38127295412447300D-02 -3.49538686912348900D-01
89  1  2.03674819372863900D-01  3.75282036288947900D-01 -3.08941695603702600D+00  2.88886566898262000D-01 -1.99314162920037100D-01
89  2 -2.86348614875579300D-02  1.33047121661633800D+00 -1.18118534092828200D+00  3.09627213366947200D-01  9.46040228654567700D-02
89  3 -2.49827865314172800D-01  1.55223842448716300D-01 -3.11009131042346300D-01 -3.42657089968604500D-02  2.28001297997125500D-01
89  4  4.59254447577417000D-02 -1.28032782277729000D-02 -2.78792056932978700D+00  1.76845587335491000D-01 -7.64174352606611000D-02
89  5  1.41762645676890000D-01  3.78944640530440300D-01  2.64189996147199300D+00 -3.25754976183997500D-01  2.06048606488469500D-02
89  6 -2.67348197172827500D-01  2.46743336523980300D-01  2.89757050686209400D-01 -2.93871406510195000D-01 -2.37662394263230400D-01
89  7 -4.23711945888858800D-02 -4.37491642679613500D-02  2.75464846930535800D+00  1.08576974486487500D-02  2.09706468204931200D-01
89  8 -1.83420660697134200D-01  4.63246773978423500D-01  2.02494190954734900D+00  3.05376282820973700D-01 -3.53383026788396700D-02
89  9  1.28914590676199600D-01 -9.35762879973594800D-02  3.80834334854584500D-02  3.34204459478654600D-01 -2.70088182491008200D-01
89 10 -3.32010702016378100D-01 -6.05291427970807400D-01  3.35981316958748000D+00  2.92030325852255900D-02 -5.27195376494326600D-03
89 11 -1.04090098366431500D-03 -1.03154126589543600D+00  2.03397966820895100D-01  2.79428181443380300D-02  1.64832846850147800D-01
89 12  1.09680939559779800D-01 -2.74513786409928200D-01 -2.64812202806482900D-01 -1.24322732475302600D-02  1.52676818394022200D-01
89 13  5.21884091172749800D-02  7.45024567690942400D-02  6.82428500990089100D-01 -1.87583130541738300D-01  3.78431210093308100D-02
89 14 -1.18265617694359500D-01 -1.52757305472253400D+00  2.36294425086069000D+00  4.07257549677074800D-01 -2.34771939780293200D-01
89 15  2.48404831415614300D-01 -1.36328916353216600D-02 -1.26498751428625200D-02 -2.28238310548431800D-01  1.73171730448914600D-01
89 16 -9.46859768590546900D-02 -1.18793964148113600D-01 -3.14260336995096600D-02  2.27504419092322500D-02  1.29139599884984400D-01
89 17  1.06595598964827000D-01  9.51343733986813500D-01  2.90266931635215500D+00 -4.81049574538892100D-01  3.93054073087905600D-01
89 18 -2.28585532130968700D-01 -1.64468540956937000D-01 -1.29802824741920100D-01  1.23386729587559700D-01  1.62052020676644300D-01
89 19 -1.16163422370349400D-01 -1.93325692303183500D-01  1.52456438602362300D+00 -3.46618212149036800D-02  1.35572390641303600D-01
89 20 -1.07157498185605400D-01  5.91853020093265100D-02 -3.99080260904816100D-01 -4.34056191040417900D-01 -3.09818272768799300D-01
89 21  2.59066712455891400D-01  1.46722221600785700D-01  1.89064765261706200D-01  2.72849053289418100D-02  1.26289324806409200D-01
89 22 -1.53574230135353800D-01  1.67298710786541900D-02 -1.57074411103029600D-01  6.50935070678096100D-02 -2.31230265290173500D-01
89 23 -6.78466910926665000D-03  2.38014934399439700D-01 -1.68742561313200100D-02  1.76171515413753500D-01  1.07160005396865800D-01
89 24  8.05213847363941600D-03 -2.37206274762229400D-03 -5.23489406646085300D-01  2.64568392771563600D-01 -6.85459222408574700D-02
89 25 -3.54751388430193200D-02 -1.31849722303860500D-02  1.53235978136603300D-01 -1.28554482314526200D-01  1.31068728827055300D-01
89 26 -1.36474967801979800D-01  1.31892891489229700D-01 -2.42247594996137500D-01  2.66943626081743800D-03  2.56119937201083300D-02
89 27 -2.82814299809264800D-02 -4.50865342581564700D-02  1.68255010322182600D-01  7.34897755276295000D-02  5.35818546384535300D-03
89 28  1.00185899756106300D-01 -1.05544085219951500D-01 -8.10006379650759800D-02 -1.29210910107376500D-01 -5.97655889294822600D-02
89 29 -8.38553120260422700D-02 -1.03554790562786100D+00  2.15080029167290300D-01 -1.11719829092884300D-02  2.81738487401315100D-01
89 30 -1.60610311711200000D-01  3.78999739604465800D-01 -8.15688125374853100D-02 -1.04097431428371100D-01 -2.90267504565821300D-01
89 31  1.75777210028281800D-01 -4.07713168079973200D-01 -1.12738859915826700D-01 -1.62863676641226800D-01 -1.26641923913352400D-01
89 32 -5.94972542375700200D-01 -2.02154880516412200D-01 -1.55080971449032200D-01  1.46604285627567200D-01  1.02451805464257700D-01
90  1  2.18319468619504900D-01  4.99497596774346300D-01  3.09707891795174900D+00 -1.38059674415887800D-01  3.57486723641849100D-01
90  2 -5.38531986646057800D-02  4.71743741023865600D-01  8.50168380518501600D-01 -1.56438798189313600D-01  7.52524409578267900D-02
90  3  1.72883703532903600D-01 -2.48136144490731200D-01 -1.16910323892161900D-01  1.95747575326788700D-02 -5.19254619406961500D-02
90  4 -1.43760682252618300D-01 -3.96758415485802100D-01 -1.99892543263673700D+00  9.57295735612264200D-02  3.58307333276793000D-01
90  5 -3.88246217141800100D-02  5.04868132750543700D-01  1.37218949600034900D-01  1.88147659771390800D-01  3.75242085483305600D-02
90  6 -4.09840118154317200D-01  3.72315909605986100D-01 -6.94927291085621500D-02 -1.04167394117537500D-01 -1.63412283350625700D-01
90  7  1.91894306790477300D-01  4.72587669057771200D-01  6.36628734823002600D-01 -8.65741861760597000D-04  2.03176903678440100D-01
90  8  9.01460810831739700D-02 -3.16199048341017000D-01  1.35376986594277800D+00 -1.85692393967618600D-01 -3.24816738882618200D-01
90  9  5.69944194723562900D-01 -2.45127455840944400D-01 -1.68245671020032800D-01  1.15218897121649200D-01 -1.33602927901876600D-01
90 10  2.69454259312531000D-01  4.75303941880260900D-01 -2.67419792969535100D+00  1.93392568599032000D-01 -1.29395698516508100D-01
90 11  5.35566222986924800D-02  2.65199806616215600D-01 -2.35634216103312300D-03 -6.21926734142317800D-02 -2.55459301254849600D-01
90 12  2.78102635746416500D-02  2.27649037680208900D-01  4.70028662171318900D-01  1.75144044762820500D-02  5.41034845500112900D-02
90 13 -2.87088014767867400D-02  1.66388500865148900D-03  1.84580762610098400D+00  4.07465189162680100D-01  5.64832191095927700D-02
90 14 -4.34518383609994700D-02  5.72007390742060500D-01  7.96120199641987200D-01 -5.68170366267421600D-02  5.82645836580931200D-02
90 15  3.95221548363123200D-03 -6.22167991417220700D-02 -4.79701107967123400D-01  3.07734665882995400D-02 -1.82595959054089200D-01
90 16 -1.58760916789920700D-02 -6.92947695628029200D-02 -9.01358350282722600D-01 -1.84499405924688000D-01  7.25470241353645100D-02
90 17  2.43327689037914500D-02 -2.91787520129409200D-01  1.07955275289687100D+00  1.20970228257632000D-01  1.14356206611641200D-01
90 18 -1.01726992008420500D-01 -1.26292146032204500D-02 -3.44529029404823600D-01  6.17361506762925900D-02 -1.79593644949049600D-01
90 19  1.70928758379574900D-01  2.79931242303672800D-01 -1.40403643043444200D+00 -1.70693029280845900D+00 -9.54366287259746900D-02
90 20 -1.58281199474664800D-02 -7.10400674991927800D-02  1.79706253596700900D-01  1.24466177957524600D+00  1.99622266352910000D-01
90 21  1.32388993252225100D-01  8.20481843569266500D-01 -8.26491226635716900D-02 -1.32926042979799100D-02 -1.19023905814242500D-02
90 22  2.51949948794042800D-02  4.23356819755968200D-02  8.45672895115805500D-02  7.93385462327172300D-02  1.87099336687210800D-01
90 23 -5.62643149913704800D-01  3.75543813226494800D-01 -2.49838229189192500D-01 -1.14885275858245700D-01 -1.47923603405061400D-01
90 24  1.40188177300739200D-01  3.00169361677148000D-01 -5.00320604880397100D-01  2.16321044980826400D+00  1.32448292032037700D-02
90 25  3.55393500490102900D-02 -1.07871171264136800D-02  1.84894949314852400D-01  1.81785257754018400D-01  4.33608333198803500D-02
90 26 -2.61953241466511000D-02  1.25457386787827700D+00  2.78046269938496200D-02 -5.29976745078784400D-02 -9.15207195314714100D-02
90 27  1.44518394039349500D-01  7.14187756823943500D-02 -1.43607073129112400D-01  1.15285150893019500D-01  1.69175946248474800D-01
90 28  1.18407923207797700D-01 -2.87583869456272600D-01  1.95054041180340500D-01  1.10995907998700800D-01 -3.15523327769021600D-02
90 29  2.09630717764194600D-01 -1.89889107274787000D-02 -1.77806621625157400D-01  1.48952656510384300D-02  1.07067112318460900D-01
90 30  1.90601777306207200D-01 -1.05605941502458700D-01  7.75288408617005000D-02  5.83089184156938100D-03 -1.49646962797160700D-01
90 31  5.43936304425641000D-01 -4.38449669273801800D-01  3.03634573184901600D-01  9.39597587194662000D-02  2.59179127203293200D-02
90 32 -5.27129092709231000D-01  2.25568028172069700D-01 -1.96707764766326400D-01 -1.08768782150589200D-02  4.75475489840508200D-02
91  1  1.58663552882162200D-01  2.48947082974071700D-01  3.30731789526001000D-01  1.19159064536082500D-02  5.81979835069235000D-01
91  2 -3.14961380442604200D-03 -4.62135136393365900D-01  2.90302246927246200D+00 -3.57940784049795800D-01 -4.14923008131855500D-01
91  3  5.24117687872408200D-01 -1.09194679740551900D-01  2.44782241904696500D-02 -6.31687349020169500D-02 -1.19140418757019600D-02
91  4 -1.61822600399882100D-01 -2.48715242930431600D-01  5.59708747095643600D+00 -2.58487233665362800D-03 -3.56468197989611400D-01
91  5  4.40747777422290300D-02 -1.89984089682358800D+00 -2.39773572050101700D+00  2.38827067911955900D-01 -2.12690600914226100D-01
91  6  4.78012559810275600D-01 -2.65321958896049500D-01 -2.10008751033759300D-01 -2.56160291908250700D-01 -3.82823289577140200D-01
91  7  8.68721623835943100D-02  8.62551024784605600D-02 -4.72329386381656000D+00  2.14463568200041400D-01 -1.56545548818754900D-01
91  8 -6.78004403570899400D-02  1.97849745886782700D+00 -3.12703602612831500D+00 -1.64717422882937700D-01  3.59968765945000300D-01
91  9 -6.01096567717729200D-01  2.41127801772725900D-01 -3.43039762216055900D-01  1.92839906819125600D-01 -4.01372117801620600D-01
91 10  1.33793159688354800D-01  3.03716277999447600D-01 -4.21557136417182500D-01  6.74541999708751400D-02  2.83851074830456000D-01
91 11 -6.46968196944868500D-02  4.84581289909110300D-01  3.25335005795345500D+00  1.16390389757612600D-01  5.09704415152894000D-01
91 12 -6.16163647392637600D-01  1.06459232239744300D-01  5.74978931080777700D-02  4.90372319278759600D-02  1.03795498078496400D-01
91 13  2.38029828655618600D-03 -5.56245615970596700D-02 -3.63280145915373300D+00 -1.74348905228018300D-01 -3.40368895563393900D-01
91 14 -7.69189632110276300D-02 -1.11889326832491900D+00 -3.52866890864703200D+00 -7.03230256867181100D-02  4.20266913755810300D-01
91 15 -5.11016232577887400D-01  9.07493188220741700D-02  6.74904224201920400D-01  1.15169203738974000D-03 -1.96763526130707000D-01
91 16 -4.75318511565736900D-02  8.47232298669235400D-03  4.81705127198051700D+00 -2.74494774984952800D-02 -3.01854412441079600D-01
91 17  4.03733730050278800D-02  4.97503654756450800D-01 -2.81436009889522200D+00  1.37327293908613600D-01 -1.79000023096117800D-01
91 18  4.31765472890321400D-01 -2.52765449794203500D-01  4.39304005905318700D-01  6.72081238219898700D-02 -1.92220840064418200D-01
91 19  2.40062777126521400D-01  4.12775799832382400D-01 -2.36660371760351400D+00 -8.33544610083445900D-01 -2.40765041153292800D-02
91 20  3.11429627111577700D-02 -8.85134352140531200D-02  4.35252600555146400D-02  1.25048139838158700D+00  2.25036342076543200D-01
91 21 -3.50477864138282100D-02  1.60883126978012900D-01  1.40893262671902000D-02  6.90749981484317200D-02 -9.26455858187220800D-02
91 22  2.35705876702961700D-02 -2.09866782301091400D-02 -1.22154979123111700D-01  1.30463652126510100D-01  2.30202619312381400D-01
91 23 -4.19058906294515400D-01  1.88856286982134100D-01  7.69783848765979700D-02  1.53371902424676000D-01 -2.12170563904841200D-01
91 24 -1.61355856448059200D-01 -2.90131733537967200D-01  2.19176553651804800D+00  6.09217776171986800D-01  7.01288484057978400D-03
91 25  2.21073723633667100D-01  2.57994739357939600D-02 -3.08519815082524000D-02  5.20203425845424400D-01  9.21154899535637000D-03
91 26 -5.77083307261398300D-02  1.53940004522496700D-01 -3.71338031628145800D-02 -1.42723947180064300D-01  1.68299802829431900D-01
91 27 -2.55758556493654100D-02  1.41865041495923800D-02  1.01984975167434100D-01  1.50874121100533000D-02 -7.33168315504202500D-02
91 28 -9.37098623126398500D-03  8.26878177816843100D-02 -1.60456544373873400D-02 -1.23479593978181900D-01  1.70672314104370400D-02
91 29  3.44599838197759100D-01  5.94854640746277000D-01  7.10813671850097500D-02 -1.23896260178415800D-01  2.38859365813858600D-01
91 30 -5.53672200339922300D-01 -1.02946522726573000D+00  1.18615821035274900D-01 -2.06838068065710900D-01 -2.04603142903008400D-01
91 31 -7.78702269087968500D-01 -1.12223903833785900D+00 -3.61279892685283700D-01 -1.28507899010360100D-01 -2.68508710193133200D-02
91 32  1.30519361792757200D-01  2.55134843954746000D-01  6.00492635060435900D-02  1.29271185508038200D-01  1.05012004607863200D-01
92  1  9.13277716287960200D-02  1.22988270004273700D-01 -7.26265576255643900D+00  6.25912306890189500D-02 -3.49022754545756900D-02
92  2  7.56635295681087800D-03 -2.59368603407503100D-01  4.67938855410358000D+00  1.25648101698590100D-01 -3.09818846764658000D-01
92  3  1.96032893979799100D-01  1.13785952784860700D-01  1.71843664731524400D-01 -1.17523845475569500D-03  7.27921566743063300D-02
92  4 -1.30881387558979200D-01 -2.36334381286158300D-01  3.87482633754791500D+00  2.18154148344396800D-02  1.01870487567635700D-01
92  5  2.56170416313377300D-02 -5.51209125144863800D+00 -4.49692702934457200D-01 -1.83313254224418700D-01  1.23438823232101000D-01
92  6 -1.92781303591818400D-01  6.93424803597157600D-02 -3.65453974247059700D-01  3.31383403118712200D-02  2.06166560927217900D-01
92  7  1.19100736994013000D-01  1.92048673311213300D-01 -3.48944985040443300D+00  2.05099190185914500D-02  2.19144435375228300D-01
92  8 -3.79889355352914000D-02  5.40355457782647000D+00 -5.84890223077855900D-01  2.40991620739093500D-01 -1.49211558530657100D-01
92  9  1.06122735054060600D-01  4.30888234765945900D-02 -3.48134878111307600D-01 -3.12442568802354700D-02  1.49944873471214900D-01
92 10 -2.67891010503823500D-01 -4.67910854681996800D-01  7.98566336762854900D+00  6.64470866994910100D-02  9.11281023991023800D-02
92 11 -1.22816129243730400D-02 -1.42442432518003700D-02  3.88656662465214200D+00 -5.61360459850711600D-02  2.76293665759210500D-01
92 12 -7.69110280926022100D-02 -1.99382637666609800D-01  1.96469549652812800D-01 -4.20352671442336600D-02  3.59401254989308100D-02
92 13  5.61570967770042500D-02  8.97084494564700400D-02 -3.54970504725042000D+00  3.44799564881745700D-02  2.39688885859182500D-03
92 14 -5.31963562693814000D-02 -5.26780278848388800D+00 -5.36320558596614000D-01  8.62785295553598500D-02  1.12440524943667400D-01
92 15 -3.98709125098622700D-02 -7.25696124338117600D-02  2.13456471294266500D-01 -1.62348395847996800D-01 -1.90772485210331900D-01
92 16 -9.44569097211459800D-02 -1.72362253189943100D-01  3.33384143194857400D+00 -3.63191990668376700D-02  1.59365683866229400D-02
92 17  2.73478021170883000D-02  5.56123819337178400D+00 -9.22920266225273200D-01 -6.10354577558783800D-02 -8.58379721975648400D-02
92 18  2.92281498514631600D-02  5.66098223461005900D-02  3.10341806359172500D-01  1.47079066412296100D-01 -1.76456108479806600D-01
92 19  1.32198947532940200D-02  1.49061878971589500D-02 -7.44495523345839900D-01 -1.40629872208773600D+00 -1.17556420513168000D-04
92 20  2.03748500028829400D-02  1.98666121213024000D-02 -5.12854141636212900D-02  3.25502659399694000D-02 -1.08427613801308000D-01
92 21 -6.54313963991719100D-02  3.65586830128839000D-01  3.52442048394134500D-02  5.69791899858735800D-02 -1.17127929171091400D-01
92 22  6.01487391852213200D-02  8.54913441145839900D-03  1.00093903955455400D-01 -1.25468243094750100D-01 -2.46697155969610900D-01
92 23  3.32932507829586200D-01 -8.62353518599779000D-02  1.46017512385667500D-01 -7.96287994580688900D-02  1.43799957400187400D-01
92 24 -2.97140330454545300D-02 -5.72289372951120200D-02  4.06557757438424000D-01  8.45739462021807800D-01  4.39706634338767700D-02
92 25  1.03519702828723400D-01 -6.07742047122125500D-02 -4.91915213252741700D-03 -1.93995190683594900D-01  1.61245328942052800D-01
92 26  1.35916677561532200D-01  2.34748528753472000D-01 -1.65930678815488500D-01 -8.66168750579882100D-02  5.59175445588822100D-02
92 27  3.06993304991074400D-02 -1.78435125976235000D-03 -1.34093612801812500D-01 -1.70063392718077400D-02  2.15105580098501900D-01
92 28 -1.81991880405222100D-01 -3.31136996932799100D-02  1.24368845053982300D-01  1.52597021688125500D-01  1.03030099051715400D-02
92 29  6.04127447212548000D-01  2.22352902173704700D+00 -9.51739175685114800D-02 -1.63562118566815500D-01 -8.82686865496836600D-02
92 30 -5.21642613079168000D-01 -2.32314370414960400D+00  9.05372871369182300D-02 -2.10801762242989200D-01  7.59535280438109900D-03
92 31 -6.76049137665702800D-01 -1.99639870640125900D+00 -7.37862080506488500D-03 -3.21874658303146200D-01 -1.73729385326101900D-01
92 32  8.08570913265146100D-01  2.30342337407444800D+00  7.84836442006899800D-02 -2.55107918067299900D-01  1.70271155879478200D-01
93  1 -4.88645620072003200D-01 -8.23411640739313700D-01  1.41137471784299100D+01 -2.07956218092352400D-02  3.38147084447294100D-01
93  2  8.77140940630132300D-02 -4.03918934689452000D-02 -6.60754770568579400D+00  1.36326525186469400D-01  8.57975552850928100D-02
93  3  5.60089012382907000D-01 -6.45886567668004500D-01  1.65917291801176500D-01  1.81113807060558500D-02  1.84437590730562800D-01
93  4  6.91706877176981300D-01  1.15463689835571200D+00 -1.57568219773031000D+01  3.07060987948708200D-02 -1.07495453744841400D-01
93  5  3.04059137304710700D-02  6.14870989458181000D+00  5.47383747609628000D+00 -1.16801508887695200D-01 -3.82390925642685500D-01
93  6 -1.97421701782653500D-01  5.79812627425338900D-01 -3.99379971261527600D-01  3.48682962632683800D-02  8.23503892199396500D-02
93  7 -6.40419497128729300D-01 -1.04356951008952000D+00  1.59085999135922600D+01  1.43185266804928400D-02 -8.52761904357300800D-02
93  8 -2.31557543601755600D-02 -6.22025351818191700D+00  5.36510126706111500D+00  1.13696400120496200D-01  4.45150795977439500D-01
93  9  1.09027895529592100D-01 -5.54178691507023000D-01 -3.56795797902714500D-01 -1.45452833851485000D-03  5.36226716055388900D-02
93 10  2.83424660691366100D-01  4.46954680687744600D-01 -1.32354511189197100D+01  2.42701245487215700D-03  4.53118388108375900D-01
93 11 -2.67201225561141700D-02 -2.85037227306862500D-01 -6.94436404695340800D+00  4.46469762472353100D-02 -2.05849901734564400D-02
93 12 -4.70207756570402400D-01  4.90792746743859400D-01 -6.83602805835435300D-02 -2.70596818869693500D-02 -1.65553441016607000D-02
93 13 -6.61310451222490100D-01 -1.12361365373771200D+00  1.44588788390881200D+01 -3.17985736069601900D-02  1.84964445073237500D-02
93 14 -3.55906471309133000D-02  6.44887399724227400D+00  4.97246602865616800D+00  1.64289963292402000D-01  3.53367314297263600D-01
93 15  1.79689065528813600D-01 -5.33056379826058800D-01  2.92525076248127300D-01 -8.96094338689428400D-02  2.33655950501665900D-02
93 16  6.73766872608173300D-01  1.12014990908715300D+00 -1.54052995830277900D+01 -3.57864043118726600D-02  1.46351798691321900D-02
93 17  2.05543382356563500D-02 -6.34341029119562400D+00  4.33288053676064200D+00 -1.66045167204403400D-01 -5.21480095450395500D-01
93 18 -9.24695414827159800D-02  6.13949636933111700D-01  3.12426104774939900D-01  7.52907459145069500D-02  4.26805924359372500D-02
93 19  6.60700176660346900D-02  1.03501485317439400D-01 -3.56810833194480300D-01 -1.29057569820380500D-01  3.34642883217845500D-02
93 20 -6.35308775344989700D-02  8.08724971213230800D-02 -2.16419594248016000D-01  1.48162430350842800D+00 -2.84434064332400800D-01
93 21 -7.93389561819781700D-03  7.57284025012389800D-02  1.21506301678766200D-01  2.96675904375695200D-02 -6.34704678075150200D-02
93 22  3.38028773699344500D-02  9.94743455974045900D-03  2.72056015560117700D-02 -1.79955983399146200D-02  2.09290137957029600D-01
93 23 -5.15542118605189800D-01  3.06251980648164900D-01  1.77115415789056100D-01 -4.26082588451631000D-02  1.77523492098352700D-01
93 24 -1.00584486000105000D-01 -1.78447074939775600D-01  2.01742203966018100D-01 -8.37085283884928900D-02 -5.73733258289081400D-02
93 25 -8.26145317705422500D-02 -3.22504428857760100D-02  1.61085225199581600D-01  1.50119311350168300D+00  5.75680180733311700D-02
93 26 -7.47397656623153100D-02  2.04263804303184000D-02 -1.24447010919855500D-01 -9.56853913690325700D-03  1.15497377420579500D-02
93 27 -1.98119860516024100D-03 -3.03715561589867000D-02 -5.52272546364334400D-02 -3.56291733638503200D-02 -3.18009880528255400D-01
93 28  7.10301234860750900D-01 -3.92291354332495300D-01  2.28729274071339100D-02  7.16927591732940000D-02 -2.78700903656741800D-02
93 29  2.95927408063406700D-01 -1.81818499813555600D+00 -2.77410909517746500D-01 -2.57088975519455900D-01 -5.68185861842850200D-02
93 30 -3.16279835011944200D-01  1.81565159204835700D+00  3.16577117228453700D-01 -3.36938237922077800D-01 -2.32890972852948500D-02
93 31  2.96243557789799100D-02  1.68572864387019000D+00 -2.82690524998680600D-01 -2.16400560533116400D-01 -1.13073265288500100D-01
93 32  3.03667082748570700D-01 -1.42650735297142700D+00  3.54973594341987300D-01 -2.38160861270483000D-01  9.22485333985867400D-02
94  1  2.13409670675685100D-01  3.93768971957366000D-01 -4.17599278504039100D+00 -8.13674403741893400D-03  3.16801223940052200D-03
94  2  1.30606092242912900D-02 -6.57842482667027100D-01 -2.16255270740245900D+00 -2.12731102915141200D-01 -1.06224448420350600D-01
94  3  1.82850706956786600D-02  8.79393777246728200D-02 -1.19150571396259800D-01  8.44211160007326700D-02 -1.47826038355013600D-01
94  4 -1.58579420678673400D-02 -3.12354143720053800D-02 -1.93905041516815300D+00  1.53163132935715800D-01 -1.82144891102384200D-01
94  5 -3.97922353040318500D-02 -1.49836645332580300D+00  3.04851396403847900D+00  2.48863963043113700D-01 -2.66279154440565800D-01
94  6  3.30210059497485100D-01 -6.39309050569198400D-02 -1.36573003913725900D-01  1.97779853531844700D-01 -1.34763973315876400D-01
94  7 -5.85869151359063700D-02 -6.89510535849803400D-02  2.67863095865215000D+00 -1.91878134598866000D-01 -3.51402775667024000D-01
94  8  4.78096136027404800D-02  1.03365158070306300D+00  3.08923630690526200D+00 -2.38806127389491200D-01  3.38753921600529000D-01
94  9 -2.65295014806573400D-01 -7.34589067939541200D-02 -4.77578728318750100D-02 -2.18547499599291300D-01 -1.27890351909513900D-01
94 10 -9.75410668128251200D-02 -1.42650361793609700D-01  4.30107475004031000D+00 -1.58582026894046700D-01 -1.15657158591639200D-01
94 11  5.09184879907136600D-02 -7.53725652470370000D-02 -2.76423810299050500D+00  1.37952684450625100D-01  1.27610713929064500D-01
94 12  1.16159455763669400D-02 -1.39226659505433300D-01 -3.72520932919283300D-01 -4.79018405756251900D-02 -2.76502675671218800D-01
94 13  1.04352384788454400D-01  2.07050057221366100D-01  9.89087771568770600D-01 -1.22906860459145400D-01  2.99829786421076500D-02
94 14 -3.76834548693355000D-02  1.09975954746781700D-01  2.18844838552584300D+00 -2.41617958431855500D-01 -9.89887973539349300D-02
94 15  6.48099400823921700D-02  3.41788572715415500D-02  6.91174855434605700D-01  1.23679083430490700D-01 -3.44251730453566400D-01
94 16 -1.67383098229497400D-02 -5.35905186790269900D-02 -1.92602522288494800D+00  1.12483594781520300D-02  7.64269707711330200D-02
94 17  1.80390914268598700D-02 -3.47456457427847400D-01  1.47169564422599700D+00  2.95173190020634100D-01  6.26465092961045100D-02
94 18 -1.02237981703525200D-01  3.95914724074207900D-02  5.63426447375843900D-01 -4.77129124550176800D-02 -3.17243137923651400D-01
94 19 -2.58171898211306900D-01 -4.98563571708774600D-01  2.12997520802383700D+00  1.13859912551508900D+00  3.14392772811066400D-03
94 20  5.75433279583988600D-02 -4.71223815051247100D-02  1.95635562883263700D-02 -7.84904915761780000D-01  2.08788783594846600D-01
94 21  3.01181854107462500D-03 -4.25976215342389900D-01 -8.48738803358196500D-02  9.55065301301241000D-02  1.75709322274420900D-02
94 22 -1.13077462357570900D-01 -5.63672935654298300D-02  1.97648213694881100D-01  4.58059552960963400D-02 -2.24220721252852400D-01
94 23 -4.68972302465704600D-02  2.71117951499421900D-01  5.27110664957502300D-02 -2.52642270360162700D-01 -1.72626629642925100D-01
94 24  3.30381182663660700D-01  6.18409966319541000D-01 -2.74642934839727900D+00 -1.05128055478060100D+00 -9.03990621874341400D-02
94 25  5.74976761790243800D-03  7.47130809769947100D-02  1.40211710774287100D-01 -1.01132941404000900D+00 -3.13232150688319900D-01
94 26 -2.11907336723542500D-01 -2.92960982585737400D-01  1.43064273630719900D-01 -1.21019352492978100D-01 -3.64983663554834500D-02
94 27  1.57517718848460900D-01 -3.33177426808445900D-02 -2.10921051395233300D-01  5.01939862067771400D-03  2.70377945811518000D-01
94 28 -1.67108170970368200D-02 -2.53667128714481200D-01 -1.15091845806336600D-01  2.18930572929324500D-01 -2.21253545376231000D-01
94 29  3.24243416322707800D-01 -5.52593147028302100D-01  1.84259286665673500D-01 -2.99442123268583500D-01 -7.51907292243378900D-02
94 30 -3.24462498828693100D-01  6.54615725721970200D-01 -1.99508662187404100D-01 -2.79881722958134300D-01  8.33237198716316600D-02
94 31 -6.47263384619942000D-02  4.60275798774385800D-01 -2.05110964734184700D-01 -3.86422559222857700D-02  4.43690050273436500D-02
94 32  1.17272492976974400D-01 -5.00958305059501600D-01  2.01573448168795500D-01  6.55546507457326200D-02 -1.45906372198831400D-02
95  1 -4.91476171089335500D-02 -1.24179330266717000D-01  4.45106289481002200D-01  1.03640185064152800D-01  1.34913770847322900D-01
95  2 -2.01573773567149000D-01 -4.82570316199431600D-01 -6.07266668124145700D+00 -8.93586643775024200D-02 -4.87443758749737000D-02
95  3 -1.36409866690831400D-01  1.85154242565802400D-01 -1.50254057439983100D-01 -5.00483322159022800D-02 -3.00036419794505600D-01
95  4  2.53579373970310200D-01  4.60387026174476700D-01 -7.04002534094599300D+00 -7.65020224258610900D-02  8.61838236818073800D-02
95  5 -6.57472958554781400D-02  2.29808653604708200D+00  3.96102705333901200D+00  1.02022117447714500D-01  2.52732723350115500D-04
95  6 -2.37891119803789400D-02  2.35363792570289500D-02  1.51564221064640300D-01 -9.63934189207045100D-02  2.11249427672095900D-02
95  7 -2.38185484592989000D-01 -4.59692143435935400D-01  6.71083944775229500D+00  2.57575424907641600D-01  1.35529228939174200D-01
95  8  6.13751116086246100D-02 -2.15298058586269900D+00  4.03160902889812400D+00 -9.28523352081216000D-02 -2.92028075716707000D-02
95  9  2.31343430411973000D-02  6.06846453048155300D-03 -6.12921436774876500D-02  1.02900101683505700D-01  4.92960600849073100D-02
95 10  1.60206357180838900D-01  3.07098326776146200D-01 -1.67636167779192800D+00  1.06165451411883400D-01  1.85830679331289800D-01
95 11 -3.15810940993920800D-02  8.41984940920816000D-01 -5.48933180005996700D+00 -2.23190582566284100D-01  1.00085438895414200D-01
95 12 -1.41035892801093300D-01  4.09504539056761200D-02  3.84864184535666900D-01  3.67009686265908500D-02  2.50462048316872500D-01
95 13 -3.96584426330739900D-01 -6.83751755463967900D-01  1.06795696870134400D+01  3.05309706297625100D-02 -1.94187014914664400D-01
95 14  6.25522921585899700D-02  1.95452322967553700D+00  4.80695557589551200D+00 -1.34118016085940700D-01  4.43788728031811900D-01
95 15 -2.14300435898674800D-01 -2.29488292133132200D-01  7.83503310705555200D-02 -5.45221867616479900D-03  4.16896330917442800D-02
95 16  4.04224477964246300D-01  7.54199701667338000D-01 -9.28399240026809900D+00  1.05830823248958600D-01 -2.23264743691066000D-01
95 17 -5.44171898243015200D-02 -2.14987365098515500D+00  5.78282529878992000D+00  1.26384557991740800D-01 -4.36178891063525700D-02
95 18 -1.80593223230046600D-02  6.16772114293563500D-02  8.25524695866961000D-02 -2.39008005513905300D-02  1.21224151347136700D-03
95 19 -3.21551722107696200D-01 -6.00220317689253800D-01  3.20641851300690700D+00  1.43614155702357600D+00 -8.76250301467717300D-02
95 20  7.07372303896453800D-02 -1.59210027917331000D-01  4.32906214296316200D-01 -9.12928106186838300D-01  4.89845865811107600D-01
95 21  5.93372669410015800D-03 -2.97069799173866200D-01 -2.51140509136776700D-01  6.48479790507425900D-02  3.36428227264041300D-02
95 22 -9.84908017771572400D-02  2.23473349620989300D-02 -4.42064963153694900D-02 -3.47373948277477200D-02 -1.09237802990003300D-01
95 23 -1.24427064410055000D-01  2.33664867400057800D-01 -2.76784411023232300D-01  8.21785229951344900D-02 -2.08304907723564800D-01
95 24  2.72124990930711300D-01  5.11579349189996000D-01 -2.46707865042525300D+00 -1.16994618579111600D+00  1.30896446629374000D-01
95 25  1.86625287324603100D-01  6.33618912760083400D-02 -2.85439764166932300D-01 -7.19140659862331400D-01  5.01531576208191000D-02
95 26  1.39680839590776800D-01 -1.61584028812323000D-01  2.27450438990105800D-01 -1.36352364160100000D-01  4.13221000166466500D-02
95 27  9.50302641434504500D-02  1.20076830330102300D-01  5.16502788504378700D-02 -5.37480065426256600D-02  1.85437387083964000D-01
95 28  7.25516946669092400D-02 -2.57989081750873200D-01 -9.62853092781518900D-03 -7.15862595429895400D-02  3.61059731711293200D-01
95 29 -3.19417936710732300D-01 -9.23846042232850100D-01  1.08178075905508600D-02 -1.50803800475271000D-01  6.38557658481047900D-02
95 30  2.17266756975314000D-01  9.31611855074107200D-01  9.79450399737995500D-02 -1.84498920266705500D-01 -1.83798705845854100D-02
95 31 -5.15387429802191800D-01  1.14130900263844900D+00  1.48651233419226000D-02 -4.27613161013910200D-01  5.70528483225462300D-02
95 32  8.52546679436177500D-03 -1.62495884253326200D+00 -8.48390967010307200D-02 -2.95872896778653700D-01 -2.47748782485373700D-02
96  1 -4.10758726835514000D-01 -7.77835832185829900D-01  1.81569714318078600D+00 -5.89726459131733300D-02 -2.52903092474800800D-01
96  2  2.26564961749990700D-02 -4.70999705396362500D-01 -2.39113752833907200D+00  4.79897287081041800D-01  1.87219766022367800D-01
96  3 -1.11539892686770000D-01 -7.56798733355963100D-02 -1.03184773737394400D-01 -5.84734210243107000D-03  2.17275276844408600D-01
96  4  4.73319931531641400D-02  5.67835490865048300D-02 -1.21193224534411500D+00  1.02946113074238000D-02 -2.46087467719088500D-01
96  5  2.93487060209710900D-02 -2.91036859441972700D-01 -1.06627770564837700D+00 -2.75092835958423200D-01 -5.29664722232071100D-01
96  6  3.18830840864354400D-01  2.10833881367716200D-01 -2.46821883547056800D-01 -9.66466099916708800D-02 -6.29204749040518800D-02
96  7 -4.16437522548641400D-02 -5.26886471925728600D-02  8.55275253140860300D-01 -5.40034993464156800D-02 -1.69402657605576400D-01
96  8 -4.00996420974519300D-02 -7.80520060230755900D-02 -7.35326398009754900D-01  3.16573296215284200D-01  3.71526747202963700D-01
96  9 -2.79300058200238700D-01 -9.22266890027239500D-02 -1.37004582549751000D-01  3.93675374659882800D-02 -8.26970052863110200D-02
96 10  3.63365971837554600D-01  6.69422839519602200D-01  7.36448584776471200D-01  8.89599516910531300D-02 -5.88604533800572800D-01
96 11  9.02162703636924000D-02  6.42375404231782100D-03 -3.68246743118265100D+00 -4.06750687961868800D-01 -3.47794059236555800D-01
96 12  4.24032496230746200D-01 -7.62384369941912600D-02  1.13891197006148100D-03  1.75315422251283600D-03 -1.09018420513020500D-02
96 13 -6.25851604197554400D-02 -7.27507678600116800D-02  1.50674221388109100D+00 -8.75377414853822000D-02  1.37910860630598200D-01
96 14  2.59850930391624100D-02  1.40546987144563500D+00 -4.27105590242576300D-01  1.73410441602177700D-01  1.78290345893569600D-01
96 15 -9.77389128727724800D-02 -8.05514330207962200D-02 -1.34085591485474900D-01  8.67632160104544900D-02  1.32315536482768600D-01
96 16  6.76958613945613000D-02  7.55482532309300600D-02 -1.94813174267754200D+00  9.65571231537532700D-02  1.20184479895811800D-01
96 17 -3.47660813011843000D-02 -1.41041322889069900D+00 -8.20534685344708900D-01 -1.36311972802344000D-01 -1.27308539021806400D-01
96 18  4.52167244698472900D-02  8.20918145519604100D-02 -9.15945979449869100D-02 -3.44392408514638400D-02  1.48273084589477300D-01
96 19 -2.42435320474083300D-01 -4.49174152633640700D-01  1.59924636391519900D+00  8.59377937713737400D-01  2.31709530487912200D-02
96 20  3.55758675756055700D-02 -3.33177278469674200D-02  5.37370899126971900D-02 -8.83635620132587600D-01 -1.30698747009832000D-01
96 21  1.79655933026148500D-01 -1.31378934653080900D-01 -2.19448792846340400D-01 -2.12877909407316500D-01  5.31210421025618500D-02
96 22  1.59756867304751900D-01  1.47966852494586500D-02 -1.31204739983976200D-01 -1.01905928801117300D-01  1.71669302314949100D-01
96 23  1.69280727585312900D-01 -3.40950029900262100D-01 -1.17100207935438000D-01  1.35951286987613600D-01  3.62402353970676400D-01
96 24  5.46834834987796500D-01  1.05635151051746900D+00 -3.66650897947674800D+00 -1.74838982946956400D+00 -4.31298293997702200D-03
96 25  1.14089363773864000D-01 -5.27495249773697100D-02  6.54781453783831600D-02 -1.98700862049490600D+00  1.36913691453880000D-01
96 26 -1.21836578053139800D-01 -4.39655665975740600D-01  5.77874013088782900D-02  1.77240642117724200D-01 -1.72286756854293600D-01
96 27 -4.95388526343191900D-03 -4.59715235482621900D-02  1.31466026102997600D-01 -4.35483969109399900D-02  5.71549677067552600D-02
96 28 -3.57131339002606400D-01  2.99976371295851100D-01  7.25517245996537300D-02 -1.31354908605723200D-01  4.71556232205550800D-02
96 29  7.69995165104631600D-01  6.01357699793466600D-01 -3.55324497514381300D-01 -2.54814961216282000D-01  1.84742490359205800D-01
96 30 -4.79535717383366200D-01 -1.64977131367924400D-01  1.50748339880756300D-01 -1.27095138917112300D-01 -1.67190237507618800D-01
96 31  8.96386001040813300D-02 -1.72122723513905300D-01 -1.31731448232838200D-01 -8.29389094026987300D-02  6.51605836675702300D-02
96 32 -2.01294693297735600D-02  3.14565229747987200D-01  1.33551551075378400D-01 -3.19553385850766300D-02 -4.75896529240210200D-02
97  1 -5.67779592470632200D-03 -4.55413297345795600D-02  1.89777234186179200D-01  1.78680192252152400D-01  1.02752296416449700D-01
97  2 -2.84752974854187700D-01  7.08311491578472700D-01  2.69636066932148900D+00  8.65294897005589600D-01 -2.27310110745314200D-01
97  3  2.44098252889577700D-01 -1.67881421442630000D-02 -3.35339358072363500D-01  3.86759258714269300D-03 -2.03415157452833600D-01
97  4  1.18628744814387300D-01  2.41400732658552700D-01  9.41354286674496700D-01  1.74867469483929400D-01 -2.22387151163655500D-01
97  5 -1.12887923353548900D-02 -7.15518562868625800D-01 -9.31179505401090700D-01 -3.81621573897120400D-01 -1.85100787530794600D-01
97  6  8.59638057837548200D-02  9.91369817470397900D-02  2.11867851358860000D-02  1.26655464153008100D-01  6.00757256346090600D-02
97  7 -5.30759857390348000D-02 -1.58469108683156300D-01 -1.65695752428888100D+00 -1.11010649932281800D-01 -1.04644169000698900D-01
97  8  3.02308569135026400D-02  1.15944583117600400D+00 -7.33179408778153500D-01  3.51611448179994700D-01  2.17133022592838300D-01
97  9 -2.53735893883897900D-01  3.66028712910581200D-02 -9.86535965747922400D-02 -1.13333510119385600D-01  8.61239101844370500D-02
97 10  4.27690314315195100D-02  1.30156789739591000D-01  2.13243163394366600D-01  1.39080159969557500D-02  4.62371355926215300D-02
97 11  2.57110796824690500D-01 -2.80438479056393700D-01  3.10158504915163200D+00 -9.18310483488573500D-01  3.51087530393821100D-01
97 12 -2.99691824071756300D-01 -5.13957063220644500D-02 -2.26243097998054300D-01 -2.46856981096866300D-02 -1.41938069218733400D-01
97 13  1.11376186916285500D-01  2.26832860085386100D-01 -1.94473512207950500D+00 -6.43302990796413100D-02  2.57182531845034500D-01
97 14  6.15358258905590900D-02 -1.70735805675140700D+00 -3.62897083812546900D-01  2.61197527655212600D-01 -2.69570946036557200D-01
97 15  2.16732283623851900D-01  5.28386624127043100D-02 -7.91921426524730200D-03  9.51531424770631400D-02  1.31208637279338000D-01
97 16 -7.66553860558548700D-02 -1.18748939569860100D-01  2.22129195561282800D+00 -6.32631473802584700D-02  3.52279486517740800D-01
97 17 -5.24998140133327600D-02  1.77580060721290000D+00 -1.26760803830405200D-01 -3.05397477755248200D-01  2.78769547001008100D-01
97 18 -1.55799133793668800D-01 -1.22970413207339500D-01 -3.69781379982108600D-02 -1.11130300887250800D-01  8.48623651349174300D-02
97 19  1.77258808712668300D-01  3.12756897220602100D-01 -1.76693337762898200D+00 -1.22658911684775400D+00  1.21570220086707300D-02
97 20 -5.53423737379025800D-02 -1.66359378557510200D-01  1.11296880093524000D-02  8.51894865412902000D-01  2.95558801235032600D-01
97 21  1.55541358112719900D-01  3.82084118454135000D-01 -5.57086862186079800D-01  3.67806184708761500D-02  1.31501058019355200D-02
97 22 -4.99307242728084400D-02 -5.01836301181844300D-02 -4.18496781685545700D-02 -1.35584052393690500D-01  3.64014164754580500D-02
97 23 -6.28789369050034400D-02  2.64775204295459700D-02 -1.31086747753766600D-01  4.33948569666211400D-02  1.55582681622615300D-01
97 24 -1.84205789609300400D-01 -3.39006709543042100D-01  1.87510106608081800D+00  1.29799288250781700D+00 -2.93283827372776000D-02
97 25 -6.60609281525279400D-02  1.97219482748816200D-01 -9.89057094041267600D-03  8.36428530079802000D-01 -3.05953006228071300D-01
97 26 -1.68143251954610700D-01  3.24567850016190400D-01  6.47577764117330000D-01  3.16319691169643400D-02  8.05928069656500500D-02
97 27 -1.12224776082613400D-01 -2.81921983427654500D-02  2.17974625675211600D-02 -3.23043828497974000D-01 -7.74271977171868000D-02
97 28 -5.73669483672721700D-02  1.34794146084459000D-01 -1.59185861498656500D-01 -5.78144382263464000D-03  3.66755187364617800D-01
97 29  2.12130446611452400D-01  2.06485271219707100D-01  4.29231559249636700D-02  7.93318202110097500D-02  2.78283575949573200D-03
97 30 -2.70736986911621300D-01 -2.06485518796417800D-01 -1.39647784227570300D-01 -9.21948766517109000D-02  5.36236035729118200D-04
97 31  6.31373873758097300D-02 -7.56553029776042100D-01  4.15097281434856600D-03  3.90191817707029300D-02  5.03117727846527400D-02
97 32 -1.71716606252994700D-01  6.71102946274282900D-01 -2.60588892178794600D-01  7.61924344820204100D-02 -2.28524284053015200D-03
98  1  3.39740774494825900D-01  6.51997555095784300D-01 -2.96822202576984600D+00 -2.64477536044039200D-01  9.88050188927761100D-02
98  2  7.61124426244376000D-02  1.37965090762313600D+00  3.65850956627051700D-01  3.95847529375318600D-02 -5.46344901711558000D-01
98  3  3.52704878955794400D-01  1.93640022755761900D-01 -1.77538182905917700D-01  6.49350531149847600D-02  8.22314005238824100D-02
98  4 -6.16667587321902800D-02 -1.58577007446575400D-01  2.51550570458689800D-01 -3.48264457187166100D-01 -4.51694496057679200D-02
98  5 -2.96129427980055500D-02 -1.86190632024743400D-01 -5.75081481915104700D-01  3.70633546401185800D-02 -4.82089023454062700D-01
98  6  3.02466980005688500D-01  1.79622043448374000D-01 -6.09272132689400700D-01  3.67045246078706900D-02 -5.87113811648661300D-02
98  7  3.23845315140245300D-02  1.16878255842417800D-01 -1.35453386778541800D+00  1.02400970820338700D-01 -2.33256038127779000D-01
98  8  1.65379155048473000D-02  7.29840186139006500D-01 -3.73633280357180600D-01 -1.06381673332047400D-01  2.52925817039763800D-01
98  9  3.59741129551358600D-02 -2.88899929994899800D-01 -5.31879867038898700D-01 -9.34751214882937500D-03  1.07059825140131400D-02
98 10  3.77482237731559200D-02  4.42911205508037500D-02  1.24999079429602500D+00  1.01984224878360600D-01 -2.32607625560093000D-01
98 11 -6.61540469684440300D-02 -2.13633536947138700D-01  2.26307178379653300D+00  1.01557420304784400D-01  2.25748498971555100D-01
98 12 -2.93138307103552500D-01  6.73898081319963100D-02 -4.11486847557313700D-02 -8.65945380584410300D-03  1.09808464010650900D-01
98 13 -1.35791398895722500D-01 -2.66796317672025500D-01  4.19291340522395100D-01  5.79076693749944400D-02 -3.79842033091804300D-01
98 14  5.58752233117810200D-04 -1.99985816076282300D+00  6.76036793455306000D-01  3.47421050230505600D-02  2.16262671018328500D-01
98 15 -2.54160575305620300D-01  3.78979042872892600D-02  3.32831683077823600D-02  6.11695839647026600D-02  1.86587310797904900D-01
98 16 -2.10145148238778900D-03  1.84044374323955100D-03  9.45138565517932200D-01  2.33366686316279500D-01 -4.08796914805942500D-01
98 17  3.56567061092724300D-02  1.93408274462554000D+00  2.00569578252972400D+00 -7.49909020255474100D-02 -4.67137609468833500D-01
98 18  5.02914453183296100D-01 -3.57768437144628100D-02  2.17223009434812900D-01 -1.06654071834539900D-01  1.72912670091829700D-01
98 19  9.90527154567439300D-02  2.21079443991213500D-01 -3.32606551816729400D-01  3.44823464070191300D-01 -9.88405256294064500D-03
98 20  9.48406459392016500D-02  1.96119659618844900D-02  3.81103636727143700D-02  4.52535872431300500D-02 -8.10277739277293200D-02
98 21  2.06723499061175600D-01 -3.45347000003770100D-02 -1.74029382152330500D-02 -9.84360707517585300D-02 -2.02430839661674300D-02
98 22  1.18679154717926200D-01  7.88539981177601000D-02  8.26728404143623200D-02  9.51964214015835500D-02  1.98177995990079500D-01
98 23 -9.08084209703395700D-02 -1.07369575019740700D-01 -3.55340149186807600D-01 -1.32162674734268700D-01  3.22398577092760400D-02
98 24 -1.00059927743606500D-01 -1.83511405131785600D-01  1.20967503474047200D+00  4.67657304653293500D-01 -8.13917289141799300D-03
98 25 -8.82263171544647000D-02 -8.04314509973725500D-02 -5.04970129692978500D-02  4.51640813765463100D-01  1.72595893014910200D-01
98 26 -1.54989607329666000D-01 -6.86822888260544600D-02 -1.18418417663861600D-01  1.16929099738693200D-01  5.94543650538499300D-02
98 27 -1.76383464792542000D-01 -1.59018138943411200D-02 -4.24146992690791900D-03  1.60659770865843800D-01  8.89112694171718300D-03
98 28 -3.43066858240593400D-01  3.34175731298876000D-01 -9.24576444459364000D-02  1.43692755032257700D-02 -4.89646526975740900D-02
98 29  7.42469208446470100D-01 -2.55663342041943600D-01 -3.83786032635648100D-01 -3.33411770602496300D-01  5.88948170619239600D-02
98 30 -7.74063379743677900D-01  3.52717344385522100D-01  2.01756719639066600D-01 -5.10647229779381300D-02  5.61606330148087200D-02
98 31 -4.26751232979064100D-01 -4.03670839562928200D-01  5.64163801732557900D-02 -9.54255423675118600D-02  1.15452068223690500D-01
98 32  4.14933128846431300D-01  8.85903352450004600D-02 -3.38191197046116600D-02 -5.62965620855341500D-01 -1.71349495549545800D-01
99  1 -2.97353255854954000D-01 -6.06540724961397100D-01 -5.76481281753324700D-02  6.98432200610812300D-02 -2.05425184335095400D-01
99  2  1.49748717822924400D-01  1.16001629080898100D+00  1.31312309928390400D+00 -1.42010366148647300D+00 -3.47439289201764500D-02
99  3 -4.28588820767031900D-02  7.76028109968806800D-02 -4.18526588264970300D-01  5.66733868848078700D-03 -2.79117031262534800D-01
99  4  2.04341579259102500D-01  4.12228198913204400D-01 -1.03390790403321000D+00  1.25282250998515300D-02 -1.86178246978281500D-01
99  5 -1.53103019359623300D-01 -5.65303534153589000D-01 -1.54335749981606800D+00  9.37760448149478700D-01 -3.36395118629638500D-01
99  6  2.06693263206077900D-01  1.29701855423560600D-01 -1.22499375289834300D-02 -3.42435221885187100D-02  3.32382061287637800D-02
99  7  9.66341953215424000D-03 -2.08799833069899400D-02 -1.55734126884570000D+00  1.55099111490296900D-01 -2.63342089963929500D-01
99  8  2.24415454598670800D-01  5.02044622489528300D-01  3.02314220962492200D-02 -1.09223194612638100D+00  1.45339602003591500D-01
99  9 -1.71401187820706000D-01  2.60615858171133100D-02 -1.46999543312195800D-01  2.28681326378172900D-01  1.25171093583431900D-01
99 10 -7.96953713340928800D-02 -9.54858647343852200D-02  1.68512591245255700D+00  4.87350671703329200D-03  9.14572271149458900D-02
99 11 -3.59223970268845900D-01  2.70713593605223000D-02  4.29020356742411900D-01  1.44678558238776000D+00  1.14852119785258500D-01
99 12  3.18599092812864200D-02 -1.46712029066544300D-01 -7.29962012864246200D-03  5.73561411206787000D-03  1.57651739711536800D-01
99 13  1.41439556221877000D-01  2.28954936696693000D-01 -1.92654365440999300D+00  1.13674576778022700D-01  2.42555230162508800D-01
99 14  1.13703135981199100D-01 -1.16087684966710100D+00 -7.21234429176487500D-01 -7.44167293467708300D-01 -2.05106715193537800D-01
99 15  2.66722879631277000D-02  1.78434427230408900D-01 -1.13275888360373200D-01 -1.71765435239414100D-01  2.40872352659319700D-01
99 16 -6.49952528874175000D-02 -7.35293775837702800D-02  2.38835442107458200D+00  3.76054102524502600D-02  1.54085053192878400D-01
99 17 -8.86653341849657400D-02  1.43990423717003100D+00 -5.96630002270873800D-01  6.18850817983560200D-01  3.03260931696753900D-01
99 18 -2.00100575328615300D-01 -1.03160356368137500D-01 -3.99277996787571500D-02  3.67673230893030900D-02  1.58098892944384900D-01
99 19 -3.53512611009405800D-02 -6.68659110430358000D-02 -2.29329206034328400D-01 -3.72943151782564100D-01 -1.28493133912237300D-03
99 20 -5.33573482143867200D-04 -8.47568771125581800D-02  2.99143740887449600D-02 -1.86627827732470800D-01  5.18480151944438500D-01
99 21  9.87417305359231800D-02  2.57659146382221400D-02  2.65837446638965700D-01  8.99505751593593400D-02  6.49853528067750100D-03
99 22 -9.64491104400357500D-02 -7.30256597095242500D-02  5.41100571764104800D-02  1.94864156216562200D-01 -1.28047319741863500D-01
99 23  3.27312084576365800D-01 -1.99264764834501800D-01 -1.92133585195370200D-01 -8.21130315592292900D-02 -5.19573529891161100D-01
99 24  3.76241966021517400D-02  6.91517401251906700D-02 -2.95317234396446700D-01  2.04246797036913600D-01 -4.05369191971435400D-02
99 25 -3.44612731053466300D-02  1.43794835500867400D-01  1.01760265090900900D-01 -2.69131534814184800D-02 -3.76831384338125300D-01
99 26 -1.59872660417778300D-01  4.49639752561894600D-02 -1.48932771660104300D-01 -3.31899479989427100D-02 -3.79299837338366300D-02
99 27  7.11199317327799000D-02  3.89917961255816100D-02 -9.87338523749686900D-02 -5.94560335030546000D-02 -3.76860149776461500D-03
99 28  8.55797009732583000D-02 -8.18110994754936800D-02 -6.61477807838254000D-02  9.85403395020073800D-02  7.91761584680923800D-02
99 29  5.73863693513646300D-01  6.82119408260857700D-01 -1.15734209564129100D-01 -7.31162622241522500D-02 -1.49601796081752400D-01
99 30 -2.45134878186305400D-01  1.99139916769369800D-01  1.15200935934466300D-01 -1.31867594999571500D-01  6.57468026155931300D-02
99 31  3.35596060759560300D-01 -7.73556936250463500D-01  5.63975784396555200D-02  1.67155034900736500D-01  7.08056056740684100D-02
99 32 -1.44915697012951800D-01  7.49410069502637300D-01  4.31091141169381900D-03  1.85824012673060900D-01 -6.43143533852495300D-02
 0  1  1.99043227861231900D-01  3.11479312935767400D-01 -8.10727854476503300D-01  2.74016079677605600D-01  6.88096834216432900D-01
 0  2  7.30352320574081000D-02  8.38769746701974600D-02  7.84623880789503600D-01 -1.18954996964020500D-01 -2.95839144310741600D-01
 0  3  1.39419509676400600D-01  1.56419634634341500D-01 -1.23571831302256300D-01 -1.41648224038950200D-02 -1.09925637802160600D-01
 0  4  3.49241236760611600D-02  1.08559003317089500D-01  6.54651093390390800D-01  1.49691637133871100D-01  4.36650515811139500D-02
 0  5  7.59909381078231700D-02 -5.62224010664560400D-01 -7.29245011831578100D-01 -2.25865803963482000D-01  1.45341253895141200D-01
 0  6 -4.71422633661167000D-02 -9.81989905290244500D-02 -2.65312907779395300D-01  1.46258086290183700D-01  5.02940762819228700D-02
 0  7  6.67301209439956300D-04 -2.69852855172339800D-02 -2.43601829999399500D-01 -2.50945485508773900D-01  1.04686899996633100D-03
 0  8 -9.21293608016997400D-02 -1.23155203263380500D-01 -3.36795043347829200D-01  2.70210711644573600D-01  1.39100715343715300D-01
 0  9 -2.07020867341708000D-01  6.79201519979924800D-02 -2.63308399272580800D-01 -2.00803108198739900D-01  7.82107441290148400D-02
 0 10  2.85558008388399400D-01  6.58758510417713200D-01  9.62712382923630800D-01 -2.69275023639070000D-01  1.47213167487227300D-01
 0 11 -1.35830949155872600D-01 -1.13163737483099300D+00 -6.32028597841074600D-01 -1.58274522602858500D-01  4.29413182296249600D-01
 0 12 -2.52385445689410500D-01 -1.77027736606839200D-01 -2.81447183862759300D-01  2.81829022484276500D-02  1.08056259225310100D-01
 0 13  1.48366930384746200D-01  2.40379799522884400D-01 -1.31849663961076400D+00 -2.00540368096700900D-01  1.10750788360053000D-01
 0 14  9.18331688457411200D-03 -1.03461101847276800D+00  1.20971018954937700D+00 -2.65873878257031600D-02 -2.95972391586215500D-01
 0 15  9.26571533347350900D-02  2.03315238251479800D-01  3.33028605915760900D-01  2.38024282352278000D-01  4.46690630780223400D-02
 0 16 -5.52838809325214900D-02 -1.44318829806613800D-02  4.26360673858940600D-01 -2.06306142615104700D-02  3.09643543368795700D-01
 0 17 -3.49927288523878600D-02  1.21949786539349100D+00  3.78470574933697600D-01  8.72829180315350100D-02  2.67005417851941900D-01
 0 18  1.93031214291242100D-02 -2.86308539281065600D-01  8.40350204371595200D-02 -1.63412485638815800D-01  2.98344294044453900D-02
 0 19  9.92516953273838300D-02  1.59177731572410200D-01 -7.25497158968685100D-01 -4.39604817269965600D-01  1.38662479659469200D-02
 0 20  3.43821759204140200D-02  1.43866374349088200D-01  5.43120870624043400D-02  6.77290807223362700D-01 -1.89785098765194600D-01
 0 21  1.06871020554473300D-01  7.21195521437301000D-02  2.55454656303809600D-01  4.62196946125524200D-02 -4.54082150015469700D-02
 0 22 -8.11479611004786100D-04 -6.26102047791228900D-04 -1.45707376355796300D-01 -1.06356089888397800D-02  1.97108451757002000D-01
 0 23 -3.55213874379402000D-01  1.58105422622399100D-01 -8.48410132202791400D-02  1.59597110661515600D-01 -1.46172074949298400D-01
 0 24  2.35941797406210900D-01  4.69334042728346200D-01 -1.13755189273599100D+00  3.60088119844759800D-01 -6.64826410407182300D-02
 0 25  1.64562981407048900D-02 -2.54946204822956600D-01  1.75500491458048900D-01 -2.71322062496735900D-01  5.71651211425414200D-01
 0 26 -1.11855112095355500D-01  2.63281445725155300D-01 -3.61490492112583400D-01 -7.79428546334662900D-02  3.15845962635275000D-02
 0 27  4.63582583699392000D-02 -8.47019117998971500D-02  1.41618956546121800D-01  5.59494217681922700D-02  7.04852340978215400D-02
 0 28 -8.22795392621337700D-02  1.17943051643122200D-02  2.13502879218541900D-02 -1.73196263272926200D-01  7.18046077148022100D-02
 0 29 -2.41391195208999400D-02  5.76130264458002200D-01 -1.34698017251092200D-01  1.95301705188524400D-01 -6.37213882018132400D-02
 0 30  5.95169811567398900D-02 -5.88573544110013800D-02 -9.86417567088909700D-02  1.35475874732407800D-01  1.56985810759010600D-01
 0 31  8.90038023547680700D-02 -1.03840812626836100D-01 -9.34965416032759700D-02  3.84715294592793900D-02  2.34880921641419500D-01
 0 32 -2.28162973146161600D-01  4.17814252619097500D-01 -1.83966976109189900D-01 -4.89834913326839300D-02 -1.35533082356636700D-01
 1  1  2.43038236580880100D-01  5.13473244340113500D-01  4.95713965132392600D-01  4.69203877548945400D-02  1.64896890280883700D-01
 1  2  9.13486147645905500D-02 -7.97099804018084300D-01  1.18825832314545400D+00 -7.73344825613300600D-01 -2.01998391987395900D-01
 1  3  3.67035137948157100D-01 -1.65036745960761200D-01 -9.32911430618650500D-02 -5.07007966861223300D-02 -1.10318312565555400D-01
 1  4  6.13154325975238300D-02  1.40024895955966300D-01  2.63127890954515300D-01  2.98057397011732300D-01  8.51287960176448500D-02
 1  5 -9.14642471681120600D-02 -7.62232846436032500D-01  4.70713630063307400D-01  4.84439420899787900D-01 -2.96220090477982600D-02
 1  6 -5.98655813834309500D-03  3.56085671861412600D-02  1.06635250023919800D-01 -1.53035100662510200D-01  1.45088168921873800D-02
 1  7 -6.51105159522866600D-02 -1.67864999220505300D-01 -2.39722521018502900D-01 -2.07077745695994000D-01  1.40761481905805500D-01
 1  8  1.06947195784595600D-01  4.73396734158223100D-01  9.38497118488576800D-01 -3.33118481619923500D-01 -8.66270899458272200D-03
 1  9 -1.43951566666068000D-01  1.52614275660652600D-01  2.02365771992324100D-01  1.04158557398110500D-01 -7.05933968164339600D-02
 1 10 -1.28887656623410300D-01 -2.95192367982961100D-01  1.61107531756592200D+00  2.10279202348148300D-02 -2.45338347802576200D-01
 1 11 -4.32296979809018600D-02  9.01403014480021800D-01 -9.84807257165367000D-01  6.80173670694278300D-01 -1.09527534083811000D-01
 1 12  1.53852511273739600D-01 -4.43249771899301800D-02  1.07675850297790700D-01 -2.19050853016973600D-02 -1.70820800661600700D-01
 1 13 -1.04624207256439300D-01 -8.22173948950318300D-02  2.42585033210613800D+00  2.59295908840634700D-02  3.30237730094897700D-01
 1 14  1.19802655864166700D-01  1.30611949380147300D+00  1.15984126775464400D+00 -4.49680441781797900D-01 -1.34022670038432700D-01
 1 15  3.23458726093572800D-01 -1.89436056055139900D-01  1.51657981745427600D-01  6.78225831565591600D-02  1.75783535742722800D-01
 1 16 -5.39382629521694700D-02 -2.48967172410984900D-01 -1.79203110065796000D+00 -2.07096372915918500D-02  3.73753424642960100D-01
 1 17 -1.57569022821054500D-01 -6.03208906488806300D-01  8.66075673933504800D-01  5.59247728525497000D-01  9.73606484026280100D-02
 1 18 -2.70854097855635900D-01  1.73493449453008300D-01  2.97549887478780900D-01 -7.22272033095536700D-03  1.89384650159039100D-01
 1 19  2.29431792454226600D-01  4.18266311593505200D-01 -1.73120453607196100D+00 -2.03696508807866200D-01 -1.05992354566785100D-01
 1 20 -8.21291126677479600D-02 -1.72953097552236600D-01  3.78572723091595500D-01  9.46080002732532200D-01  4.98214721429082800D-01
 1 21 -1.23817617528896200D-01 -3.59959349896621200D-02 -1.09203847129620700D-01 -1.23407977103306400D-01 -1.49741183824593400D-01
 1 22  2.73149160927898800D-01 -4.62422899130645300D-02 -1.60777057900686300D-01 -9.07788289302880600D-02  2.26421812840758900D-01
 1 23 -1.69852315453399100D-01 -5.65694973873597200D-02 -4.33088151406186800D-02  1.96156437818900500D-01 -5.95711294993512800D-02
 1 24  1.43773424149289000D-02  3.50657502454121800D-03 -6.08112195592483100D-01 -1.12052713776724700D+00  6.19074914665526200D-02
 1 25  2.26108180725073300D-02 -7.78884436434983700D-02 -1.81118061470691200D-01 -5.00419157097359300D-01 -5.11279793865172700D-02
 1 26  6.74424370626025400D-02 -5.57850907685844600D-01 -3.17190078185768900D-01  8.88791155650045100D-02 -2.32992369703969000D-02
 1 27 -6.55798785946076100D-02  2.62553550899255900D-02  7.07287360914862600D-02  9.32042202693381100D-02  8.08194703071658500D-02
 1 28 -1.87662098905602400D-01  1.06842628598436400D-01  4.38730953318967500D-02 -5.16196967507029000D-02 -2.93684497684655500D-01
 1 29 -2.09311395429389300D-01  8.88773226582154200D-02  2.43195991181399600D-01  1.15533035759051900D-01  2.35523536352970100D-02
 1 30  3.95906409261516200D-01  1.32604311129165000D-01 -4.17640393893710500D-01 -1.56157855984786000D-01 -1.81054322323872900D-01
 1 31 -3.97778760267248400D-03  9.35300045791963800D-01  9.82472036584453000D-02 -1.09575693996994000D-02  1.72766535439835400D-01
 1 32  2.05860127620914400D-01 -6.08543853162811700D-01 -1.70909987912460800D-01 -4.88857212100596700D-02 -1.32768278523942800D-01
 2  1  6.20425294357841600D-03  1.33120343268991000D-01  1.62584903044129200D+00  2.77505946185413900D-01 -1.42548903157398300D-01
 2  2 -4.96225180566056300D-02  6.22919049526591100D-01 -4.29224580006925900D-01 -7.05605965471286000D-01 -7.70812390036615400D-04
 2  3  1.96058248511787500D-01 -1.95287436121750900D-01 -2.33919972206539400D-02 -4.29836943047217200D-03 -4.22799407002191300D-01
 2  4  6.48704684495699300D-03 -1.16573094094494600D-01 -1.36425979722471300D+00  1.67474428438196500D-02 -2.98494196620983000D-02
 2  5  7.43227764513449300D-02  1.27207837052071600D+00 -1.96246661068153000D-01  7.71996024058553100D-02 -1.49642548286127600D-01
 2  6 -3.01854253085751400D-01  4.51496801371879000D-01 -4.20589061821928700D-02  6.71029517162865800D-02  2.01290949627182700D-01
 2  7 -2.18451033575566800D-02  8.19814573038343700D-02  2.36606951707183000D+00  4.21673078651817700D-02  7.86455073226160900D-02
 2  8 -3.66395767363497600D-02 -9.87912981127532900D-01 -9.41033203586868300D-01 -8.68774474111218600D-02  4.14249937568919900D-01
 2  9  6.00037475949061700D-02 -4.74253685163827700D-01 -2.73127391532978700D-01 -1.20054996291094700D-01  1.89130919179426400D-01
 2 10  2.44141519926351000D-01  4.10547766798403000D-01 -2.83191013908310600D+00 -1.42840450248320600D-01 -1.85465979713296900D-01
 2 11  2.26230301979769300D-02 -7.35146022194978300D-01  2.25042291797930500D-02  5.01968798635976900D-01  7.59077895255768500D-02
 2 12 -2.54675919413904100D-01  1.78768129888328400D-01 -3.24059779455152600D-01 -2.11162941600463400D-02 -2.50897891677895400D-01
 2 13  1.09627353397828500D-01  2.77388443452551500D-01 -6.25707454619607300D-01 -2.99827615639875500D-01 -3.17761607128726000D-01
 2 14  8.10935712979389200D-03  6.07814228887791200D-01 -6.34970815992035500D-01 -1.41134616117657900D-01  1.29775762494858000D-01
 2 15 -1.30039081422789900D-01  2.63318927933269000D-04  4.71607290646167800D-01 -2.76389736560084100D-02  1.19826257488995500D-01
 2 16 -1.85411061032457900D-01 -3.93289409094261800D-01  1.45555839087869200D+00 -1.17680680271649700D-02 -2.59787094077622400D-01
 2 17 -1.06950153722732400D-02 -6.09988720073869300D-01 -1.19174142018415600D-01  1.25779841316418400D-01 -8.92566620875055200D-02
 2 18  1.94611792146119200D-01 -1.05355130058613100D-01  2.80105752249724700D-01  1.08957548065109300D-01  1.06133289968903200D-01
 2 19 -2.05693843039111000D-01 -4.55627316876594400D-01  6.14430157023193600D-01 -6.18050040770267500D-01  8.12204810660017600D-02
 2 20  1.89422723553942100D-01 -1.22780934011404500D-01 -2.61641009294304900D-01 -6.50719105539998000D-02  5.16156205924819400D-01
 2 21  1.34277504918194200D-01  2.60241465132179800D-01  1.74986889739503500D-01 -8.53535659308237700D-02 -3.60447536800802700D-02
 2 22  1.21398319610904400D-01  7.56123155427682300D-02 -6.45587358880550000D-02 -8.45041518411068600D-02  1.43874444229192500D-01
 2 23 -1.38362777015758700D-01 -5.51166721343328900D-03 -6.76225764288107000D-02  6.47526416352085500D-02 -3.74917168617706800D-01
 2 24 -4.21201322171825000D-02 -1.03138510085532700D-01  6.14556055574018000D-01  1.08319848493985700D-01  4.48369566592420300D-02
 2 25  1.82592460566613400D-01  1.26610876370679500D-01 -1.44739037036787600D-01 -1.13622051576542900D-01 -4.37072596248964200D-01
 2 26  1.87821916283572900D-01  1.77021040557360200D-01  1.55382349884751100D-03  2.65066167870424700D-02  5.26519025945910400D-02
 2 27 -7.91585193816336200D-02 -1.29966354695137000D-01  9.78421808117070500D-03  3.97159346307958000D-02 -4.58165321988016800D-02
 2 28 -2.51037578346990700D-02  7.09202900335007800D-02 -1.07717438282043100D-02  1.33687642664366300D-03 -3.01488911496236000D-01
 2 29 -3.26444974064963100D-02  1.34392059979587900D-01 -2.95917558846095500D-01 -4.97802023377464000D-02 -2.13258445534441900D-01
 2 30 -6.47527532163411600D-01 -3.37639767760626100D-01  3.23829542058157900D-01 -1.30921369170691200D-01  2.09012607472263300D-01
 2 31 -5.28519663185835100D-01  3.01089528867499200D-01 -3.53068799789455500D-01 -1.65594511902153900D-01  5.03196109137315300D-02
 2 32 -7.70079057535866000D-03 -2.53065293669760400D-01  1.01688063457024000D-01  4.51807269137637000D-02  6.26183679542868100D-02
 3  1  1.03888320999729200D-01  2.08490289698329000D-01 -4.19045145911466600D-01  2.25463472390800700D-01  2.75492347730363500D-01
 3  2 -2.94326567988207500D-02 -7.32965449784270600D-01 -5.21096348150853300D-01  1.98059046048480800D-01 -3.14612276985637100D-01
 3  3  2.67814062332036700D-01  4.67982146536006600D-02  2.44817207752374000D-02  1.51369815079817700D-02 -5.87121676395902400D-03
 3  4 -1.97044707711528900D-01 -4.50052213513156800D-01  2.99332280558309500D+00  2.98301550254160600D-02  2.32801461454015500D-01
 3  5 -1.40553189457910800D-01  5.05941726203343900D-01 -1.28584533950214700D+00  1.38154615867951100D-01  1.20888260676756500D-01
 3  6 -2.07482099847884500D-01  8.65938391711286900D-02 -5.30295694695744100D-01 -2.06538683135298900D-02  1.52942566357169700D-01
 3  7  3.37723184917237100D-01  6.73672504906501100D-01 -3.03214049849447700D+00  3.43897774363546300D-01  3.63991677526207000D-01
 3  8  1.17560054973093200D-01  4.07730046664994600D-02 -1.69652462726658100D+00 -1.09557532149703700D-01 -3.33766436579962100D-01
 3  9  1.30511051466141800D-01  2.03255385113820000D-01 -8.11172517994013500D-01  7.60700524546684700D-02  8.78789159398580800D-02
 3 10 -9.49696106630461400D-02 -1.46347328758792700D-01  1.66468105427336700D+00  1.92947202885146400D-01  2.18202085777760800D-01
 3 11 -2.23419042313222100D-02 -1.07004245699765000D-01  2.45668311749907900D-01 -6.51676812179684100D-02  3.95271272371265000D-01
 3 12 -9.37047761964699500D-02 -3.01566496174794600D-01  2.56383042003889700D-01  6.40405474475324200D-03 -1.71500390106099300D-02
 3 13 -1.07066705458983000D-01 -3.05931877657303300D-01 -1.83349212269287300D+00  1.38510459175577700D-02  3.06286180916557700D-02
 3 14 -5.46143723269077900D-02  3.60834196179089900D-01 -1.22343076648700300D+00  2.40918762165683300D-01  4.95455794260047000D-02
 3 15 -1.62460464600220700D-01  1.12914885174213500D-01  3.07118518716210900D-01  4.22752220174811100D-02  1.08762358125549600D-01
 3 16  6.40159859270537000D-02  2.29904390217998600D-01  1.10796141473214500D+00 -1.36281936426784300D-03  6.43138710110565400D-02
 3 17  3.94781455755910400D-02 -7.21166222807844600D-01 -1.36292565504505200D+00 -1.96689408390182900D-01 -8.18655272728794200D-02
 3 18  2.66820246981628900D-01 -1.84954719708749600D-01  4.47163528470666400D-01 -9.22188906351185700D-02  1.94700514610216700D-01
 3 19 -3.00247076814565600D-02 -6.62298259671455400D-02  2.72334334683582400D-02  1.08177511406207700D+00  4.89363261299119100D-02
 3 20  4.15640436182193900D-02 -1.93844472468320800D-02 -3.46383628023939000D-02  6.94452171823869900D-03 -1.85191443761212500D-02
 3 21  2.91859836514483400D-01 -5.79349669335714900D-01 -7.07830469828610200D-02 -1.27688942724663800D-02 -4.96401243926421600D-02
 3 22  6.24090186651098700D-02  1.08705556483644300D-01  2.03180787208341200D-01 -1.98027329165143200D-01  1.02418361416263200D-01
 3 23  9.54086224872201100D-03 -1.11959223664986000D-01 -1.31984457018946000D-01 -2.22527354179728900D-01  2.64385962108690200D-01
 3 24  1.06669059996745600D-01  2.32487300141558100D-01 -3.27929840874390900D-01 -8.79856224867012400D-01 -5.80952398518567000D-02
 3 25  8.06757257404952000D-02  8.25972620894436500D-02  2.17605323150497100D-01 -2.77845740901761200D-01 -1.12188961115950600D-01
 3 26 -6.34983796898670900D-02 -5.68224979237359700D-01  8.20077957441796200D-02  4.90000223382185100D-03  1.06936877176139900D-01
 3 27 -1.11836879409961100D-01  7.72081942165284600D-03 -1.84981705193378600D-01 -5.37401117708658400D-02 -1.72667620553446500D-01
 3 28 -8.01808783906900900D-02  2.52848498944136500D-01  1.67615947796222000D-01  1.85314449767296600D-01  1.40460613557025500D-01
 3 29  1.76545981499086600D-01 -5.77940547703385800D-01 -9.05188811839010300D-02  3.05296982400654900D-01 -2.99813214737253800D-02
 3 30 -2.59357956251672100D-01  6.78564889889296100D-02  4.27184560125092600D-01  1.13216426770027800D-01 -7.52122462643744800D-02
 3 31  1.27281160152793100D-01 -9.49957135813356500D-03 -6.88178981899723500D-03  1.00518576048879600D-01  5.72471136460627000D-04
 3 32 -7.70922828654408000D-02 -1.00345170234284800D-01  1.78120716412308200D-02  1.80044272925017100D-01 -1.46617342526824000D-01
 4  1  2.57058961846270400D-02  5.64701950250334900D-02 -1.10451391230163400D-02 -1.51262610435468800D-01  8.06283654090816200D-02
 4  2  3.05774185382199400D-02 -6.06988472145870600D-01 -5.25819382418190600D-01 -4.50536047372434100D-01  1.49376797092547700D-01
 4  3 -6.69147990057579300D-02 -8.24619980867905600D-02  1.96797545378557300D-01 -1.10046403545474600D-02 -1.04026836968974100D-01
 4  4 -1.25075562858754900D-01 -2.36394320085479600D-01  1.72830775533983600D-01 -8.19145653373340900D-02 -3.21936186547673500D-01
 4  5 -5.79177101024726200D-02  1.09948567491064800D-01  1.31064096538302300D+00  4.03933269714571000D-01  1.07620181047010400D-01
 4  6 -1.43361721433317400D-02 -9.32840089036794900D-02 -5.07328384925376800D-01  4.31907186565571700D-02 -1.61615360471446200D-02
 4  7  7.57725936441352300D-02  1.32352315643931400D-01  1.79429006599604400D-01  5.14234935721331800D-02 -3.52964436836339300D-01
 4  8  1.14078749202779700D-02  5.71433248425825200D-01  1.22208198919333100D+00 -2.83908463161973500D-01 -1.24530029657722300D-01
 4  9 -1.25296445412902900D-02  1.37059674199014500D-01 -6.26450305643654100D-01 -9.19753015974330400D-02 -7.43739619385858400D-02
 4 10  7.85579733655409600D-02  1.01095620370817200D-01 -1.77071802704200600D-01  2.26289840960659300D-01 -9.69123785397242000D-02
 4 11  5.89733153939357900D-02  1.30822161713323900D+00 -4.56422878284584500D-01  4.56100679651448100D-01 -1.20616163417920800D-01
 4 12  8.16821290898170200D-02  3.89340343281038600D-02  3.52445491901182600D-01  5.00857339471561300D-02 -3.48550785614315100D-01
 4 13 -2.30694454852304200D-01 -3.88026742532137400D-01  3.38615541743708200D+00 -1.99505669605992500D-01  1.61180658935966300D-02
 4 14  7.42162455469237700D-02  8.88218444624998400D-01 -3.09678321970876000D-01 -3.14188855486895000D-01  1.14207111787235000D-01
 4 15  3.13632619433122500D-01 -4.27839731220356900D-01 -5.58421947751352800D-01  9.58110131659927200D-02 -7.10844486793661100D-02
 4 16 -1.67412877065152300D-02 -6.58298065715969300D-02 -1.49146738859766400D+00 -2.29464707664469800D-02  1.81297045435908000D-02
 4 17 -1.20096842908399100D-01 -3.01793907399462500D-01  6.92613636982864500D-01  4.68326869581695200D-01  5.64082152592954400D-02
 4 18 -2.35110663919034600D-01  1.78702448659739100D-01 -5.29026186919465000D-01 -2.19522929024763700D-02  2.45848017725933800D-02
 4 19 -1.47618010730550000D-02 -3.22296917509368700D-02  3.03919399545506000D-01 -2.49844139170839500D-01  5.06431496332979300D-02
 4 20  2.49989274680822500D-02 -1.17012913299074700D-01 -4.05605264699457600D-02  2.68937065935582200D-03  3.41679813184110100D-01
 4 21  2.22915578256149000D-02  2.42245890285272100D-01 -1.20241018984771300D-01  1.57805655464139400D-01  7.18865090413606700D-02
 4 22 -2.29692164505502200D-01 -1.08241625008898800D-01 -1.00552643217866700D-01 -7.64440225832585500D-02 -2.01748709736333800D-01
 4 23 -1.17784840965042000D-01  3.19533550701376200D-01  3.03641854399414700D-01  9.76543089947185900D-02 -2.18370925199181200D-02
 4 24 -3.65154658162585600D-02 -9.67045280744143300D-02 -1.57768932028078300D-02 -4.76723307813078600D-01 -1.17755415133139300D-01
 4 25  7.42032047701404900D-02  3.07071605005749300D-02  2.01332041834310300D-01 -3.02368404905495800D-01 -2.92624818159479200D-01
 4 26  8.80445309281457100D-02 -1.89435594992098300D-01 -1.26831860421763500D-01 -1.35248366453254700D-01  5.34399304041815300D-02
 4 27  8.18084360490723000D-02 -1.99620749382102400D-01  1.18864622210040500D-01  1.08424502714569300D-01  1.99449058669211400D-01
 4 28 -2.22829819095508800D-01  2.33807604262974200D-02  4.95157225397846700D-01 -1.55368298447253300D-01 -3.65489087371437900D-01
 4 29  3.07137283338964700D-01 -8.67950008207421600D-01 -1.24772581988346600D-01  1.54309897924842500D-01 -1.45241610759290800D-01
 4 30 -3.41537000614379700D-01  9.61333110257088900D-02  3.05995774479183600D-01  2.32494536018907600D-02  1.23977427359005300D-01
 4 31 -2.53740360123337000D-01 -4.08644681096389400D-02 -1.72718988554159600D-01 -1.49467810436459700D-02  3.84500113907206000D-02
 4 32 -2.23888803352709500D-01  1.57136806665711200D-01 -4.71060834306760400D-02 -1.06135802549173700D-01 -1.03876687232114500D-01
 5  1  3.30251330045442500D-02  1.00604167649628500D-01  1.25020771127106800D+00  2.62540319326756900D-02  2.81978941613781800D-01
 5  2 -2.50613823237189100D-01  8.73609522069061200D-01 -5.23261420158602300D-01  1.84600254289336800D-01 -2.39477790561430600D-02
 5  3  1.45928832550402200D-01 -1.21981053494259200D-01 -1.42068324058675500D-01 -4.00899279788907000D-02 -3.10124805567484600D-01
 5  4  1.09425851100946700D-02 -3.54763149613424800D-02 -1.80212207630264800D+00 -3.39875280706341700D-01 -2.00705715033749000D-01
 5  5  1.61918151206156200D-02  1.48788667691310800D+00  2.90364998143827100D-01 -1.46928446465736800D-01 -1.76291398391671800D-01
 5  6 -9.82470006607148200D-02  2.74538399052387100D-01 -5.28157489302350400D-02  3.45471630570231400D-02 -1.11668970262003300D-01
 5  7 -5.19412226684010600D-02 -9.22910119713789400D-02  1.80488706421761000D+00  4.40003826742897300D-01 -6.64352411450286900D-02
 5  8  6.60490368329298100D-02 -1.14466091911219200D+00  1.17202315340888500D-01  1.14005873274434400D-02  6.17261639452033700D-02
 5  9  9.84511570803454200D-02 -1.60177321025548700D-01 -7.66796132518739200D-02 -7.56568684864644500D-02 -1.54843596644304000D-02
 5 10 -2.99101909078460100D-02 -1.11384041505175300D-01 -3.24979647441006400D-01  1.21349635090873200D-01  6.84692080348677200D-02
 5 11  2.10955241310839400D-01 -5.00716799936960900D-01 -5.00376718004606000D-01 -5.38990969511005900D-01 -1.48093607838998500D-01
 5 12  9.01354385809248600D-02  5.79581692580737300D-02  1.55989966601653300D-01  1.28569376622813100D-02  3.24125004715310600D-02
 5 13  1.16994902616507700D-01  3.35577479794821600D-01  6.43766314188573900D-01  4.45193771770799700D-02  4.35792058310461300D-01
 5 14  8.78892557845250100D-02 -6.23410604889202000D-02 -2.38316358667207900D-01  1.47082810641994900D-01 -2.19901307278872600D-01
 5 15  3.39999655155019600D-01 -1.20098347876145300D-01  4.72354673277841000D-02  3.47235945923955700D-02  5.00524296102240100D-02
 5 16 -9.19484304074316400D-02 -2.67520487812081900D-01 -2.70199629402634900D-01 -6.01535467109784900D-02  3.12738703958708500D-01
 5 17  6.11408441622558100D-02  4.83162645295757900D-01  3.68625115805990900D-01 -3.34150591480839600D-01  2.41864424776855300D-01
 5 18 -3.92807362370946700D-01  1.50942937594092500D-01  1.83574683559562100D-01 -8.65464262368055400D-02 -6.96594272650635800D-02
 5 19  8.76890130713152400D-02  1.60895039619732300D-01 -4.95812763474205400D-01  9.39374145961083500D-02  1.22864175978162800D-01
 5 20  9.11682971649023800D-02  2.48149408057823200D-01 -2.63566627024217000D-01  2.41736238439598600D-01 -3.14887909922466400D-01
 5 21  2.15939819841018800D-01  1.13726664359490400D-01  4.55312316649191800D-01  7.24092584686066800D-03 -7.89485573188146900D-02
 5 22  7.17076314719533900D-02 -1.56913394628177300D-01  3.34943186440564700D-03  2.26991970692190400D-01  7.02415630880366300D-02
 5 23 -1.20895078418473200D-01  5.06535153304371700D-02  7.17329574650680000D-03  3.00215861187607300D-02 -4.88120387127168800D-01
 5 24 -2.32952458332833200D-02 -3.93985821027204400D-02  5.92099593194313100D-02 -7.83925149415741800D-01 -2.64491748980547700D-02
 5 25  1.04074159728751000D-01 -9.73548585675393000D-02  1.91953241953540200D-01 -2.04500803320694000D-01  2.29530989892031400D-01
 5 26 -7.13185015762582400D-03 -3.93786249668689000D-01  9.64493044775061900D-02  6.15308392396066500D-02  7.10378503329526700D-02
 5 27 -1.32568689572559700D-01  1.28965534884203400D-01  5.62249830605349900D-02  1.03188305570692000D-02  6.97224325750698000D-03
 5 28 -1.29581300124174800D-01  1.22609056866667600D-01 -7.48995201904747900D-03 -3.79433756805736600D-02  7.43919377329529300D-02
 5 29  2.74961648261580100D-01 -5.87523570840719700D-01 -2.16567209162490700D-01 -1.52390649856709100D-01 -5.12523674726074000D-02
 5 30 -1.94352815011687800D-01  2.94324666649705500D-01  2.93451762428997600D-01 -3.56796757376708100D-01  1.54016281787183700D-01
 5 31 -1.77225541221525300D-01 -5.82062475995303600D-02 -6.05848288123209100D-02  1.08957045415812100D-01  8.50891157965423000D-03
 5 32  3.22625878448438500D-02  5.91571668255866400D-01  8.54223391817180300D-02  2.39578413885235900D-02 -2.43936552691725700D-02
 6  1  4.28691278259120800D-01  8.70605020674136800D-01  1.08253905932147900D+00 -9.64132849455367200D-02 -2.01900941135531500D-02
 6  2 -4.89748976271560500D-02 -2.28382941467548200D-02 -1.48473934219662200D+00 -2.07409971795950300D-02  1.61345506083258100D-01
 6  3 -2.50993080148813100D-01  8.96475740655543500D-02  1.46493064346898500D-02  4.11720878586204200D-02 -2.77123781837933500D-03
 6  4  7.72487985276602300D-02  1.35405579270484400D-01 -3.34871241361582800D-02 -1.71381269515627500D-01 -1.32635363798610700D-01
 6  5 -5.81870376237342600D-02  1.19623550615265200D+00 -8.24786322069576400D-01  1.64515210619642700D-01 -7.33575942956123100D-02
 6  6  1.50530924113326000D-01 -7.71733298177141600D-02  1.54984345701353200D-01  1.51234500406772400D-02  1.78350497848977100D-02
 6  7 -1.67248133835698300D-01 -3.05100791963883100D-01  1.25873933611443400D+00  1.10357162386130500D-01 -1.37040427808741600D-01
 6  8 -4.07371151751548500D-02 -7.20930189755246900D-01 -1.64132118220000000D+00 -8.70294418241445000D-02  3.40803475329510600D-01
 6  9 -2.31024489695212200D-01 -1.09778985634295400D-01  1.82156877989440600D-01  6.12461316533667400D-02 -4.09994358916799800D-02
 6 10  3.89694719993401200D-01  7.14926939961298400D-01 -3.69779353974935100D+00 -7.60136143099404000D-02 -3.02311765900282700D-01
 6 11 -1.95435886959939900D-01 -2.03626095794827800D-01  1.66417635213072600D-01  1.54544011187947300D-01 -1.64230505398249800D-02
 6 12  1.64346871704499000D-02 -1.16366306244369300D-05 -2.66912189006222700D-01 -6.62707693591960600D-02  2.71222513584396500D-01
 6 13 -5.56518688058882100D-02 -1.11076022326130400D-03  3.22132486722491200D+00 -3.81100478229632800D-01  1.59966969103869500D-01
 6 14 -8.54554709094063300D-02  9.46202295987180200D-01  9.37201648173641400D-01 -6.56326443872554400D-02 -1.22171980841763700D-01
 6 15  5.64582082804120500D-01 -4.42410101962355200D-01 -6.21631208367834900D-03 -1.88110835494862700D-01 -1.54090174968396900D-01
 6 16  2.65750485717775700D-02 -4.43468490712868600D-02 -2.63025234717033700D+00  6.82949951528814500D-02  4.13685067947083900D-01
 6 17  4.61834351659558800D-02 -2.10573819827302000D+00  1.12172048473075300D+00  9.63486652336167900D-02  1.56617128053068700D-01
 6 18 -4.79677685207696900D-01  3.23060557154627200D-01 -3.93389337969914400D-01  2.83013362301000200D-02 -1.17058848249757800D-01
 6 19  1.57597159693219300D-01  3.33589364856848100D-01 -1.82734315717364700D-01  1.25567766328687700D+00  7.84002540508359100D-02
 6 20 -1.29515194275016100D-01 -4.07063271432968600D-02 -2.52036244250511400D-02  1.70789617231767000D-01  1.04089747091031100D-01
 6 21 -4.37951304525131000D-02 -6.29992345270877700D-01 -1.23520357951553600D-01 -1.92820177469935500D-01  1.74880992594987100D-01
 6 22  1.79391848749479700D-02 -3.08570937651495100D-02  2.02861851073677700D-01 -4.73681610162451800D-02  2.89082061507123200D-01
 6 23 -3.67905691530932600D-01  7.88236300238099500D-02  5.80583667912507900D-02 -2.07964617509931900D-01 -7.11455822397431800D-04
 6 24  2.93277357700911400D-02  5.84257567825821100D-02  3.05060652213989100D-01  7.56360647632551700D-01 -2.51091543009797400D-02
 6 25 -1.45534627221090000D-02  3.35948389124902500D-03 -1.56636357831829200D-01  3.15278683231870300D-02  1.59724937981096900D-01
 6 26 -1.06244829176952700D-01  3.17517589191965700D-01 -1.11304763326874800D-01  1.15509238103897800D-01  3.96063182169402000D-02
 6 27 -1.55115556320838500D-01  1.70298223482654200D-02 -1.50002366837102000D-01 -4.78418498378007500D-02 -6.54454804078743600D-02
 6 28 -2.94870777666003400D-01  3.60316258073877800D-01 -1.90455185374331500D-01  2.01980251368452900D-01  2.47919739487206400D-01
 6 29 -6.71619677903708400D-02 -1.62641514172349900D-01 -1.08410280757583700D-01  2.40234126586564400D-02 -3.17834073110598200D-02
 6 30 -1.64278411889087300D-01 -9.11974447547706100D-01  2.30184980171532200D-01 -1.84741383633090200D-01  6.90944754379417300D-04
 6 31 -2.62267088654796500D-01 -1.99599610687894400D-01 -3.11819987810494400D-01 -2.05614804897306500D-01 -8.57266227448090600D-02
 6 32 -2.57565547924843200D-01 -1.29874906659618500D+00 -7.04891015678306400D-02  1.61591681588430000D-01 -5.03502737095582500D-02
 7  1 -5.03752219442614600D-02 -7.95920508658893200D-02  8.41560227642769200D-02 -5.95533718499647500D-02 -3.75458461575994200D-01
 7  2  1.02192333427599400D-01  5.18754322532700600D-01  1.31990699184661800D-01  1.87325230372631800D-01  8.87253192091979800D-02
 7  3 -1.20565940446382000D-02 -7.66687251645599300D-02  9.77258476132042400D-02  4.74864722864703500D-02 -2.68350587043590700D-01
 7  4  1.22703934081984800D-01  2.25842562805315600D-01 -9.99791875498989500D-01  3.03225961775280000D-01  3.65465612718183600D-01
 7  5  1.55385885027283800D-01 -7.43590352166555700D-02  1.96575547353551800D-01 -4.03050456975005800D-01  1.55303106044114800D-01
 7  6 -1.74942737892051700D-01  1.96396318479372200D-02  4.22686991667529900D-01  3.81352892668760200D-01 -5.15817697027429100D-02
 7  7  7.02233555612743100D-02  1.82301447466134000D-01 -5.09542324516145900D-01  2.22962555066937000D-01  2.82583740604200100D-01
 7  8 -1.09143582968444400D-01  1.81715202925688100D-01  8.30107234292461200D-01  2.93658824390313900D-01 -2.34954297905250000D-02
 7  9  8.96597766056789500D-02 -6.61643468151526500D-02  1.53847703162445200D-01 -2.72188580001063400D-01  1.22639423240274400D-02
 7 10  7.66115691528921200D-02  7.21354086588112000D-02 -1.02699845649537900D+00  2.30958357192558500D-01 -1.25951635713480900D-01
 7 11 -1.75794950813443500D-01  1.50414654205534900D+00  1.56782262589422900D-01 -3.06168897988487900D-02 -1.89936229010159000D-02
 7 12 -1.45868542335691400D-01  1.64862165236707900D-01  2.82497395768455600D-01 -7.27672501374521000D-02 -9.43496593265199200D-02
 7 13 -3.29498604624720600D-01 -6.32573395168316600D-01  2.36222897866280300D+00  3.21348468903449300D-02 -1.18517082245035700D-01
 7 14 -6.81400688567273300D-02  8.09219151085299000D-01 -1.16656210167539000D+00  1.37332932869457600D-01  2.79898250896256300D-01
 7 15 -1.09064281056051800D-01 -1.70833969840204000D-01 -3.43613735207606100D-01  1.93327511270986800D-01  7.49474121517784100D-02
 7 16  1.15503227905057200D-01  2.57676520296215700D-01  5.80131237025647100D-01  6.22731884738846600D-02  1.24521508946963100D-01
 7 17  9.63130897153666700D-02 -9.96376523085525200D-01 -2.08208704677891000D-01 -2.61472514524990500D-01 -4.19281364681557100D-02
 7 18  1.65125319561698000D-01 -1.23197183093542400D-01 -3.56720820583878100D-01 -2.98933758639445200D-01 -1.37800154585131400D-02
 7 19  3.12090971518423400D-02  7.39110691834614600D-02 -2.44556787093306400D-01  6.90853865153873400D-01 -6.51485105946338300D-02
 7 20  1.13121004391002600D-01  6.03440291007666000D-02 -1.36729867609293300D-01 -4.74554237765038900D-01 -8.91130208154348600D-02
 7 21 -4.81372433136392100D-02 -2.59272358120157600D-01  2.03193820580778500D-01  2.44969473691841100D-02  4.11971653299602500D-02
 7 22 -6.56941126991453000D-02  6.46565894850244100D-02 -1.06800406066320900D-02 -8.94872881463613100D-02 -9.40908528647424600D-02
 7 23  1.97491569596109200D-01 -1.03400716731365700D-01  1.03129615650421200D-01 -1.27694413908238700D-02 -3.60741936967924900D-02
 7 24 -2.75222547032606300D-03  1.12975312533799000D-02  4.00301698278943000D-01 -2.37536674835314000D-01  7.09675539715390700D-02
 7 25  2.78634612519333700D-01 -8.38914205159150700D-02 -1.61336656577094100D-01 -2.75043959979076500D-01  1.94668402970495700D-01
 7 26 -8.93460393262225600D-02 -1.00062793134014700D-01 -2.54855582345026800D-01 -1.10855321439063100D-01  1.23521768363721500D-01
 7 27 -1.26664469246587200D-02  1.90748401633719200D-02 -2.01657232890481800D-02 -2.35795277126119600D-01  1.36277791317878900D-01
 7 28 -1.80171448845766700D-01  4.38936575278876400D-02  2.59924117354184400D-03  6.27593122996897000D-02  1.63104647607947000D-01
 7 29 -2.49271664486328200D-01 -3.52475472393858200D-01  3.86998110884844100D-01  9.41731299164701400D-02 -1.22476643850303700D-01
 7 30 -1.56215709665174300D-01  6.34571394359566600D-01 -1.07096323395837200D-01 -6.55626219859879200D-02  8.84011979271990400D-02
 7 31 -3.59160810599622900D-03 -7.05927012896045500D-01 -2.74598377735195400D-02 -1.63998705511996400D-01  1.66461063328335300D-01
 7 32 -4.22869460199980600D-01 -4.20171328413864500D-01 -2.96210522217803800D-01  1.18515314125892200D-01 -1.32799099612615900D-01
 8  1  6.56819975279674100D-02  4.85991840693566800D-02 -3.16489587506313400D+00 -6.50136052812574600D-02 -1.60670351038027400D-01
 8  2  2.81430238200231300D-02 -4.78693997507351400D-01 -5.81681475647857300D-01 -2.57089925112969400D-01 -6.66053150412000800D-02
 8  3 -1.11180287213982200D-01  1.77785602255181200D-01  3.92952775259795900D-01  4.70943356392562300D-02 -3.25632516005677200D-02
 8  4 -1.77186347200935200D-01 -2.78507158271573100D-01  4.07624900992999100D+00  6.21287079779816500D-02  3.11031858642749600D-02
 8  5  5.28016744669573000D-03 -1.11038274745205300D+00 -1.96957748587810900D-01  6.97721687932696100D-02  1.56228320555321400D-01
 8  6  1.93048423569331500D-01 -3.49276744124652300D-01  4.91137200686154200D-02  3.64714300327097900D-02  1.10197683150076100D-02
 8  7  3.62812996879776000D-01  7.93246266094977400D-01 -3.05709451563701500D+00  2.09750441099757600D-01 -2.05372679706715500D-01
 8  8 -1.10554893394934300D-03  1.71157901053007000D+00 -1.57542061475785800D+00 -1.07993809487416400D-01  2.82598809654204900D-01
 8  9 -3.06920494277037400D-01  2.43216846228349500D-02 -1.83748131494576900D-02 -6.18116160866196400D-02  2.96603963072817900D-02
 8 10  8.65607470869257800D-02  1.56044955607944200D-01 -1.30467140593649300D-01 -1.25728653893384700D-01 -7.78594220565017300D-02
 8 11  4.77457028968158700D-03  8.24701719345151700D-01  1.84486952469225400D+00  2.90840977010050300D-01  2.31660347080092200D-01
 8 12 -2.86750992864112800D-01  5.50906457840206000D-02  2.71794190938657900D-02 -3.85133042369484500D-02 -1.24297421430491800D-02
 8 13 -2.04842408683744300D-01 -4.20767359749355900D-01  9.24182461864359800D-01  1.54641407994631300D-01  2.83162075953475900D-01
 8 14  1.96109639398764300D-01 -1.62096167538562300D-01  5.00409226180331000D-01 -2.95705667246178900D-01  8.36498983334970100D-02
 8 15  4.76220870913616200D-02 -1.31271985424862000D-01 -2.14132547098270900D-03 -1.76773729857540900D-01  1.22312353901638900D-01
 8 16  2.34660195542083000D-02  2.04823393939038200D-02 -8.13046887266058100D-01 -1.26330200701436200D-01  3.44300717589413500D-01
 8 17 -1.16087918507151300D-01  3.03454660159854800D-01  6.64262603497086500D-01  2.33714932774159800D-01 -1.85722038287233700D-01
 8 18  1.64676509419548200D-01  2.10455288676835600D-02  1.19528735445698800D-01  1.22615737815492500D-01  1.14810319109580600D-01
 8 19 -1.74756925938194900D-01 -2.96055772535117900D-01  1.54184541012879900D+00  1.36031348364859500D-01  7.38153829713322900D-02
 8 20 -2.07371316815422700D-02 -3.06964467406339300D-02 -2.59627720036286400D-01 -7.41195911271331400D-01  1.15275541577432300D-01
 8 21  1.64892759303626700D-01  1.55160941991927800D-01  1.40469103039857100D-02  1.06384249495722500D-01  1.04582382491995600D-01
 8 22 -2.10966631987716800D-01  1.58753644137431800D-01 -9.81604086903647600D-02  3.95240076505281800D-02 -2.60619981438545400D-01
 8 23  2.87906887337073700D-02  2.31829292704836800D-01  1.02992772426618700D-01  7.84891652758651100D-02 -5.69542651185639100D-02
 8 24  2.08381505914524200D-02  9.78558530144151600D-02  8.02243907293359500D-01  8.86834623537767000D-01 -8.97389731623456200D-02
 8 25  6.49577295547325400D-03  3.19529561000135600D-02  2.61818913262360200D-02  4.78997296063995300D-01 -1.46447519341380600D-01
 8 26 -4.33108877779117600D-01  1.56770686332185800D-01  4.09174476288096700D-02 -7.75586219358803400D-02  6.28716897004200500D-02
 8 27  1.46869322354607000D-02  3.15366179079813800D-01  1.83623787153262600D-01  1.26420636832425100D-01  6.19443426670629800D-02
 8 28 -7.80897174333449500D-02  1.61453747662820000D-02 -3.46994509436905400D-01 -1.45397638676668400D-01 -1.41222161038369300D-01
 8 29 -5.26100636682331900D-01  8.28920623910230800D-02  1.12491029226281300D-01  7.91376941285775000D-02 -1.51778663947059200D-02
 8 30 -4.95582936811172700D-01 -7.05476137319658900D-01  3.23275646679362100D-01 -2.78008032181887600D-01  7.38099188389875200D-02
 8 31  1.47813997760983300D-01 -2.47563027889890600D-02  3.68514097417421700D-01 -2.47793778917842400D-02 -1.76412634545061300D-01
 8 32 -4.30861873335084300D-02  2.61213310050505500D-01 -1.72546770925445800D-01 -1.33094521874426100D-01  5.70306400192794000D-02
 9  1 -9.54061245729545500D-02 -2.38439198074941600D-01 -1.53007069264801600D+00 -1.71393046422380000D-01 -3.80404238685339900D-01
 9  2 -1.11485051739645400D-01 -1.12118001068174700D+00  1.09771430432918900D-01 -2.10419043781864500D-01 -1.41966381080224600D-01
 9  3 -1.82494371919510200D-01  3.24460752999733100D-01 -8.93396683512547900D-02  1.73277514894928300D-03 -1.44999853151841900D-01
 9  4 -2.66766746444662800D-01 -4.50531556982760900D-01  4.21563211524294400D+00  1.54092096450157400D-01  1.59436141857146800D-01
 9  5 -3.48534973508418300D-02 -9.57329928824541000D-01 -6.35386352995856900D-01 -2.35779514760157200D-02 -5.30050899223037000D-02
 9  6  2.93890409757963200D-01 -2.40885319835659500D-01 -8.45968630428931800D-02 -4.03953418659456500D-02  8.92574036222118900D-02
 9  7  2.44717304034179900D-02  7.40127893809920600D-03 -1.44504663197143000D+00 -2.10424834282805300D-01  5.71147108217122000D-02
 9  8  3.91412732480401500D-02  3.30342512881229100D-01 -1.58158921568367100D+00  1.25228772929219200D-01  2.41733146996270400D-01
 9  9 -2.76219114898728600D-01  3.44859679024599900D-02 -3.73086317324291100D-02 -3.49518697523471800D-02  9.10220585175062100D-02
 9 10 -8.26317950104165100D-02 -1.34701284586847400D-01 -1.38092005849370000D+00  1.18491081625577500D-01  1.04652874555873200D-01
 9 11  3.41841607544585500D-02 -3.68565514282007700D-01 -1.47191675034716400D-01 -4.90512846300065800D-01  1.19283963749897100D-02
 9 12  3.32940362075447400D-02 -4.52224325825346600D-02  1.18144580401355300D-01  3.96433750459657700D-02  9.77378095856012800D-02
 9 13 -2.49527072630321300D-01 -4.69980480786189700D-01  2.30611956359687900D+00 -1.02258830781878100D-03 -9.04743641517496700D-02
 9 14 -2.24779670648715700D-02  6.07284531922454800D-01  7.05851153751801400D-01  1.74681676587153600D-01  1.34925971063353800D-01
 9 15 -1.35973328127343300D-01  1.04735706398849800D-03 -7.52061452575732600D-02  7.16958966828520100D-02 -7.01437880066914000D-02
 9 16  9.98560748248398400D-02  1.61736416541046600D-01 -1.35683049959768100D+00  7.55030496636491000D-02 -6.60949658765132300D-02
 9 17 -1.53771056100055200D-02 -8.34186459859304300D-01  7.80304829557605800D-01 -1.92493082326865800D-02  2.08095525833260900D-01
 9 18 -7.95862726090852000D-02 -1.28509253224176700D-01 -1.79571468282086100D-01  7.82798106538276100D-02 -3.39066429116394200D-02
 9 19 -2.12172969450328400D-01 -4.08505676169809300D-01  1.22122872778180200D+00 -2.39952229479407300D-01  1.43554033752042400D-01
 9 20 -2.80124963117314400D-01  1.01762960020989600D-01  1.06147648210500400D-01 -2.84798933072774900D-01 -4.94934308461081100D-02
 9 21  1.63435585441649700D-01 -5.39869168949213300D-02  2.50617348709079100D-01 -8.09503112340397300D-02 -6.19016660463395400D-02
 9 22  1.42851977280379300D-01 -2.99270002666051300D-01  4.03981873170221100D-02  1.53739013556502100D-01  1.85590368187181900D-02
 9 23  3.09894977416804300D-01 -3.28454014235524200D-01  1.75747730344678300D-01 -5.36404997274937300D-02 -3.55558792362829700D-01
 9 24 -1.86181777848975100D-01 -4.06243758632961300D-01  6.90751320093613500D-01  1.18781316961088500D-01 -9.08323667088179700D-02
 9 25 -1.80491975387148000D-01  1.19785705037461400D-02  2.31319110851808600D-01  6.31179490085794700D-01  1.48862241276171200D-01
 9 26 -2.43262933971292300D-01 -1.62548445321480500D-01  8.57801560434837500D-02  3.64516361088248200D-02 -1.40189859350214600D-01
 9 27  1.03738223241389600D-01 -1.66542897205194300D-01 -6.70615967329610100D-02  6.03925604028989200D-02 -1.34469124908709300D-01
 9 28  2.23524033804609800D-01 -8.90549088959006600D-02  3.26140923620305900D-01  2.32113654581969100D-02  2.59641258120397200D-01
 9 29 -3.47120753667255100D-01  5.54014084539379000D-02  1.99814778236844400D-01  9.88935413181634300D-02 -9.17757105255749900D-03
 9 30  2.80515241925220600D-02 -2.20412300057639300D-01 -1.29122607148651000D-01  1.41397828429814100D-02  2.79413935951091000D-02
 9 31  1.02266811122089600D-01 -3.89305617318691500D-01  2.61554963762424100D-02 -6.89199770373231400D-02 -3.19549971760681200D-04
 9 32 -3.18759528879422800D-01 -3.29431265665875500D-01 -8.57903684269076400D-02  5.31908923059829900D-02  6.75391760308148700D-02
10  1  2.72213234979274200D-01  5.73435202240368100D-01 -1.17183335756358200D+00 -1.07125657514388300D-01  1.93838664867171000D-01
10  2  1.54945064710358300D-02 -6.26396286882532800D-01  2.66472764999773800D-01 -5.50666017540070900D-02 -2.10353893898712500D-02
10  3  2.29990961583296200D-01 -2.08955572193424400D-01  2.42194431312785300D-02  2.48327961910281100D-02  1.09867784625992600D-01
10  4 -1.33454695778375200D-02 -1.33524972390265800D-01  1.91512564875924500D-01 -6.93478254051850300D-02  2.27437833042073900D-02
10  5  1.59630987782493400D-02 -7.76157026738719100D-01  4.45166818975632800D-01 -1.31298524011027200D-01 -1.27287175673380100D-01
10  6 -3.82719526031679900D-02  1.65559128276548000D-01 -3.21504883696693900D-01 -2.01844618859026200D-02  1.81904727628380000D-01
10  7  1.01804191327828800D-01  3.02041587269864900D-01  3.13095576566534200D-01 -2.42346568464729200D-01  1.44948114776194100D-01
10  8  9.29475624055286200D-03  1.72026643409503500D-01  8.07220627360254700D-02  1.86345970800851800D-01  3.24343914476690700D-01
10  9 -2.14836566951718200D-01 -1.09507347524972700D-01  9.45805993380019100D-02  4.08692422699235500D-02  1.83012501053274800D-01
10 10 -3.05219804617972500D-01 -6.29068048875463900D-01  3.17475022627749400D-01 -1.78151116952494300D-02  1.63971688642253800D-01
10 11 -1.90435278269347700D-01  1.21670589002971500D-01 -4.63244139244236200D-01 -5.19153855674152300D-01 -3.10394403425323700D-01
10 12  2.08695695561040900D-01  1.01698707864283200D-01 -4.24703826481070100D-01  6.65303389397464800D-02  4.86097038202668800D-01
10 13  1.53072212784408300D-01  3.03410751553403600D-01 -1.53225290706272000D+00 -1.14855109867483200D-01  2.75041923683759400D-02
10 14  2.00148664886696800D-02  3.87437932782199300D-01 -2.21131143449824400D-01  5.87491832524647300D-02 -1.56674563134430500D-01
10 15  1.13754737870640000D-03  1.55537015755723900D-01 -5.88639919674769700D-01 -2.90768005689855400D-02 -5.50127133583969400D-02
10 16  3.85536379168079100D-02  1.02386792460196200D-01  4.59231427679717800D-01 -1.47865506910842500D-01  4.12436105706985200D-02
10 17 -5.57054741925514000D-02  2.04946986665821100D-01 -4.55235960030710800D-01  1.01805860833230100D-01 -4.71842515913613500D-02
10 18  7.01099430114155800D-02 -2.29256914200539400D-02 -4.13365960778169200D-01  1.37115125280384400D-01  2.90405930769400800D-02
10 19  7.30673150222462300D-02  1.17813910895646600D-01 -5.47452176466323400D-01  4.64241237404689700D-01  1.45073565921742400D-04
10 20  8.24306477721143400D-02  3.15857041525091000D-02  1.07162748883486400D-01  2.75625516287391600D-01 -7.57642549652963500D-02
10 21 -8.39509513081029700D-03 -3.47488064090423600D-01  1.45118628057221600D-02  6.96773519119900700D-02 -7.61773953460209600D-02
10 22  6.50004343403165900D-03  8.98313783121108700D-02 -4.10648394072402700D-02  7.20833533106421100D-02  1.32006586026514400D-02
10 23 -1.47275013868989000D-01  1.34074355266337900D-01 -8.09755549198379900D-02  6.51931033573136600D-03 -1.45375549358227600D-02
10 24 -1.39193980560060500D-01 -2.70658171382534200D-01  2.73310945523726600D-01 -4.99496206694038700D-01 -9.14856377476217800D-02
10 25  1.44624081459409600D-01  3.55801928318410600D-02 -5.73031799561713700D-02 -6.28125437413731000D-02  2.98240258684719300D-01
10 26 -8.39271239342353200D-02  8.58108273469102600D-02  2.48195856390764600D-01 -1.25413959151478300D-01 -1.44724407763111100D-01
10 27  2.70138366914589500D-01 -6.08186212863693900D-02  1.67108714934094100D-02 -3.03573621872288500D-02  3.39508982710344200D-02
10 28  4.39082945494254200D-01 -4.73033843765288800D-01 -1.97320811534019400D-01 -9.67223090775936300D-02  6.26107483051710000D-01
10 29  4.64004846480551000D-01  5.05853474538339100D-02 -2.68547267552205700D-02 -1.16062441247215800D-01 -3.04258420334008400D-02
10 30 -2.12681311107244700D-01  2.45651551300872600D-01 -1.40671100766753600D-01 -1.38626572009945700D-01 -3.67892085875748800D-02
10 31  2.31631244577292500D-01  7.35226673677159000D-01  2.55623737057347500D-01  1.16604493603917200D-01 -1.03717503020112300D-01
10 32 -3.20861525346307400D-01  1.73355851282095000D-01 -2.62286835044201900D-01 -7.50529123926773900D-02  7.20775412391451600D-02
11  1 -3.31990818282423300D-02 -2.74605909571105400D-02 -2.24328230171529800D-01 -7.01851437576290800D-02  3.41278175678529600D-01
11  2  1.34313893527534500D-01  2.02666654457681600D+00 -1.17939354973990900D+00  2.29457609504601200D-01 -5.49204692280100300D-02
11  3  2.06169862824317700D-01 -1.51249393596307200D-01 -6.41072339088620700D-02 -4.13167093094844600D-02  3.54243529225318400D-01
11  4  1.98220214010255500D-01  4.02719155322794000D-01 -1.88463996114942600D+00  9.65734658231011000D-02  2.67866087821802500D-01
11  5 -2.77184053193207100D-02  4.35371419454592800D-01 -1.03789891207006200D+00  1.27555124283857900D-01 -1.39833238823159400D-01
11  6  1.20814219295474200D-01  1.90190195276857900D-02  8.60319801356519600D-02  4.31228045648004800D-02  9.03208810492519400D-02
11  7  8.23074153953926700D-02  1.39395278140123100D-01 -6.50924824138498800D-01 -3.94605424528652400D-03  1.32972937170733300D-01
11  8  4.68141075754686000D-02  4.38589606479701600D-01 -3.16242858074781000D-01 -1.27485691549737600D-01 -8.26614353155546300D-02
11  9  1.75511023526357700D-02  6.51103329629189300D-02 -2.08699282325185200D-02 -1.25889498939127300D-01  3.06654279714913000D-02
11 10  2.78207975237769200D-01  5.83297209638855500D-01  5.38715321912119500D-01  1.40976369378528000D-02  2.19881089954777900D-01
11 11  1.91897557159694600D-01 -3.84884449773126400D-01  6.86904477386172800D-01  2.76858972705167800D-01 -8.66266713337970800D-02
11 12  1.01481317061705500D-01 -1.48546457279076600D-02 -1.66682824768368000D-01 -1.13322834016652800D-01 -2.89362785034236200D-01
11 13  8.48383181096783500D-03 -4.38259528001167100D-02 -3.37649368302352600D-01  1.49103975207011300D-02 -4.00097748087359800D-02
11 14  1.12693926057691100D-01 -8.31749075942873000D-01  4.56590308712824100D-01 -6.37294893208228400D-02 -4.22873604121930100D-01
11 15  2.07828780660761400D-01  2.15044823461168600D-01 -9.55220007028471400D-02 -2.19750723958300900D-01  6.99089177237796800D-02
11 16 -1.37414369065337500D-01 -2.26609571742928700D-01  1.70476280534340600D+00 -3.65075114567643100D-02  6.83657422418096900D-02
11 17 -4.24230720599329500D-02 -1.62699456796104700D-01  1.46568139416566900D+00 -9.32491811797654300D-02  1.47288256235454200D-01
11 18  1.05592327203671300D-01 -2.52880583439125100D-01 -3.24133201683302600D-01  1.42930196321519200D-01 -1.65195403262576700D-02
11 19 -7.22196908841959600D-02 -1.78670076649848400D-01  3.22358668498351700D-01  8.51212797471227900D-01  1.07377648294806800D-01
11 20  2.89642415326686100D-01 -3.00881584440852800D-02 -4.19505809299491300D-01 -3.00328494279436400D-01 -1.99431541272585100D-01
11 21  1.22016189303251400D-01 -2.07583314388731700D-01 -9.59187246481071800D-02  4.24298609635597700D-02 -9.35513174601254700D-02
11 22  5.11214564965658900D-02 -2.03778351259460400D-01  1.34698159165375300D-02  1.32943515759353500D-01  4.86204653604752600D-02
11 23  9.10109303238953000D-02 -1.39631395684369800D-01  9.05578954237797300D-02  4.22046197376450200D-02  3.72261878213144900D-01
11 24 -6.73824707921525000D-02 -1.44372206430857600D-01  3.26640487037118700D-01  2.81383587300255200D-01 -2.53136007228014400D-02
11 25  1.14903772260936600D-01  3.07220938078400600D-03 -1.74561360196271700D-02 -1.57053038043960900D-01 -2.49830549212126100D-01
11 26  1.53186382852944700D-02  2.25692348785047400D-01 -5.28383286984378500D-02 -5.17200238755167600D-02  6.64809682239431300D-02
11 27 -1.47609443484260800D-02 -5.32425927036691800D-02 -2.82052788921833600D-02  1.79539967208365100D-01  2.12436449762643000D-01
11 28 -3.09854059910701600D-01  9.74176101480585700D-02  4.12649112010088600D-02  1.47728572191538800D-01 -4.55148990240817500D-01
11 29  4.90080875582389200D-02  1.81389689824171400D-01  2.36519669276052800D-01 -9.67741862678867700D-02 -1.66616251211010300D-01
11 30  9.12378765461634300D-02 -3.25960918731729800D-01  2.26554555523908800D-02 -1.39520624187127300D-01  1.13783107124154500D-01
11 31  2.10832436768579000D-01 -2.14755934636103700D-01  1.05285995365239600D-01  1.73150574696116400D-01 -2.23531358637275300D-01
11 32 -5.07658181225497200D-01 -9.45663264479526900D-01 -4.00587759984973200D-01  2.38716609957438600D-01  2.25861706319192400D-01
12  1  6.08830108695932900D-02  1.40955541012671700D-01  1.78859127882863500D-01  1.82788113149697400D-01 -2.91003461157951800D-01
12  2 -1.37585884962548400D-01  1.07267827544953000D-01  1.40444950007050400D+00  3.93949097116578300D-01 -1.56226776537180000D-01
12  3  2.06621172879914300D-01 -5.03943963427340400D-02 -3.20378419710626500D-01 -1.26029654114324500D-01 -6.79686465965688400D-02
12  4  2.93395734454799700D-02  1.73403631530988600D-02  9.10339581943976900D-01 -2.04004025365824700D-02  2.44222490610780500D-02
12  5 -4.33164679731701500D-02  9.73741447641242400D-01 -1.35015879300380300D+00 -1.49407595862545700D-01 -1.88703132281497000D-01
12  6  2.78763746302859900D-01 -9.00606140213622000D-02  2.55138820654202000D-01  3.98663141713971000D-03  2.03873822847210900D-01
12  7 -7.98726968547840400D-02 -1.68317887769968300D-01 -4.15656156252291100D-02  1.49680093749629700D-01 -1.46922077971327600D-01
12  8  1.64211250668099300D-02 -1.30076091933558400D+00 -7.64184047807816600D-01  2.07083589537809600D-01  1.60548291728547500D-01
12  9 -2.52984546092731000D-01  9.24362543641828900D-02 -9.83282144946320500D-03 -3.25489944664191000D-02  9.80107251121036200D-02
12 10  1.15960433040784700D-01  2.93475552137435000D-01  2.29656511882220700D-01  1.62172633858846100D-01 -3.13995254200221800D-01
12 11  1.96771074070413200D-01 -1.83729372075649400D+00 -8.85702218461725800D-01  1.47432997464186600D-02  2.40538802994445900D-02
12 12  2.16563801344783400D-01 -2.40617681644228200D-01  4.85131158943409700D-02 -4.71040176113608300D-02 -2.27160760468892700D-01
12 13  1.32105443337803800D-01  2.46837761440748900D-01 -1.56232488851633500D+00  4.32459051541214400D-02 -1.02740100053960900D-01
12 14  9.60050818826802700D-03 -8.03817409333328800D-01  6.09181807857834700D-01  1.38401133967712900D-01  3.02379625649488100D-01
12 15 -2.80625295312789700D-01 -2.17543303366991500D-02  1.38974123673350700D-02 -2.72541137910975900D-02  4.96379043032933700D-02
12 16  1.56741993362050300D-01  3.43635015636630700D-01 -2.69298064237497200D-01  7.40126339434258500D-02 -2.49669928706456900D-01
12 17 -2.81159615136294800D-02  1.30301455047984500D+00 -3.87646646501443600D-01 -2.36353847323923700D-01 -9.27921656463262200D-02
12 18 -5.91235799932911800D-03  9.87045236456562900D-02  1.90771124543074900D-01 -6.79399455207532200D-02 -9.93591915154882900D-03
12 19  1.52629423299164200D-01  3.26265299414394500D-01 -1.22129433609403100D+00  2.85350556115488100D-01 -2.72055928040351700D-02
12 20 -1.37934285427039700D-01  2.04612793397632500D-03  2.43962104581607000D-01  4.28339053088931700D-01 -5.10163462853382500D-02
12 21  1.54290835356015500D-01 -6.86204898884503400D-01 -3.45439398958076700D-02  7.51044082997793700D-02 -4.41679349362200700D-02
12 22 -3.09364733635590100D-02  8.98124083862195100D-02 -4.00144757733721700D-02  1.69202305446075300D-02 -1.21191620415839700D-01
12 23  2.35177509317046600D-01 -1.13985888901207600D-01 -3.35425634171550700D-01  1.55802480181592100D-01  8.49488389864378300D-02
12 24  2.09936634418685400D-01  3.92404079842507700D-01 -1.44776923359327000D+00  1.62760311035662300D-01 -5.86345238373336900D-02
12 25 -5.31912259567161800D-02 -1.02602121031689800D-01  3.39395407755446100D-01 -5.28670084668741700D-01  5.40623057345701800D-02
12 26  5.09697219671536700D-02  1.26791431355581700D-01 -2.71892246698769400D-01 -1.72604195101373100D-01 -1.91205121797359200D-01
12 27  3.63809316898732600D-01  5.03868799986338200D-02 -2.90947701477683100D-02  3.34858400296099800D-01  1.41861049535113900D-01
12 28  9.50217611326950000D-02 -2.36882810667808900D-01  6.03267649123647900D-02  9.19031779986595900D-02 -4.58744163361018300D-01
12 29 -1.43022147763894800D-01 -3.21696408663692500D-01  5.76795917563999400D-02  1.36086031573245800D-01 -9.87580296254543200D-02
12 30 -7.49830467838023000D-02  5.02244380367922800D-01  6.91586475074275100D-02 -1.65269745372542200D-01  3.34024619349399400D-03
12 31 -1.12488482864089500D-01  3.15013184615221600D-02  1.95659389268354100D-02 -1.10703326347469700D-01  1.40150964603642600D-03
12 32  4.06016301056368600D-01  6.33094660502450600D-01  2.26522513010218900D-01 -5.13702514814633000D-03  7.36841609047561200D-02
13  1  9.46756492649817300D-02  1.43341810436039000D-01  1.02142956248375500D-01  3.05609474118474700D-01  1.25116421823826400D-01
13  2  2.02435047906336100D-01  1.08990892278250200D+00 -1.34144883902194900D+00 -3.47002862174769000D-02  8.34158637203916100D-03
13  3 -6.35558662717772300D-02  5.52142798997376600D-02 -3.81902414714255800D-01 -4.60512181374129400D-02  3.52665561269068600D-01
13  4  6.75846268478570700D-02  7.84713682338962500D-02 -1.72747510747496500D+00  2.36418774483623200D-01 -1.63468328237697000D-01
13  5  4.39336631790087700D-02  7.23583368098172100D-01  1.94146196223814900D-01  1.28492167380460900D-01 -1.93183830782960100D-01
13  6  1.02949434256691300D-01  9.02343965262690600D-02  6.43071990538870800D-02 -6.89472548377861200D-02  2.71889526830794800D-02
13  7  9.32297868648205400D-02  2.02397938970433000D-01 -1.00149005291536200D+00 -4.59126093551086200D-03  4.76663744852498700D-02
13  8 -6.00666027291236300D-02 -1.77739340516421600D-01  3.56058053726746700D-01 -7.65288038317597800D-02  1.17437478466655300D-01
13  9 -2.63206629395976900D-02 -9.11168155270571200D-02 -8.96084502842109500D-02 -1.48881639264942900D-01  5.49101184691464700D-02
13 10 -2.38511577876343300D-01 -5.40664376132732700D-01 -1.30766900166732500D+00  9.76072321104497500D-02 -8.12300269912692000D-02
13 11 -4.72133096860633300D-03  1.42840462294931800D+00  1.09381834606508600D+00 -1.37170026150609700D-01  4.39349809885816900D-02
13 12 -2.52426094880687200D-01  2.08491113892105600D-01  2.59377429304027200D-01  1.35840596071588100D-02  1.03721593848314500D-01
13 13  1.60062688797423400D-01  4.37956314648959500D-01  1.01964485597816700D+00  3.96108065905392500D-01  3.64067762553539500D-01
13 14 -2.83775543149627300D-02 -2.29979635245823300D-01 -1.96502187196083300D+00 -2.27088590774055700D-02  2.96536589463778900D-01
13 15 -6.84701928855311900D-02 -2.28066396578247600D-01 -2.31655331910630100D-02  2.20633000528233100D-02 -4.34123185804893800D-02
13 16  1.69049741983589100D-04 -1.27961847132809200D-02  1.38918477083700400D+00  2.57870870189529000D-01  1.82741805005056800D-01
13 17  4.47597365257050400D-02 -3.81269764407674600D-01  3.71269182866390400D-01  3.26880915232671200D-02  3.17489592031556400D-01
13 18 -3.99521605458493100D-01  8.20320134269365600D-02  3.43047791634606700D-01  1.37846639231753300D-01 -1.00983550446365800D-01
13 19  3.40165525639322100D-02  1.02766907092577000D-01  3.91983494548606800D-01  5.09475625005659100D-01  1.32229663211548100D-01
13 20 -1.05140014031519400D-01 -1.14535380306601900D-01 -3.37898430051213900D-01  6.56813934985939300D-02 -6.39393226229043000D-03
13 21  1.49403806451730100D-02 -2.65809168120634100D-01 -1.42799235806056200D-01  1.45876729342935100D-02  1.14811446083293200D-01
13 22 -1.29399119017586300D-01 -2.38183313858940900D-01 -1.07477294886808200D-02  3.03766243645616500D-02  7.04116243905157800D-02
13 23 -2.48400123975497400D-01  1.77988499584983200D-01  1.75076188269262800D-01  4.80313603230295800D-02  3.46186566436917500D-01
13 24 -1.21415608511806900D-01 -2.22744438704783200D-01  1.15081025265921300D+00  4.38155832724757300D-01 -5.57078757184675600D-03
13 25 -2.78325114114773600D-02 -5.43079722903157900D-02 -9.66080449869129600D-02  6.10116969784179500D-01  1.57585389593991000D-01
13 26  6.12361734908002500D-02  1.00756233319715400D-01  2.55246983287491100D-02  2.32350422196834000D-02  5.16731359677856500D-03
13 27 -2.84023558164612600D-02 -4.42246600061197700D-02  3.10797695548422200D-02 -7.39689626686950700D-03 -1.96287379968785100D-01
13 28  3.14126503644401300D-01 -1.17839123675616300D-01  6.11891295529205000D-02 -2.37722959948129400D-02  8.11141064346616500D-02
13 29 -1.76010158681110700D-01  1.32037137342113600D-01  1.35629974991807400D-01 -2.59375283973748200D-01 -9.42166003395603900D-02
13 30  7.50576198011223500D-02  2.96359875550906700D-01  6.55938676105500000D-02  2.25484977587146300D-01  3.13691625238821000D-01
13 31 -3.96754747646911200D-01 -6.77767541056264100D-01 -6.42449283858900300D-02  5.22231504554813600D-03  6.10639352961691200D-02
13 32  9.49516128028846300D-04 -4.33473800269187400D-01  1.78543887468119100D-01 -8.22561352985410500D-03  1.21654146009883100D-01
14  1  5.25863427261123000D-02  9.50754317822375700D-02  1.21856705175684200D+00  2.53874421174426200D-01 -3.00665423773377800D-02
14  2 -1.34778163031970900D-01  1.98749060871094100D+00  6.82591046377741300D-01  2.29180409816491400D-01  4.23980449770464000D-01
14  3 -2.44984084457357400D-01 -1.78996365313106600D-01  4.97897025231534500D-02  1.09263024491121900D-01  9.30381625389398700D-02
14  4 -3.20747276910333300D-02 -1.00376658763058900D-01  2.64419299085089000D-01  2.44890475369787100D-01  7.18382954039462300D-02
14  5 -2.22953504925120600D-01  7.16569886350205400D-01 -2.00423200694256900D+00  2.30064346106384400D-01 -1.28496561299597200D-01
14  6 -1.30772781718699700D-01  2.59269343018297900D-01  3.94296955111342400D-01  1.74504313342114300D-02 -1.37702384219505500D-02
14  7  1.00445548173484700D-01  2.38945313853987400D-01 -8.75208425151753300D-01  2.96773156847501600D-01  5.16611452371114100D-02
14  8  1.18928962693657900D-01 -9.73326238937918800D-01 -1.44951085436310200D+00 -1.28329234535385300D-01  2.50503551029678000D-01
14  9 -3.10624098332184200D-02 -2.19441141196460300D-01  1.55145751145724500D-02 -5.46370617187156600D-03 -3.43306245759176600D-02
14 10  2.98014061288449000D-02  7.15259197396156400D-02  8.06388875764068900D-01 -1.90402231703045700D-02 -2.00376674976726600D-01
14 11  3.66798184764579500D-02 -1.22532639149048800D+00 -3.63614131156715100D-01 -1.19241479826734400D-01  9.38005971372647400D-02
14 12 -1.51597276393935200D-01  5.77966792566709900D-02 -1.34663726994899500D-01 -1.19861188356654900D-01  8.41920292498270900D-02
14 13  2.67725963062212300D-02  9.50128323084046100D-03 -2.16733967775616100D-01  2.86170334559784300D-02 -1.68316971439351600D-01
14 14  1.74622451833322300D-01 -7.13682405103805200D-01  1.56398034230115300D+00 -2.67327752481591500D-01  3.69326957962212500D-02
14 15 -1.80465120575326600D-01  1.43532424779106000D-01 -1.64329135502936900D-02 -1.53507640444775900D-01  9.77540817410818400D-02
14 16  9.46619899481356000D-03  2.34239923340410700D-02 -1.70892103111530500D-01  7.59211442285217500D-02 -4.04596023191150000D-01
14 17 -2.73972503336585800D-01  1.08130786570098600D+00  1.25935636947047100D+00  3.57861787422612300D-01 -3.17409608476019200D-02
14 18  3.30129515248458900D-02 -1.27199067724283600D-03 -1.16352841915129700D-01  1.29222302856192100D-01  1.08378369295549100D-01
14 19  8.27825341270013200D-02  1.36708801137190900D-01 -5.36812603000925600D-01 -6.31391191452537200D-01 -3.21001675717019600D-02
14 20 -1.20283415157830700D-01  9.66602747448073200D-02 -2.59419338631572200D-01  3.88315626847041800D-01 -1.75880291998056500D-01
14 21 -4.60870946608890800D-03  3.13401434415938400D-01 -1.70910141011525900D-01  1.95357082900003300D-02  1.02539387931341500D-01
14 22 -1.22075096221341100D-01 -2.77216254393529300D-01  5.18270531547700800D-02 -9.71189446697089100D-02 -1.04724145910355500D-01
14 23 -2.71705508951480600D-01  3.76429654861836100D-01  4.43568179915076800D-01 -1.14297357173957700D-01  1.62309703969894600D-01
14 24  5.89322182666994500D-02  1.04761833855766100D-01 -3.01223901993139800D-01 -6.56056072916925500D-01 -1.09825487810847700D-01
14 25  8.10469211143423600D-02 -2.15179668838052000D-01  1.89703970396209900D-01 -4.77733080349736600D-01  4.47551061237993900D-01
14 26 -2.97597113798118000D-01 -1.30985404440676300D-01 -2.23251293596023300D-01  9.17070121971995400D-02  6.99896378557131500D-02
14 27 -1.61696650052912700D-01 -9.38950220436825000D-02 -5.16011877040594000D-02 -2.02856258097999000D-01 -2.90464941238858800D-02
14 28 -9.18452632043958400D-02  1.20891757328281600D-01 -1.66462951834205000D-01  1.26499473932454900D-01  2.32680493888812600D-01
14 29 -3.25831070934043300D-02  1.62716277072118100D-01  1.66933216941793400D-01  1.51442661385008400D-01  6.78175819612773800D-02
14 30 -1.86462561882762500D-01  3.08577539437701600D-01  1.80481529516788400D-01 -1.32937096933133900D-01 -7.98015067422993800D-03
14 31  6.63817105385880900D-02  4.00276135778723800D-01  1.08616233862420900D-01 -7.35399841291311000D-02  4.04352008769246100D-02
14 32  2.09618122308608300D-01  2.26667305836176700D-01  1.17471000414991700D-01 -1.55586282167062600D-01  2.04672737748192700D-02
15  1  9.22337008805932300D-02  1.61562084443292500D-01 -3.99107682692750800D-02 -2.36026835550289900D-01  4.92182927376793200D-02
15  2 -5.89946230294827400D-02  1.74475334068126500D+00  6.92065346446096300D-01  4.36519364926700000D-02 -4.28925612562382400D-01
15  3  3.21594798638298400D-01  1.07330813924083200D-01  3.06964949366234600D-01 -8.03335946297574300D-02 -2.18634172555672500D-01
15  4  1.94668109364367000D-02  3.00321402384945500D-02 -8.26169389606326200D-01 -4.61598392427994800D-01  7.28984544170341600D-02
15  5 -4.80279174530121900D-02  1.30130797561371800D-01 -4.51232826656188200D-01  5.23469888934753700D-02 -1.85194139506035500D-01
15  6  1.34145046672761300D-01  5.10490928332747600D-02 -1.16712900388166600D-01 -8.07242717077360500D-02 -5.14491128286671400D-02
15  7  4.10704216927655800D-02  3.34128075225616000D-02 -1.24161358600419100D+00 -2.08409411330461200D-01  2.96172737163637400D-01
15  8 -1.33377970315153100D-01 -4.65901946412657600D-02  5.71410034384376700D-01 -6.55687763937698300D-02  6.79988546077529700D-03
15  9 -1.46077193639837900D-01  1.39277308179063200D-01  3.13964069070661100D-01 -2.93849973678466900D-02 -6.63244991749536700D-02
15 10 -4.11496954554151600D-02 -6.12776083321474800D-02 -2.00806415761480300D-01  5.68532151391481600D-02 -1.18324980269959700D-01
15 11 -7.69745473601278900D-02  1.83028573730527800D+00 -1.08643524297523000D+00  3.76074212530798100D-01  1.26466577176052500D-02
15 12  7.09833968529600500D-02 -8.36300545705662300D-02 -3.29278691056005000D-01 -1.37681033530708700D-02 -1.19023568086975900D-01
15 13 -3.59836395053097300D-01 -7.14623671096914800D-01  2.36860582378071800D+00  1.57010626710959700D-01  5.10018890270440800D-02
15 14 -1.29703160552569800D-01  1.14707109945614000D+00 -5.62753839409482300D-02  1.22602285926072700D-01 -3.17240943515953100D-01
15 15  3.15479583655630800D-01  1.76135986032328200D-03 -1.80293461224014400D-01  2.86907519135861000D-02  1.01613638309360900D-01
15 16 -1.44586794049573600D-01 -3.16937903311936700D-01  5.88590411144499800D-01 -6.35459926928311500D-02  2.51182021661805300D-02
15 17  9.29752906834761100D-02  8.34360586109554800D-01  7.60906366845346100D-01 -2.78385999886423500D-01 -2.97450559194791800D-01
15 18  3.11965110979534200D-01 -1.45145517847413900D-02  1.44300341287733300D-01 -1.43015344501638100D-01  3.18600096178030500D-02
15 19  6.52010031410395200D-02  1.47035873942078300D-01 -5.48930731923895900D-01 -6.13059134499037500D-01  1.65248227224589000D-01
15 20  9.24644753023146800D-02 -8.54659778163316800D-02 -6.34450566751707600D-01  2.85950311989695000D-01  2.10575859123408900D-01
15 21  6.21556974912417300D-02  1.99459634465244500D-01 -1.43629118803182100D-02  1.50026260494823500D-01  2.39314294099039600D-02
15 22 -1.73957689904728300D-01 -1.40126618181534600D-01  6.66502468081239800D-02 -1.69598391332809900D-01 -1.98992264904060200D-02
15 23 -1.46846042981753200D-01  1.66745269472159600D-01  4.01938374272877200D-01  1.62267334299169700D-02  1.90875824843814900D-02
15 24  1.81833589885595100D-01  3.73614923162306100D-01 -1.05457649858087600D+00 -1.73568265552947100D-01 -1.42078914344697600D-01
15 25  5.53887328100301500D-03  6.20240748407027300D-02 -2.86754998855744000D-01 -3.54065219038166200D-01 -2.01092248925140600D-01
15 26 -8.91309241412576400D-02  1.96820339678565300D-02 -1.14347608068487500D-01  1.74018393754804300D-02 -1.14983006341720000D-01
15 27  9.75811669662399200D-02 -2.26655935330982200D-01  4.65664341860818100D-02 -8.74226340191527300D-02 -4.37160055694979400D-02
15 28  1.61831401803139700D-01 -1.18115396233642000D-01 -1.33044147044590700D-01  1.79836209792085900D-02 -1.41328916387724500D-01
15 29  2.90555519777581100D-01  1.57615043767135400D-01 -8.01478669006691900D-02 -2.90528603658442800D-01  1.58611707291256100D-01
15 30  7.33250882885484200D-01 -1.22290690438835900D-01 -2.36690338253808400D-01  1.54952325083824900D-02  1.98098446834835200D-01
15 31  2.86650096972391400D-01  4.52736516067935700D-01  9.76954360477155500D-02  3.95953559206840800D-01  1.26309213642157600D-01
15 32  2.45325404086624500D-01  4.39657807997036500D-01  1.08617390984650200D-01 -2.77561345211130100D-01  1.18927752744538900D-02
16  1  1.95866583092149300D-01  3.59999080790145000D-01 -1.36770010307380600D+00 -6.64725875945793400D-02 -2.08640004206973600D-01
16  2  5.17069435487753900D-02 -7.30785814609903200D-01 -1.26436451964736100D+00  2.73551852654068700D-01 -4.12895580226362200D-02
16  3 -1.58911915700245800D-01  2.00201473722882800D-01 -4.13454308983588400D-01  3.12086174335046700D-03  6.73724692104350500D-02
16  4  1.78939349984463500D-01  3.36829219912459000D-01 -1.96972588919465300D+00  2.17962435039584700D-01  8.03676378647283400D-02
16  5 -3.18298956025672400D-02 -2.90508692865143200D-01  1.66701351365777700D+00 -1.72481849804373600D-01 -2.93762426085060700D-01
16  6  2.28961512699631200D-01  6.48009133854289400D-02 -8.00481272901528300D-02  5.14813970623270200D-02  1.83873452610525300D-02
16  7  1.30931893569088100D-02  2.57567252215056200D-02  6.85323398794900600D-02  2.51140811269673700D-01 -1.42724097589417500D-01
16  8 -1.75157014554648400D-03  1.44896837268055100D+00  2.28468298008925100D+00  1.29412479247812000D-01  1.45561430218948600D-01
16  9 -9.29587282309059700D-02 -5.26027019880443500D-02 -3.73628682528153300D-01  1.47201992408944300D-03  3.22120906940487900D-02
16 10 -6.17490804636886400D-02 -1.01062271042963200D-01 -4.45550173368565000D-02 -2.53363465580999500D-02  2.39365234283930100D-01
16 11 -4.88925691993611700D-03  2.81028723662971600D+00  7.92989895379736600D-01 -6.03446355424590300D-02  1.80579933909412800D-01
16 12 -1.42930718767264600D-01 -3.76492151421474500D-02 -1.56941460781438400D-02  7.69442636263244600D-02 -1.41774938269699900D-01
16 13  1.33377521795218800D-01  2.61710398088614300D-01 -1.61015227345517900D+00  1.51015749458747200D-02 -4.18106980131283300D-02
16 14  3.73163957931899900D-02  4.64745293734545400D-01 -2.67991645087393500D+00  3.76784448025792700D-02 -1.47321703226504600D-01
16 15 -3.63828774769433700D-02  1.83704580703446800D-01  5.10070766703507100D-02  1.03297311656416200D-01 -1.81978544286053800D-02
16 16 -2.64337995758508000D-01 -5.54481039694950200D-01  2.98272350312060900D+00  1.57502829201215300D-01 -7.83097400961525500D-02
16 17 -6.48607098739946400D-02 -3.72316159454200700D-01 -1.77451256321611300D+00 -1.28626315266615100D-02 -2.20041265336716200D-01
16 18  2.07473004059426100D-01  1.25682612772895800D-02  2.50243859894602100D-01 -1.10149608394366700D-01  4.48682558760255700D-02
16 19 -2.47901158801554300D-01 -4.92663232820848400D-01  1.71131252009110400D+00  2.77693637012659500D-01  1.23530296970423100D-02
16 20 -1.36232006840839500D-01  1.52590135538072900D-01  3.09928220521482300D-01 -3.80447677156717000D-01 -3.72812398790643800D-01
16 21 -3.45277245516063000D-01 -3.20023356747254200D-02  1.33999676129542300D-01  2.28982935236816700D-02  2.78606487721311900D-01
16 22 -3.01504781244993400D-01 -9.18904101559419300D-02 -6.54808449381304300D-02 -1.86337719582001900D-01  4.53773326676387000D-03
16 23 -3.05110090172619900D-01  3.00572356905857900D-01 -1.86864984055310900D-01  5.31787805348976200D-02  2.37461492856743600D-01
16 24 -1.55503358115369900D-01 -3.42168412556939000D-01  7.41411901635890700D-01  8.09727387706148200D-01  5.80210148150609800D-02
16 25 -9.98905024077656500D-03 -6.64168082387611500D-03 -5.37892217746485700D-01  4.67948114289824800D-01 -2.28814290014688900D-02
16 26  3.66128002024084900D-01  4.26384057529532700D-01 -3.65194010688128800D-02 -5.62614957830125900D-02 -1.47668620324058400D-01
16 27  2.03930116107071600D-01  8.51133824542053700D-02  1.08092373939289500D-01 -1.59012120612739900D-01 -6.76691878173252400D-02
16 28  1.53521209765876700D-01 -8.58520219485518600D-02 -1.33475106085117300D-01 -1.74803568954131000D-01  5.25080295500754000D-02
16 29  9.44087532020218100D-02 -9.96767970402716300D-02  2.50165023704065800D-01  5.64922592563052700D-02  8.20972797480621100D-02
16 30 -2.18274020240401500D-01 -5.87779268389074200D-01  2.58391051866097400D-01 -3.85942267150764100D-01 -4.52705677410766600D-02
16 31  6.54979609310517400D-02 -2.67441495029179000D-01  6.12708426495772700D-02  2.84766931899960800D-02 -1.70854515801762500D-02
16 32  4.15637382519689900D-01 -3.82677838481177700D-01  3.28461446564343100D-02 -1.65564212053186900D-01 -4.69893674029614500D-02
17  1  8.69870511898255300D-02  1.41925659326238500D-01  4.86298331795844000D-01  2.66298477132701800D-01  9.56748315497951000D-02
17  2 -4.06314903402514400D-02 -1.95290729813049300D+00 -1.02173321080528200D+00 -3.49730580247048300D-01  1.07103701976015300D-01
17  3  1.47393046109807900D-02 -1.21843006586994900D-01  4.22399027203344300D-02 -4.38198583860940300D-02 -3.77118555097796200D-01
17  4 -3.28890515422620200D-02 -4.63459644189971300D-02 -3.66019163096071000D-01  3.36594011750560500D-01  1.10073684153891300D-01
17  5  1.13327365396365400D-02 -8.80370810339929100D-01  1.90482735662546900D+00 -1.82061774235088500D-01 -2.70323099247192700D-01
17  6  2.00794081914587900D-01  6.95290173326040400D-02  2.07796521052162500D-01 -1.12282667523056000D-01  9.17820325138757600D-02
17  7 -1.06808202514515000D-01 -1.96935819450829800D-01  1.75261955693661300D+00  1.70067260674012500D-01 -1.79983113608532300D-01
17  8 -4.26856178391655600D-02  1.66455870004091600D+00  7.98778114252722200D-01  1.71747693273231400D-01 -1.76952648185620400D-01
17  9  3.43828886068669000D-01 -1.66876237883048900D-01 -1.59697245892645400D-01  5.23991762813608500D-03  1.67623862794857600D-01
17 10  4.01211919201179400D-02  1.28774103769755200D-01  4.82740081017648100D-01  5.47607431037216500D-02  1.93326932445418500D-01
17 11 -2.09920866027787700D-03  1.25314810402871800D-01  1.00302903556537700D+00  1.06768604648833100D-02 -1.73646757701492100D-01
17 12  3.00282209804077200D-01 -1.26635452102584000D-01  4.17120670515883400D-02  1.34626588578055000D-01 -1.07691364246047000D-01
17 13  2.01899597531510600D-01  3.53060414502063300D-01 -2.46839642275428500D+00  9.44425075265281400D-02  1.90586900228330700D-01
17 14 -6.12347461989247700D-02  2.08810403629337500D-01 -4.04794078296205100D-01  2.99921218640731300D-01 -2.01256289485518700D-01
17 15 -9.16494914306921800D-02  2.92905780916210900D-01 -4.08299163904890500D-01  1.46588723389748900D-01  2.84532630541563700D-02
17 16  1.98845304052891800D-01  3.80296094653878400D-01 -1.55567160191776100D+00  2.41488672230150200D-01  2.32030523298429700D-02
17 17  1.62113000363961300D-01 -1.23938149543991600D+00 -1.57463072840365700D+00 -2.85168491214318000D-01 -1.99874951705954900D-02
17 18 -3.85766921389266400D-02  5.85641873095207300D-02 -7.64484854064873500D-02 -1.27844419060835100D-01  4.45142823566896700D-02
17 19  1.02280180168391800D-01  2.23178342406153100D-01 -1.84613821080905200D-01  7.20992363182541800D-01 -7.87207166082274200D-02
17 20 -2.17270175915336700D-02 -1.08669469486244800D-01  1.89867418374029500D-01  5.20902819933112500D-02  4.15215967064552700D-01
17 21 -2.61113954940225200D-01 -1.92514370374865600D-01  1.12333830172138400D-01 -1.99120034850129700D-01  1.03184608185127800D-01
17 22  9.59354266650028900D-02 -3.20300782834824000D-01  9.41099526987805300D-02  3.61967292819937700D-02  1.82600286904167800D-01
17 23 -2.31076173689631300D-01  4.84758867854643100D-02  4.42591713770330600D-01 -6.07430167419990600D-02 -3.96432627563165700D-01
17 24 -3.59239444359945300D-02 -4.39800395443233700D-02  2.13566587007820200D-01  7.84384911340727100D-01 -2.14699346950894400D-03
17 25 -9.97077852497604700D-02  3.06742579744750200D-02  3.60163019851382300D-02  2.67992579798154900D-01 -9.65998739433911700D-02
17 26  1.42667434909881400D-01  3.24274474908547600D-01 -4.49379785318245900D-02 -4.28033826065563100D-02  7.66922736328717900D-02
17 27 -3.38888910263159500D-02 -1.00946736599599500D-01  8.91707849330182400D-02  1.00216929822830700D-01  2.62555095063931000D-02
17 28 -2.46488379855002700D-02 -1.60667152089280100D-03  4.96111090687646500D-02 -1.67098558422532200D-01 -1.53439908548616100D-01
17 29 -1.99371065531304800D-01 -1.36930028459938300D-01  3.41676279675968400D-01 -1.13949953468706200D-01  2.20192904351695800D-01
17 30 -4.35530318025733300D-01 -9.61023538801089700D-01  2.70454899457261700D-01  6.13521631080601300D-03  2.78808151662326500D-02
17 31  4.37052225241648700D-01  4.78993204010608100D-01  3.25522708299559500D-01  9.56824828368543100D-02 -9.23855490790885200D-02
17 32  2.45114605908107600D-01 -2.28035880859799300D-01  2.39148692095317200D-01  6.80412751812240800D-02 -5.23020173590621100D-02
18  1  1.67389427401768600D-02  5.46445813013300300D-02  2.86302599446380800D-01  7.78968165153255800D-02  2.40172767285632100D-01
18  2 -3.57074742641821200D-02  2.78249205434980000D-01 -2.05143256019588300D+00 -2.54172261054102000D-01  3.33122675537509300D-02
18  3 -1.60489074806646000D-02 -1.72633600730876600D-02  2.75419295963462100D-01  3.02730101119272900D-02 -1.35644263706836100D-01
18  4  3.18470926710132200D-02  6.04917162280119400D-02  4.55583468000276500D-01 -8.69221034120308100D-02 -1.99749019464331400D-01
18  5 -9.71950773094196300D-02  1.61619283133941900D-01 -6.65923028479120800D-01  4.04021156250856200D-01 -1.17976954318258800D-01
18  6 -3.83680434084995100D-02  1.56344997726758800D-01  3.56085964988734700D-01  2.68676739563286200D-04 -1.50785780515094300D-01
18  7  2.75602188634433700D-01  5.48851354154335900D-01 -2.25318498731453800D+00 -1.53848442394287100D-01  4.02905828002186600D-02
18  8  1.11001761566234600D-01  1.24155938729550100D+00 -1.35035192725726200D+00 -3.07058989910545800D-01 -7.87757407277605200D-02
18  9  3.37924105097851600D-03  7.53964996767841500D-02  4.58453806735252500D-01 -3.86406005820291700D-02 -2.12504826096427200D-01
18 10 -3.12600450323072100D-01 -5.52061665939915300D-01 -8.38729425799689300D-01  1.78987893897777400D-01  3.92617154524184600D-01
18 11  1.02151309286783700D-01  5.98237881373885200D-01  1.22388118961915200D+00  1.05457929253640700D-01 -2.28210984316876300D-01
18 12  2.49159387441972100D-01 -2.09484031250964600D-02 -1.12910098700571600D-01 -6.21409492030105700D-03 -2.91117066302341100D-01
18 13  6.59320861027303100D-03  4.26529015865136200D-02  1.31064659231887200D+00  1.68623977294690000D-01  3.43719084705197800D-02
18 14  4.23464673888617600D-02 -2.98714132103682100D-01  4.94796747950050300D-01 -1.05869993105884900D-01 -7.58317590090180300D-02
18 15  1.31840819854443300D-01 -5.60090608454252000D-02 -4.55689236846669200D-01  1.10373523119373500D-01 -5.92238258390509700D-02
18 16  2.47937472315075200D-03 -5.10993004907947900D-02 -1.56489918059414600D+00 -4.86478816505945600D-02 -1.86697950468401700D-02
18 17 -9.67350595552021200D-02 -4.58696370541586700D-01  1.20937566991962700D+00  2.52195594318429300D-01 -1.09041004314524700D-01
18 18  5.23543125626230000D-02  5.66866917519001100D-02 -1.67589368889979100D-01  2.03687840431237400D-02  2.29508289982260500D-02
18 19 -9.19274939758357200D-02 -1.83735117341521600D-01  9.10263520029772200D-01  6.94183391415042800D-01  1.59593223591134700D-02
18 20 -3.68543539939466300D-02  1.45865393042663700D-02 -1.91516065821829100D-01  6.67735396506279100D-03  6.20023506301785400D-02
18 21  2.33815852221492900D-01 -3.72547156388543000D-01  1.04529899784545400D-01 -1.02223800573061200D-01 -3.13938115294941000D-02
18 22  1.33617612102556700D-01  2.52191505291916600D-01 -4.60337796183653400D-03 -1.86357353178495800D-01  1.73291117305765400D-01
18 23 -9.30912336001707800D-02 -8.01998837055943200D-02 -8.09210748421204000D-02 -4.07206694771414900D-02  3.95642000857814400D-02
18 24 -3.93011802935937000D-01 -7.95241873296989900D-01  1.74573940556694500D+00  8.04906304329230700D-01  1.77873391178130700D-01
18 25 -2.36493319278002300D-01 -6.57295851900434200D-02 -5.25710149477285100D-01  1.04997366801323700D+00 -2.22368995524998500D-02
18 26 -9.21724885152348900D-02  4.68989024063945200D-01 -1.71628825455616600D-01  2.93738732014108700D-02 -1.88154841813065500D-01
18 27  1.58780968611655100D-01  1.03484547802533200D-01 -5.79014480189426300D-02 -1.02121944405973100D-01 -3.18157107670604600D-01
18 28  6.13605992643938800D-01 -2.95448884973334000D-01 -3.87855736348435100D-01  5.43394833937565400D-02 -1.34237698573531100D-01
18 29  5.58923196289253100D-02 -1.25167926892101200D-01 -1.35645614583544500D-01 -7.08448432873347000D-03 -7.77619489266324200D-02
18 30 -9.14577081700959200D-02 -5.55797494043307800D-01 -1.25471065026585400D-01  2.57832810786938300D-01 -2.92961287971703900D-02
18 31  2.37872441050414700D-01 -3.13416482711952100D-01  1.07304167565463600D-01 -1.57031638928381300D-02  7.13559366829345000D-02
18 32  1.04969160463495200D-02 -3.62925397562614500D-01 -9.98850399945899200D-02  1.87682715709722000D-02 -5.32533225786759800D-02
19  1 -1.43544430545638200D-01 -2.38648854745425500D-01  8.69479043399292800D-01 -6.25730546086972900D-02  5.31914146378989400D-02
19  2 -8.37071856201670300D-02 -7.58525120304436100D-01 -9.18990874150895800D-01 -1.11914911133846900D-01 -3.57126122764517300D-01
19  3  1.73875008949760500D-01  1.83251113814756700D-01 -1.67126501002777300D-01 -3.98092545923796300D-03 -4.43708853237591800D-02
19  4  1.17245808940005400D-01  2.84550831708395500D-01  1.26093502906266800D+00  1.53538453779680600D-01  7.30099105207912500D-02
19  5 -8.46220127919357900D-02  5.06224726233561300D-01  4.18579600102140200D-01  2.86179820798932300D-01  2.16893819272348200D-01
19  6  1.14771310463609200D-01 -3.31665129735958000D-01  4.97438879131408200D-02 -3.17551540787710300D-02 -5.73949699952924500D-02
19  7 -1.32427038341809600D-01 -2.59107197595280000D-01  9.13329190822411600D-01  1.13078403221514900D-01  1.94059672753943100D-01
19  8  1.02556059095714700D-01  1.11824366243434200D-01 -2.08649496729693800D+00 -2.96888172038883200D-01 -8.33882672786133300D-02
19  9 -1.56755595121464600D-02  9.90638267907606900D-02 -2.64171710808438000D-01  1.17489317098888600D-01 -5.55416434765930000D-02
19 10 -2.86426900233777300D-02 -9.72425683060919600D-02  5.30719968848750500D-01  2.29190837411802100D-01 -2.83043186869200600D-01
19 11  5.69376010398924000D-02 -1.89104192958278100D+00  1.69388546586136400D+00  9.38074291710480800D-02  1.81237608890951000D-03
19 12  5.66712778301615100D-02 -5.84836539190712900D-02 -1.15945230583357200D-01  1.45081477783545700D-01 -1.06477064378080400D-01
19 13  1.37574463130595200D-01  2.97239705487350800D-01 -7.12679225367332000D-01  1.14000527722466200D-03  1.27057035122721900D-01
19 14  1.45334332366408100D-02 -3.99925382619759000D-01  1.41724027183921400D+00 -9.01547471360003200D-02 -2.00002321393607400D-01
19 15  1.94939161462047200D-01  5.06315993155894500D-03 -1.64447404409324200D-02  6.07075458161654700D-02 -2.16255580625881700D-01
19 16  3.24343187123202400D-01  6.40710941211391200D-01 -2.96947720958704200D+00  3.62928469407161100D-01 -6.34309251603623300D-02
19 17 -8.35543275028036700D-02 -1.11451431132972600D+00  1.10063332864324300D+00  2.39415148846987900D-01 -1.00620033579840300D-01
19 18 -1.53542740848035300D-01  2.54162774427874500D-01  1.55876993751981700D-01  4.43227626716124400D-02 -8.63280545376903400D-02
19 19 -1.03855749621669900D-01 -2.16736565500932200D-01  4.54425749005976700D-01 -1.26413710150479800D-02 -2.36855528407651200D-02
19 20  2.30666380748730500D-01  6.67626313587239100D-02  2.77222241033283500D-01 -2.42712850751512800D-01 -4.40964502042323000D-02
19 21 -7.98475611476071500D-02  2.48088350743862000D-02  3.73072729287738200D-02  4.70757310168327800D-02 -1.65689897022304400D-01
19 22  1.18614166005471800D-01  2.75375971850761500D-02 -3.34906764603178500D-02 -1.01738570387899000D-01  7.48986546617451800D-02
19 23  1.62155470763167100D-01 -2.37054125424912700D-01 -8.07186944085881000D-02 -1.02926287390691400D-02 -3.72069127754309800D-02
19 24  7.28858798736774400D-02  1.76495100351883900D-01  1.84995879343399000D-01  5.56725743506197300D-01 -1.57528119648009700D-01
19 25  1.07408408515841400D-01 -4.29152661468336700D-02  3.55403848597567100D-01 -2.34956456692855000D-01 -1.39988607347245700D-02
19 26 -3.81343269570210400D-01  1.92607519787880000D-01 -2.14313807914111900D-02  4.04449298088856800D-02 -4.35367385226578500D-02
19 27  3.09180871377163400D-03  3.67288449733007000D-02  3.60656293162903900D-03 -1.48683016892001500D-01  1.24824974648133400D-01
19 28 -1.52754846612216900D-01  2.79298719640835600D-02 -1.95020109204004300D-01 -1.34141357137877800D-01 -5.40743504053237700D-02
19 29 -6.23303966980231300D-01 -6.92292812279151800D-02  3.01793475011580600D-01 -1.28635943734853400D-02 -7.10839400408598700D-02
19 30 -5.98844452490521200D-01 -3.38227883509969300D-01  1.01894242555836400D-01  1.51788151481128300D-01 -1.65700640015326400D-02
19 31  3.17848282778123800D-01 -1.06007145056014000D-01  4.99970962597662300D-02  2.17679289491875600D-01 -6.41641604359965600D-02
19 32  1.90524792136174600D-01 -4.56741197539987800D-01  1.39786732737541200D-02 -2.04605020493883200D-01  1.55492450885719400D-02
20  1 -1.24170560844691400D-01 -3.56593447364617600D-01 -1.17283977378750300D+00  3.59114590083009500D-03 -7.94994844527346500D-02
20  2  3.82509436497626600D-02  7.33252996614961900D-01 -1.71966866757244700D-01 -8.12765536828082100D-02  1.72059086113265400D-01
20  3 -3.49890323814437200D-01  1.77831237701171000D-01 -1.92824995562372300D-01  8.15129230536999900D-02 -6.55102463258802200D-02
20  4  5.63194198453554100D-03  2.52266908348448300D-02  7.44592077192493800D-01  1.13101289210062300D-01  6.00990571850351200D-03
20  5 -4.94144597105152400D-03  3.80045085689615800D-02 -8.00091857735088600D-01  9.30380251973305200D-02  1.34770129813539700D-01
20  6  5.87304356765967600D-02 -1.93500565490136500D-01 -6.91515032846821600D-02  9.52158401351253900D-02 -1.62016342959479700D-01
20  7 -3.46081040233864700D-02 -1.02857151212925000D-01 -1.24975480992279100D-01 -4.21584965274687300D-02  8.77988823865304100D-04
20  8 -8.36166746813771800D-02  2.65994015523472100D-01 -8.75955153485450800D-01 -3.43643894438569500D-02 -5.28770852653530200D-02
20  9 -1.13300907361409200D-01  1.66177992626763200D-01 -1.71857364378444300D-01 -1.92507418106592700D-01 -3.45835469876425700D-02
20 10 -1.14802043487273100D-02  5.07457713034602500D-02 -1.06134889674149100D+00  1.83311123002525100D-01  4.36389322824197400D-02
20 11  1.02245695741198000D-02  2.87876701289102100D-01 -2.15641892098795900D-01 -9.38940429033523600D-02 -2.52206173149906300D-01
20 12  9.34076106754066800D-02  1.58798562474499100D-01 -1.13714848264971600D-01  2.43474233915984400D-03 -1.65206869871632600D-01
20 13  1.22086416329506200D-02  4.76252961512770600D-02  1.23449554227232000D+00 -1.91391441260076800D-02 -1.19619933078532300D-01
20 14 -7.30994423188085900D-02  4.81546667520367500D-01  7.43483512400577100D-01  3.61399070141187200D-01  9.32718250686458400D-02
20 15  8.71737156023497200D-02 -1.80445540670995700D-01 -1.00104017798876800D-01  5.44601375270507100D-02  1.30827886718030400D-01
20 16 -1.51033778492595600D-01 -2.52894851084127800D-01  4.36407063396717200D-01  5.52221686837760000D-02 -8.15382761704645800D-03
20 17  9.31413615293456400D-02  5.67126934166235900D-01  1.51592815702524300D+00 -2.73877354055979000D-01  1.53330472702725100D-01
20 18 -2.48580133272784700D-02 -1.28472459375447100D-01  1.16993502384668900D-01 -2.35383495135523700D-02  8.78680717924459300D-02
20 19 -7.99843761350285400D-02 -1.52994952691036300D-01  7.89964495601094700D-01 -6.00844879363399400D-02 -1.24512295443340700D-02
20 20 -2.60505336965185100D-01 -1.49961451731267400D-01  6.77528937448069700D-02 -2.37833763505489400D-01  2.93934976181592100D-01
20 21  3.39085524426258200D-01  2.00974253762852500D-01 -1.18490652641927700D-01 -8.82943665957403600D-02 -4.28669626191800800D-02
20 22  1.31161329214919800D-01  2.40479659009838400D-01  1.40261082830232300D-01  2.59251876210843900D-01 -1.14810133481308300D-01
20 23  6.33023709977778600D-02  5.15077624835300500D-02 -4.70782077052892800D-01 -2.08347226952387700D-01 -1.68503053502366800D-01
20 24 -3.75115048784624000D-02 -6.08073353715676300D-02  1.58589581646992300D-01  1.58239328256540800D-01  6.04756905839500500D-02
20 25 -9.14571316358537600D-02 -9.56580318749534900D-02 -3.34225486234186000D-01  2.56015612343275400D-01  1.87638969991769800D-01
20 26  1.23486756455812500D-01  9.43546001858157100D-02 -3.15923407983580500D-01  2.04099400146605600D-01 -2.74391751563488600D-01
20 27  7.02923514168832300D-02 -3.70248030219868800D-02  1.44813178207272800D-02 -1.60345825975586700D-01 -1.46740003647537300D-01
20 28  4.06055100233341700D-01 -2.59315096585804200D-01 -2.34304476164962200D-01  7.49201748955622000D-03  7.29672031986650600D-02
20 29  1.24678400552627400D-01 -2.40673053225044600D-01  1.24447247284354900D-01  1.58855898179594700D-01  1.93978253195255800D-02
20 30  1.14649596639139600D-01 -9.17916314650295100D-01  2.11111167281163200D-01 -8.87537689081082800D-02  3.02806420185052700D-01
20 31 -4.65004354633194300D-02  6.26479688616044500D-01  9.18382373436673900D-02 -8.53874130543085300D-03 -2.93201804158955300D-02
20 32 -3.36602382183103700D-01  1.74907871275801200D-01 -6.18051999974043200D-02 -6.63484576317164100D-02  1.86316849026327100D-02
21  1 -1.64762830841983600D-01 -4.03654271965880300D-01  1.96876691327387900D-01 -3.29998075818295900D-02 -1.14567156563014600D-01
21  2 -2.71262809864383600D-02 -5.12438363264547900D-01 -1.45261811700099400D+00  1.51259524778002900D-01  4.79696375963275200D-02
21  3 -1.95036914574374100D-02 -2.84659461388899500D-02  1.65246207277373500D-01 -4.51933425015733600D-03  1.81810066561113900D-02
21  4  8.16644396968694000D-02  2.17361925534234100D-01 -2.99958959127401800D-01 -3.03099544758598700D-02  1.22724680401728900D-01
21  5 -2.07668623352116700D-02  6.17571343524081500D-01  8.01716633392666300D-01  1.42890430539272000D-01  6.33394293282147400D-02
21  6 -1.45930337719870100D-01  8.25909083916562500D-02 -3.19001634529944200D-02  1.05640025331157300D-01 -1.29591863255612200D-01
21  7  2.23405325533399300D-01  4.03373655611984400D-01 -3.93071651761605400D-01 -1.46661035841571100D-01  1.87646854260918400D-01
21  8  9.95735471207001100D-02  7.63219085443647800D-01  9.05079947667901100D-02 -3.78474252413218800D-01 -2.30488901795948400D-03
21  9  7.85247095161311800D-02 -7.62198204981714100D-02 -1.50064128272622100D-01  2.09713192080796100D-01 -7.63363796088595700D-02
21 10 -3.42485349932181100D-02  1.68845117235810700D-02  2.55881936424426800D-02 -8.03062160857085900D-03 -4.33260516029061000D-02
21 11  1.49390333504372400D-03  7.20469663893249900D-02  1.02025462795250700D+00  5.98327046384156100D-01 -1.19873380451064600D-01
21 12  7.59493125120425200D-02  4.39240679390222500D-02 -2.04312347212878200D-02 -2.03121486679356900D-02 -2.81173458896457400D-02
21 13  2.28920616183216500D-01  5.21517785698054000D-01 -1.79817475263660700D-01 -3.55811119725458400D-01 -1.06857716554240500D-01
21 14  1.28641188076416600D-01 -2.44375600894272100D-01 -2.19433376575019300D-01 -5.09171580568588200D-01  8.47060700143777400D-02
21 15 -3.39343685076151700D-02 -5.07717015067623600D-02  3.01103442182715000D-01 -1.83231431704642800D-01 -3.28151571420699700D-02
21 16  2.61434884508275000D-01  5.40606801335984600D-01 -1.54587564138143100D+00 -1.98091854436053700D-01  8.99042127798017200D-02
21 17 -3.63069932843948100D-02 -4.71406923579054000D-01  1.11583125401846900D-01  2.46184160141576900D-01  4.52392596042827600D-02
21 18  4.53378704456190200D-02 -9.05771300499029900D-02  1.26745407966521400D-02 -1.63707353418170700D-01 -1.09315939426479000D-01
21 19  2.46228004153172900D-02  1.10529256833352800D-01  4.29112423829242500D-01  8.89288268949633600D-01  1.58499386310233100D-02
21 20 -7.10849359071628700D-02  1.05514363952389400D-01 -4.09697029383279500D-02 -3.99251124434081600D-01 -1.89206065954016500D-01
21 21  1.02399329099112000D-01 -2.43029964082848600D-01 -2.52957292773138200D-02 -4.76814251607112800D-02  1.41825823621954300D-01
21 22 -9.41443984612435600D-02 -1.76670026737682700D-03 -2.51850141518999000D-02  2.56671151849663500D-02 -1.10874303213211700D-01
21 23  8.17778799532320500D-02  2.90964232599795900D-02  3.03955032713366700D-02  3.96693017095877600D-02 -1.30040369480837600D-02
21 24  4.04063841719705700D-02  1.05455838238730400D-01  4.45297543105530200D-02  9.90617280752100900D-01  7.61342353255385200D-02
21 25 -2.01829333800592100D-01  8.83901178678109800D-02 -1.62378363546032700D-01  3.58614995518352800D-01 -3.14990670362343100D-01
21 26  3.48296487601926100D-01  4.76233121572872000D-01  6.90344462431274300D-02  7.31023161807388800D-02 -2.52594596974568300D-01
21 27  1.79492280793829500D-01 -3.58232043358569600D-01  2.85084820512300600D-02 -6.40892162689758700D-02 -2.38731073625566200D-02
21 28  2.73425055679527800D-01 -2.49551948316971400D-01  3.99250850639548100D-01 -1.29520419216097500D-02 -1.15432672683411300D-01
21 29 -3.80985745017360700D-01 -4.74745432711273600D-01  4.43126724047130700D-02  6.86948299810686500D-03 -7.63816461161372200D-02
21 30  3.11663360841424000D-02 -4.93885477416711200D-01  1.55125491977110900D-01 -1.80019527406869900D-02 -1.52030056929508800D-01
21 31 -5.67477242456856500D-01  2.25991431088344000D-02 -4.69892659912819300D-01 -3.17022395491350100D-01 -4.14898345688757300D-02
21 32 -2.17569340460300400D-01  1.68616354680230800D-01 -2.87261975345769200D-01 -2.07950018644974300D-02 -1.89888661671725500D-01
22  1 -2.38592420154099000D-01 -4.01746741457662300D-01  6.73296322125135500D-01 -2.16613126891555000D-01  1.77487110924195000D-01
22  2  3.60053067055953000D-02 -9.59340748256114200D-01  9.59348111028646900D-01  3.66224035955239900D-02 -2.71538087424802200D-01
22  3  9.17794880475284000D-02  1.79758599377274100D-01  7.86075410967795900D-02  1.57747943489737800D-02  4.43390795468620200D-02
22  4 -9.70432337823744800D-02 -1.79837082856500700D-01  9.17569290108493000D-01  5.30554221423089200D-03  3.18446641405100800D-01
22  5  8.52291020990451200D-02 -7.37729788014128900D-01  6.41956769078666200D-01 -2.10411647934458100D-01  1.92590247715654600D-01
22  6 -2.42247849530475700D-01  4.96576018148211900D-02 -4.31758584909864500D-02 -1.26130183913774900D-02  1.78168986796016400D-02
22  7  2.82923287210271900D-02  1.34332425546753100D-01  1.11039505091344800D-01  7.09652641985202300D-02  2.93463430703815800D-01
22  8  1.28984814280878900D-03  5.17579880382351400D-01  3.40398465884868000D-01  1.57707228748860700D-01  7.97479154445883400D-02
22  9  2.09234300842184600D-01 -2.88982216286773000D-01 -1.99007771751362400D-01  9.39107875172153100D-02  4.85225501386878200D-02
22 10  1.81098620533225000D-01  3.92822973391182700D-01  1.21356249760019000D-01 -1.19844981251917200D-01 -2.38772986371651600D-01
22 11  3.04122941413628400D-02  1.65534093711442800D+00 -5.86765676543334200D-01  1.03804913258037200D-02  3.52519363545368900D-02
22 12  1.15719223389085000D-01 -1.50971159743622000D-01  9.23271772395510600D-03 -2.99591590414136800D-02 -1.75740188273149500D-02
22 13  7.33721590642108000D-02  1.94367353422828400D-01  6.69850427550566000D-01 -6.90809301340671000D-02  7.76090744623446600D-02
22 14  1.13669137382500600D-05  1.00757212925176400D+00 -3.99147101315333100D-01 -5.62921108799726800D-02 -2.29663301466203500D-02
22 15  1.34824829552687500D-01 -1.11858499406066700D-01  9.95294863262835400D-02 -2.06708343959535700D-02  6.34064370809359200D-02
22 16 -4.46176774183700800D-02 -1.30313472211123300D-01 -5.03910844366119300D-01  1.46173969943872600D-01  4.47823279802453500D-02
22 17 -6.07818863827260800D-04 -6.05338772645232700D-01 -7.45740639480714500D-01  2.71529559010934900D-02  3.53049223198226900D-04
22 18 -2.95018937006431200D-01  2.94665887783232600D-01  1.32120622890397700D-01  2.77266220741732100D-02  1.58252127709101300D-02
22 19  8.20102072697064100D-02  1.31867101260902100D-01 -8.97676173642229300D-01 -2.09191401804087200D-01  8.78403482115023300D-02
22 20  3.10629246529883600D-01 -4.70985191625977300D-02 -5.28126329321520200D-02  1.75351760457567500D-03  2.82467129345733200D-02
22 21  1.91824188549303300D-01  2.88711881962194200D-02 -1.00344268488845500D-02  1.89784997733380700D-01 -2.14817874546694300D-01
22 22  2.50328768133136100D-02 -6.52218216587924800D-02 -7.77165549940001000D-02  2.77965558969974600D-02 -3.64527735858111100D-01
22 23  3.32773856802865100D-01  3.17538790552467600D-02 -7.02461905131524900D-02  6.44256496800044000D-02  5.87433172889432900D-02
22 24  1.99578471444914500D-02 -2.07496307797320500D-02 -4.62816980024097500D-01 -5.37575519391648300D-01  1.66970349682596500D-01
22 25 -1.81536081373661400D-01  2.43212528069113400D-02 -5.38218218351643200D-01 -2.44264118726898400D-01 -3.23428775822432500D-02
22 26  5.53856683247792000D-02 -4.44666192820696800D-01 -4.41180919144620700D-02 -8.58234738783279500D-02 -7.70160447654090100D-02
22 27  1.62839518643736600D-01  3.29262262974330800D-02 -2.24169283336332800D-02 -1.77946711343433900D-02  1.28964285620185900D-01
22 28 -3.00782732259802500D-01  1.71818446639616600D-01 -2.73495998442353400D-01  1.87816469618053600D-02  3.11840965196248800D-02
22 29  1.16131421307995700D-01 -4.56717374879246200D-01  1.73323185982261600D-01 -1.17628963045765400D-01  2.36901662381952800D-02
22 30 -2.30854561032269300D-01 -2.40060766769998700D-01  1.10053171422704300D-01  8.45103943779418600D-02 -1.63034586918863900D-01
22 31 -2.36387045922232500D-01  5.78522164776309500D-01  1.46938662948454100D-01 -5.54694136776184400D-02  9.17496959346270900D-02
22 32 -3.29506221345482500D-02  3.26671697194012500D-01  2.85712721250727400D-01 -8.20447532094476800D-03 -2.21018070476542500D-02
23  1 -5.74723656749770600D-02 -1.25854214574776300D-01 -8.15390036957725200D-01  1.22470194103154000D-01 -8.69919176877737100D-02
23  2 -2.72275520898929300D-02 -3.13764582327200800D+00  1.02540885435010400D-01  3.55088310616934200D-01 -3.35897684303173600D-01
23  3  2.15465141447471800D-01  1.20432542855702800D-01  1.12480657142131400D-01  1.33934160678086700D-01  1.34423704927050100D-01
23  4 -4.52654332295742100D-02 -7.29093072822399600D-02 -8.32919890783492600D-01  5.58956666292392900D-02  2.62798848192802300D-01
23  5 -4.08491424652121700D-02 -1.67176698759380000D+00  3.17088782649284700D+00 -1.39575641321176800D-01  2.25523859577392700D-01
23  6 -1.72389159322177500D-01 -5.31347002552161300D-02 -6.41467911695820100D-02 -3.86811832624582600D-02 -1.31859265082804700D-01
23  7 -1.06584316968895600D-01 -1.61549132984106900D-01  2.23864611378818300D+00 -5.90740268925770600D-02 -6.65416638792990000D-02
23  8  1.26762299904258500D-02  1.50175035726942600D+00  2.87511495509844800D+00 -9.97054804107911900D-02 -2.30851090320234000D-01
23  9  4.00487764323939600D-01 -1.69636674003707100D-01  1.07476848272536500D-01  1.00195245443353900D-01  1.11351865304511500D-01
23 10  2.48762397862238300D-02  3.43283679898602300D-02 -1.01527560979561900D+00 -2.86111140285915500D-01 -3.37183714287345600D-02
23 11  5.14601979704928200D-02  2.68228259642868600D+00 -3.51093269557104000D-02  2.19084951782255300D-02 -1.42531963333427100D-01
23 12  2.27342612069520000D-01 -8.48106487360923700D-02  3.16856248778483900D-01  3.98007583488037400D-02  1.95924784115769200D-01
23 13  8.41970971715219900D-02  1.76018925797630100D-01 -1.18244813117913100D+00 -1.42525389322348900D-01 -1.11976402805290900D-01
23 14  7.12740692828952600D-02  1.95227142099306100D+00 -3.68072462366892800D+00 -2.11523012143246700D-01  1.63656031835651700D-01
23 15 -1.65174920558805500D-01  1.51888872315359600D-03 -6.05594538983992100D-02 -1.05028194511394400D-01  2.39809520982789900D-02
23 16 -5.57910491133934700D-03  3.37810598927312100D-02  2.20246720499091500D+00 -1.20430818166831100D-01 -5.67057370667353900D-02
23 17 -1.83546497832520600D-02 -1.46203211970796900D+00 -2.88032760516043500D+00  9.13827090614056100D-02 -1.03391779491471700D-01
23 18  1.80168415895500500D-01 -7.67766364040295600D-02  3.10312035494565000D-02  6.73180300214587800D-02 -4.98374849835947600D-02
23 19 -1.14936630539030400D-01 -2.20909752442868500D-01  4.04628978287528700D-01 -7.53218320041884300D-02 -3.18583471170009900D-02
23 20  6.60875468603074600D-02 -4.85662189143295600D-02  2.73969123479329400D-01 -1.95427011761784900D-01 -2.67652785480708700D-02
23 21 -2.20529351140224500D-02 -8.97495237533274000D-02 -2.33348464355460500D-01  1.86125548486716600D-02 -4.75232746444366100D-02
23 22  2.89107197957648000D-02 -7.56334972126918400D-02  1.15378470765372600D-01 -4.47370788981908000D-03 -1.32708988566270300D-02
23 23  1.04727909999308200D-01 -9.14570111426796000D-02 -9.65318707318926900D-02 -2.09766718210070600D-01  1.98002564324178700D-01
23 24 -1.10691066228246700D-01 -2.34581958412464000D-01  4.04314202459307400D-01 -2.29247514251538100D-01 -8.78303694648518400D-02
23 25 -5.88708083683666400D-02 -1.59263922112850200D-01  1.79214338698253100D-01  8.61529121860497200D-02  3.34065503302385800D-01
23 26  4.11858264912479700D-02 -2.29084053136380700D-01 -1.39764118718023600D-01 -1.34966316275713300D-01  9.42040488790031600D-02
23 27  4.07622673967098700D-02 -7.21822355546195300D-02  5.02620017467245600D-02 -4.43661232818761800D-02 -1.32200382615601000D-02
23 28  2.93298159095101500D-02 -1.61097776479499800D-02  2.65095380931593400D-01 -1.02923396252859500D-01  6.45078996178774900D-02
23 29 -1.58199847079764000D-01 -4.72960802818042200D-03 -3.69028510466466300D-02 -1.64295579625025600D-01  2.51738969971171400D-01
23 30 -1.07687247262867300D-01 -1.97846544779600300D-01  3.25301965706111800D-02 -2.97535082500583600D-01  1.54134216729796500D-01
23 31  7.29010790026475700D-03 -6.55834031080875000D-03 -3.30186900661330800D-01  2.41820356407363200D-01  8.61809942637881800D-02
23 32  3.46890675507084100D-03 -3.52713016735205000D-01 -1.71627222805503000D-01  3.24558747631246300D-01 -5.01818169165110200D-02
24  1 -1.23692790348917800D-01 -3.38322098649422100D-01  1.43682356181928400D+00  1.10342940838588400D-01  1.48780834073211100D-01
24  2 -8.84403164945393700D-02  8.60968144711119800D-01  2.63156945183260900D-02  1.88726103817385500D-02  3.27533972098438600D-01
24  3 -2.82840462295912800D-01 -4.46935098025250300D-02 -1.91880942097941400D-01  4.03908635649943100D-02 -1.42981537584247100D-01
24  4 -5.28583226554672400D-02 -1.81059682842126500D-01 -2.21518762431789100D+00  3.65555221014388500D-02 -1.39786425529619600D-01
24  5 -7.35468301843712800D-03 -1.42440600294768000D-01 -2.09259782014072800D-02 -9.24198779175770800D-02  3.12387221414336100D-02
24  6 -7.66840157628053700D-02  4.54452936213721000D-02 -3.65990098385845400D-02  4.44521965931343700D-02  1.05090434858157000D-01
24  7 -5.87840700433976900D-02 -1.12357688279757400D-01 -2.95875601226729000D-01  1.20588400451161600D-01  2.12565074420504100D-01
24  8  7.92976970138797500D-03  1.35582185390199300D-01  1.17501968112992100D+00  9.53410639846012700D-02  2.10560810213487200D-01
24  9 -1.01478711707142600D-01 -1.09082098506345100D-01  5.05280769342303900D-02  1.01912542445064200D-01  5.95119450175786200D-02
24 10 -2.06105724001162400D-01 -4.15276060372086800D-01  1.14369340199756200D+00 -1.92322011134950300D-01  1.68426229011564600D-02
24 11  7.32077126592885500D-02  1.63310871578439800D+00 -1.65352875461328500D-01  1.37758769017277800D-01  1.06072674460304900D-01
24 12 -1.36529252270991100D-01  3.04565778106864900D-02 -5.07193424012172500D-02  1.02677634600281900D-01 -2.15643007004491100D-01
24 13  4.93843135209295800D-02  7.25301813840008600D-02  3.63524386425049500D-02  8.46749847710200900D-02  2.48697220243667900D-02
24 14 -4.28300295023882100D-02 -4.27706418594928700D-02 -8.19091606824702700D-01  1.31464836993245300D-01  1.07216307183209500D-02
24 15 -1.89019800976276000D-01  1.78298170257955900D-01 -1.91142025995542700D-01  3.99111818274483400D-02 -1.21677698628123100D-01
24 16  5.68477760121981700D-02  1.65313422717971700D-01  1.41323947330726700D+00  8.61791095157104200D-04 -8.45188783375872000D-02
24 17  3.61104061424750300D-02 -7.96807899696546400D-02 -1.41005578780072600D-01  1.78472237076988100D-04  1.60000104607334900D-01
24 18 -1.59017791743857200D-01 -9.82312863476836600D-04 -1.28861919174572200D-01 -8.35443760083227300D-02  6.05610485393205400D-02
24 19  1.64692243641686600D-01  3.20742913133990800D-01 -6.83859266369380000D-01 -6.46357588942148100D-02  2.55779220090148200D-01
24 20 -1.28380062996437900D-01  1.71739902655718000D-02 -4.95037956084758800D-01  2.10632229654981800D-01  1.95566508682856900D-02
24 21  1.24653727274238800D-03  3.50129880532011400D-01  9.63280629905905300D-02  2.45942952190628400D-02  8.32088948095485000D-02
24 22 -1.07803190028611500D-01  7.21817159216314000D-02  6.32990657486369700D-02 -5.29810891972497400D-02  2.82648218100899800D-02
24 23 -3.28765804963224100D-01  3.00500983153135300D-01  1.06435165541171100D-01 -1.11634480448672500D-01 -4.95951865938803100D-02
24 24  7.84743943077403400D-02  1.87031422434334700D-01 -2.88744527987809700D-01 -3.32571929291830700D-01 -5.55288792955816000D-02
24 25  6.60718613191752000D-02  1.00831054906927500D-01 -2.38730344472224300D-01 -1.43702606681368000D-02 -2.69649099343241400D-01
24 26 -4.16291792702564900D-02 -2.76062085347671100D-01 -8.12510082539893800D-02  5.96861650658901500D-02 -1.00008814292611900D-01
24 27  4.03226492267219700D-02 -5.81652456744192800D-02 -6.57528127339045500D-03  2.71373386912899300D-01 -7.74554477577532200D-03
24 28  6.07519497833137500D-02 -5.30064050075384600D-02 -5.04887076946001400D-02 -9.27782582355300000D-02 -2.91376162876659600D-01
24 29  1.67290110469419800D-01  5.37843269685910800D-01 -4.51890367625383300D-01 -2.23166531828872500D-01 -6.08457583660628700D-02
24 30  8.16160514838488900D-02  1.93851743805319700D-01 -1.63873102787601600D-01 -1.70483870658580300D-01 -1.19633036056811600D-01
24 31  1.76839810013395900D-01 -1.99529858422321000D-01  1.80760396861902300D-01  1.13433224926581000D-01 -1.15557240953521200D-01
24 32  9.57232378545733300D-02 -6.24391439079778700D-01 -2.61093610879828600D-01  2.77612235122028600D-01 -2.04909039188059200D-01
25  1  1.41814973832875900D-01  2.24891120329775300D-01  2.71207059257644400D-01  5.16141661114662800D-02  9.96065403269821400D-02
25  2  6.84511476153329700D-02  2.88412366099603900D+00  7.59951823832259200D-01  2.84357717812797000D-01 -1.96239846033514200D-01
25  3 -1.64854270544014100D-01  3.61094116577527800D-01  1.77191232699424100D-01  4.19102969502252000D-05  5.01846556971364500D-02
25  4  6.89213164644143900D-02  1.61725513799015500D-01  6.02329483613155200D-02 -2.75116327107339500D-01  2.99599638203638700D-01
25  5 -3.88804095310636000D-03  1.64175222248177300D+00 -2.39165620973122000D+00 -2.83849718026406000D-01 -9.21836148113794500D-02
25  6  1.18982739621750300D-01 -2.67991248103701700D-02  1.88845502010008300D-01  8.65742616764190700D-02  7.13743001638584800D-02
25  7 -8.17600964079667600D-02 -1.00517873548299600D-01  7.30730204744236800D-01 -5.35995088358752800D-02 -3.08565436624744900D-01
25  8  1.48899894830028100D-02 -1.18826487262778500D+00 -1.75181289884532100D+00  1.34272323806920800D-01  1.12369147156257600D-01
25  9  2.73976376798346200D-02 -1.39766784836092200D-01  8.52291781287517800D-02  1.50473558854637200D-01  2.05325164521541200D-01
25 10 -4.14025342956090200D-02 -2.15665560270443600D-01  9.62070104609833000D-02  1.26492144243333500D-01  5.78738215182701300D-02
25 11  1.16660632804229900D-02 -2.83891582379990800D+00 -5.83846956539882100D-01  1.99991926987362000D-01 -7.88955926547462300D-02
25 12 -2.79232064458192800D-01  3.58127657112939600D-01 -2.01028327955031700D-01  9.45400961232860700D-02 -1.16130078630373600D-01
25 13  3.05032543140360200D-02  1.05389000373324800D-01 -1.64244570086530700D-01 -4.76123270205778300D-02  8.30795067408929000D-02
25 14 -6.59968791246703800D-03 -8.75126878607065400D-01  1.78279956709680500D+00  6.47452167785658700D-03  2.83504020135722900D-01
25 15 -9.04773628785378000D-02 -1.93026657257184500D-01  1.43758004627791400D-01 -1.38944219035915700D-02 -3.77884864472564600D-02
25 16  5.73260739439732300D-02  1.77770184600903900D-01  7.98147149727887800D-01 -4.12079219685279900D-01  3.37912294081017100D-01
25 17  3.40276988414529000D-03  1.80021706437239900D+00  1.67758186206895600D+00 -6.70836172324393000D-02  1.20078698659708500D-01
25 18 -1.17369991356030200D-01 -2.70870730367732600D-03 -3.74406817551733600D-02 -1.44700803136407200D-01 -8.17478411384780500D-02
25 19  1.81859171313095800D-02  1.04350138489869200D-02 -2.48784026893550700D-01 -5.21194980488490300D-01  1.35797336156094400D-01
25 20 -1.08336396544111400D-01  3.43421331811111400D-02 -6.81342383264207000D-01  4.00254620485264300D-01 -1.21981252487666100D-01
25 21  3.07354209967097700D-01  6.95095988441448200D-02 -1.03427283275446000D-01 -6.00816179354706000D-02  3.55046660744883000D-02
25 22  2.45769518609830400D-02 -2.25920954388300000D-02  8.74833971413633200D-03 -6.45436033921932400D-02  2.67575899233089900D-01
25 23 -2.11613545384910900D-01 -5.59623538481799200D-02  1.44096926015085800D-01 -1.70119430285138800D-02  1.00045399687432100D-01
25 24 -2.62859091176560500D-02 -6.69857612001094800D-02  1.18382061869339100D-01 -5.58880357594917800D-01  6.14845152105013000D-02
25 25  3.17681622139097100D-01  4.32893159025484700D-02  2.00732245031027400D-01 -2.83077514095938400D-01 -1.19437712944512300D-01
25 26  1.62366187352650600D-01 -1.86181094676551800D-01 -1.62773953995949100D-01 -1.34444688419436400D-01  1.83334444035954800D-01
25 27 -4.88897556165185500D-02 -1.18105798712093600D-01  1.86366459417839200D-02  7.56183336550722300D-02  1.90174186516478200D-01
25 28 -1.95740175431986600D-01  5.56598891550850100D-03  7.61098193036164200D-02 -1.11405531545910000D-01 -7.74080814685363900D-02
25 29 -5.29735241754640500D-02 -3.90357354969953100D-01  2.41166976036929100D-01  1.28041874697442800D-01  1.14515347078525300D-01
25 30 -1.97358511280944400D-01 -2.50502848675777700D-01  1.53020981247409900D-01  7.17432172076530200D-02 -1.16178088652129800D-01
25 31 -1.57821925109730100D-01  2.81920289239384900D-01 -3.96882957305071900D-02  1.78772595510631300D-02 -6.75102888575953200D-02
25 32 -2.05032272708822800D-01  1.97810182815069000D-01 -3.14891087388917400D-01  7.61445047358154200D-02 -5.84644792138935800D-03
26  1  2.42814268588736500D-01  5.19801997274479800D-01  6.22518013831352900D-02 -1.19451634812805900D-01  3.48886334639607300D-01
26  2 -9.20327936196377300D-02  2.58478819522787700D+00  6.00107758054693900D-01  2.09193380540474000D-01 -3.12377873353329700D-01
26  3  2.46346063872473500D-01  6.60318094808559100D-02  2.47950748460277100D-01  5.00002232282625900D-02 -6.31825306063080000D-02
26  4  7.10470594933020800D-02  1.23088607066232900D-01 -1.47702497183063500D+00  7.26791173021891100D-02 -1.86282368472119900D-01
26  5 -4.96678978670344000D-02 -9.28133107833299000D-02 -7.30345586802301800D-01 -1.55325168139116800D-01  4.85042039501060000D-02
26  6  4.35398329276424100D-02 -9.20440368777480900D-02 -1.77403742572939500D-01  6.58364145795732100D-03  2.72019274297254200D-02
26  7 -2.91576868407071300D-02 -9.90255687263413000D-02 -1.05745962387807000D+00 -1.43048107025018700D-01 -9.08047955015904400D-02
26  8  4.80069528431827800D-02 -7.81377919883957100D-01  6.73954072151961900D-01 -1.21096816956093100D-01  7.07744428125498500D-02
26  9 -2.24883969321703000D-01  1.54109526509152600D-01  1.30344541670582600D-01  1.84734563676815700D-01  2.60462284970690900D-01
26 10  3.00040560854418200D-02  1.07991960674933900D-01 -1.64125082699622500D-01 -9.97585873278183100D-02 -2.94815996138907900D-01
26 11  1.65347850259131800D-01  1.33378456362681400D+00 -6.12768361922563100D-01  3.17352268830278900D-01 -1.05582765691149300D-01
26 12  1.99663960230310300D-01 -9.40811945391619200D-02 -3.41396382315924400D-01  9.31049322469691800D-02 -7.74742554525723900D-02
26 13 -2.49287241341006200D-01 -5.66031872510403500D-01  1.70396895047730200D+00  1.95199874940207900D-01 -1.29159504142780200D-02
26 14  1.30062860804154700D-01 -1.49192204537778600D-01 -7.46278073703965500D-01 -3.00474677828010500D-01 -2.52349662310889700D-02
26 15 -8.65342712849532000D-02  1.11769237516043200D-01 -6.05476397061810500D-02 -2.09222149152112100D-01 -2.98080684382072100D-02
26 16  5.21881646303953400D-03  9.07338917298608400D-02  2.16753337093659800D+00  1.59064113504142500D-01  1.05852581491389200D-01
26 17  8.10844041982717900D-04  1.74373112344905900D-01  5.82241742059929700D-01  9.49861575593038800D-02 -9.27655217192737700D-02
26 18  3.27102989036775600D-02  6.00552228155976800D-02 -4.31270248113340100D-02 -3.62038678134079700D-02 -1.21060275343733300D-01
26 19 -1.40065855857024500D-02 -8.27841529459128100D-02 -3.67380381910576600D-01 -7.01293939997064000D-01 -1.00815421744447900D-01
26 20  1.59230704358906800D-01  5.07262388643690000D-02 -5.09659580098877600D-01  4.10457724601277400D-01 -7.57731816430650700D-02
26 21 -3.32537214758249300D-01  3.71773859818725100D-01 -1.93549212440004600D-02 -7.93999411335062900D-02 -8.85523291823738000D-02
26 22  1.67952270315879000D-01 -6.00392621619501800D-03  1.03552590452212200D-01 -4.80037394848405900D-02  1.46436806260497700D-01
26 23 -2.42854649026855200D-01  9.64178427663581100D-02  4.53988111786009500D-01 -1.25222703600424900D-01 -3.15670640398647800D-02
26 24  4.11415828121991900D-02  6.12336522974785400D-02 -5.04816553122680500D-01 -4.07463267672727400D-01  7.30196231600144900D-02
26 25 -6.98394623111290900D-02  2.21949106184293100D-02 -5.23367858652993000D-01 -3.11999564704574800D-01 -1.42678090203752900D-01
26 26  8.98221601743694100D-02 -1.77106681557243900D-01 -1.13976810099883300D-01  1.54118062674338300D-01 -3.26316159762183500D-01
26 27  1.72198097087845600D-01 -7.99661364724200600D-04  1.03605044781346500D-01  6.17094448800151000D-02 -2.05071566655776600D-01
26 28  1.56721705922352400D-01  4.83498607334242800D-02 -1.53007680969568300D-01 -1.79429434237759800D-01 -1.39647484595051600D-01
26 29  1.12618673668673900D-01  6.87744075604242000D-01  4.65931848060943600D-02  9.73286369426733400D-02  1.19450591975932700D-01
26 30  2.81448280985781200D-01  8.93494494930437800D-01 -1.29405905555181200D-01  6.34535059580662600D-02  1.24618639510954500D-01
26 31 -1.01907092530852800D-01 -3.29740747112883500D-01  8.57679089789087500D-02 -8.78271602330082300D-02 -9.57551996076701500D-02
26 32 -3.39229900506771600D-01 -7.07640821680970100D-02  4.94160735619848000D-02  1.01151561990174600D-01 -1.10823505019259500D-01
27  1  1.01174614570015700D-01  1.16598312247854900D-01  2.87417046429526600D-01 -2.07846167359356100D-01 -1.38182008964611800D-01
27  2 -1.87692397000944400D-02 -3.93097267249619000D-01  1.30176918843981400D+00  5.00930527960997400D-02  1.80275611269367600D-01
27  3 -3.73282435077426400D-02 -1.42947367761625600D-01  3.61941596999967500D-01  4.00879415718902100D-03  3.25014441820682900D-03
27  4 -2.08632778634656400D-01 -3.58842749664970300D-01  1.99171798665614800D+00  2.45653586581371200D-01  1.75455663416085000D-01
27  5 -2.52438753951516300D-02 -9.61344243480000700D-01 -6.90804829757267500D-01 -4.77618530707287900D-02  3.76341378843378000D-01
27  6 -1.81505953157595700D-01 -1.94835425685782600D-01  9.26915275710831500D-02 -6.59865666522011100D-02  1.70682487523808300D-02
27  7  1.29381294754207900D-01  1.66256342527326300D-01 -1.86512913778568900D+00 -7.28396512892979100D-02  5.37983400525444100D-02
27  8 -1.73520801520903400D-02 -7.27132733902931300D-02  3.22923826761609700D-01 -1.29294708516566500D-01 -4.91977318305509500D-02
27  9 -1.81946009837640300D-03  5.10171919289291200D-02 -1.73433655300358000D-01  6.83346976680947200D-02  1.17223378012567800D-01
27 10  1.09710665695058400D-02  1.08345657025695800D-01  1.89832377623108700D-01  2.28489532084148900D-01  4.23405024107945800D-01
27 11 -7.64467425766010600D-03  1.38752801256616400D+00 -1.97120360836112000D+00  3.27224439701882600D-01 -1.86499166778907500D-01
27 12  1.87604938339223100D-01 -1.10577156031660900D-03 -2.10220382627223100D-01  7.07068446478496000D-02  1.67963019599841600D-02
27 13 -6.92176157465519000D-02 -9.24861901907468600D-02  2.43155427306396700D+00 -1.82702967941227800D-01 -1.42105771138153500D-02
27 14 -2.52325068892940000D-02  4.47203346385847400D-01  2.81371521815410500D-01 -2.22275820839508300D-01 -5.42868191765473900D-02
27 15  1.96452559994075700D-01 -1.42165740817528200D-01  1.02553364828370300D-01  2.01713959259853900D-02 -6.43052919463869100D-02
27 16  1.44832133874091700D-02  4.20062272183717600D-03 -1.20201943909566700D+00 -1.27879312180304500D-01 -4.67732368385704000D-02
27 17 -1.44080547716477900D-02  2.73634776167992500D-01  1.01509762907293000D-01  1.09644036505355800D-01 -3.08101036738896200D-01
27 18 -7.86815761425629900D-02  3.86782612881459200D-01 -1.67734223811333600D-01  2.35447456132035400D-02 -9.28354941557483100D-02
27 19  1.68753676737479700D-01  3.51953389246062700D-01 -9.72395575551653300D-01 -6.47735601625745200D-01  5.45664622911085200D-02
27 20 -1.26753558360466900D-01 -4.62336692125954300D-02 -1.97057854790371300D-01  3.66228759364525500D-01  5.61690949803358100D-02
27 21  2.78598066977828000D-01  3.03344432826970400D-01 -4.83558749133792100D-02 -1.38557045075811000D-01  2.50175343693930400D-01
27 22 -1.11618298618119700D-01  1.17741299860936600D-01  1.54288405046593600D-02  1.34801169300294300D-02  2.88721028935699700D-01
27 23 -4.18824525333977000D-01  1.30103496398277100D-01  4.58395307695695600D-03 -2.27235697472042100D-02  6.32012052624985100D-02
27 24 -1.18794365135603900D-02 -8.41078330936727700D-02 -8.62679233957070900D-01 -5.35387316419611800D-01 -7.82596237304209400D-03
27 25 -1.70898286369149200D-01  1.60144967262947500D-02 -3.77192081379628400D-01 -4.70722423530806500D-02 -1.22597070328231100D-01
27 26 -3.17130714190315300D-01 -4.54033873508277100D-02  2.86415815411911300D-02  1.49077368092786600D-01  7.25217302519651100D-02
27 27 -2.21599098344752000D-01  2.03460823320840400D-01  2.14710659857175200D-02  3.57354411188981600D-02 -3.56021673388942600D-02
27 28  1.11742668870083200D-01 -7.61405015311889000D-02 -5.34185037638798500D-01 -8.88774709559895900D-02 -1.72953023764033800D-01
27 29 -3.69988402126631700D-01  2.93675033811938700D-01  1.91300506421725100D-01  1.56598619632966300D-01  1.45282422664291500D-01
27 30  1.08373902111478400D-02  8.16985509770171500D-01  8.56048640492994700D-02  1.41034978839420400D-01  1.38569139543034900D-01
27 31 -2.04914171579285300D-01 -3.35341313413004700D-01  9.00101456615949800D-03 -6.68124334522634400D-02  1.49937650298976200D-01
27 32  1.12458384458901200D-01  5.36010628431076700D-01 -2.84413307431782200D-03 -6.99825682807101000D-02  4.57911162392142100D-02
28  1  6.30009288110938600D-02  2.33665318046500800D-01 -3.96422131704567000D-01 -1.83937587193390700D-01 -5.51416930671113300D-04
28  2  1.89330978842661600D-01  4.58582252554043200D+00  8.76691550586019700D-01  1.55495547315169100D-01  6.52620140600291100D-02
28  3  1.06301940126494700D-01 -1.71563954186525300D-01 -1.27468624112119100D-01  1.24513265985617200D-02  1.15153012213437400D-01
28  4 -1.10796813540266500D-01 -2.07367963555046700D-01  1.29886311606640600D+00  3.52783761173515300D-01 -1.19523348619498000D-02
28  5  1.05691204077119300D-01  1.57053112990937400D+00 -4.40098375993250500D+00 -1.80856423458133300D-01 -8.65697263548923200D-02
28  6  1.73165431370429600D-01 -8.65957050155363600D-02  5.34575989201787600D-02  7.42463333614937200D-02 -1.36508943914266900D-01
28  7 -1.30732385173932100D-01 -3.07094695119769200D-01 -4.21004509342924300D-01  9.22004237865278200D-02 -2.47481189215771200D-02
28  8  4.73413087635327400D-02 -2.66453538593188900D+00 -4.17821413405084700D+00 -9.50024612525435400D-02 -1.04878906232482700D-01
28  9  4.74966997135574500D-02  5.73822065189264100D-02 -6.98456187632454900D-02  2.03101791651081300D-02 -2.92618765665865000D-03
28 10 -3.14725781859841900D-02 -6.88243366756602500D-02 -3.14704740625029600D-01  6.22369183562456600D-02  4.46253175620698700D-02
28 11 -3.12604582766270500D-02 -4.56757434463170300D+00 -8.88342176540361600D-01  5.53357666774348100D-02  5.79154360640063600D-02
28 12 -3.12581171365866300D-02 -2.66573189274200200D-02  1.37609646117774600D-01  7.90150842722302000D-02  8.92635173286247300D-03
28 13  1.44667868132276900D-01  3.93572196760835500D-01  9.53072090947197000D-01  2.17876545273997600D-02 -1.54534370432320700D-01
28 14  7.50886122835855600D-03 -2.10422723985604400D+00  4.58823598321603700D+00 -3.49887007022108600D-02  5.97587009113301100D-02
28 15  1.59295416222167600D-02 -7.56882425335469600D-02 -4.29094721133941500D-02  1.50957007723346800D-01 -1.42046151740267200D-02
28 16 -2.01873182912092900D-02 -1.37262967145904400D-01 -9.71334975366561200D-01 -1.88841928687178900D-01  3.67680176407251600D-02
28 17  1.05364475498862100D-01  2.86908985372986300D+00  3.84953031595234400D+00 -1.43883966996066600D-01 -5.11074494762701300D-02
28 18 -1.16530572478769900D-01  1.67638021955041400D-01  9.89407482073291500D-02 -1.40040771976945700D-01 -6.17444408171330700D-02
28 19  3.59021427688883800D-02  4.63670115637987400D-02 -5.13977841530152500D-01 -1.86138394980258000D-01 -9.37967831213576200D-03
28 20  1.04071643458918100D-01  4.82585328256816900D-02 -4.47485254898553000D-01  1.30208559405334800D-01 -2.25458171837455100D-01
28 21  1.84315145292158700D-01  2.31889478862223200D-02  9.12264968402092400D-02  1.28798617806409800D-01 -1.89251893948256400D-01
28 22  6.04532761418476000D-02 -7.59707597189358100D-02 -3.03086113202440300D-02  2.87071264720060700D-03 -6.04815104267136000D-02
28 23  9.41178961897229400D-02 -3.36363857630113900D-02  5.45241319208655900D-02 -2.64087584387570800D-03  1.63245780249280200D-01
28 24 -3.57910237147975500D-02 -1.14685588119759700D-01 -2.03504431870063800D-01 -1.87354224489997900D-01 -2.19066632461366300D-01
28 25  1.32492528721105000D-01  4.65296602141556900D-02  7.76098601620053500D-01 -1.25257047247605100D-01 -1.53012379724520800D-01
28 26 -3.54103242842289800D-01 -1.68014317043742000D-01  2.34578589669551900D-01 -1.00729573809345800D-01 -3.27183354012246200D-02
28 27  1.33447909210570500D-01  5.18513699299235500D-02  2.83751240185421100D-02 -4.60080314886012900D-02 -1.82068484577290100D-01
28 28  2.26242970387369700D-01 -4.41744858100796400D-02  1.75131645912053500D-01 -1.02614572060378600D-01 -4.76689810899981600D-02
28 29 -3.23716133225597000D-03  2.74367780455768000D-01 -1.32256559525830500D-01  1.79896817481496600D-01  6.41555059688364000D-02
28 30  1.89419053123429200D-01  5.14517952218932800D-02  3.73266553858411100D-01  2.97404020680845300D-01 -6.89484346392889000D-02
28 31 -9.10839479098109700D-02  2.02853141212094700D-01 -6.25189210453892400D-02 -4.23758583923993900D-01  3.38686213924107700D-02
28 32  3.67048254393441200D-01  2.17558724314333400D-01 -9.92005925478849800D-02  7.03153459437351200D-03 -4.93423310648324200D-02
29  1 -4.18845966352913100D-02 -7.53286536764865200D-02 -7.96491673572025300D-01 -1.28054824733139600D-01 -5.20334209519597300D-02
29  2 -1.29236541391894700D-01  2.97057490427632800D+00 -1.36762896153984200D+00  3.16753042547970200D-01  2.42880796379445700D-01
29  3 -5.31098636983250200D-02 -1.89770932681121300D-01  2.71592220028319500D-01  1.38795335014251200D-01 -1.08305976004782500D-01
29  4  2.15690051837829000D-01  4.71041686163903500D-01 -5.14893696094817900D-01  4.03494436344618100D-02 -6.31829285948053400D-02
29  5 -4.10696013878450900D-02  1.10893648760115300D+00 -2.11370182990559100D+00 -7.80255587290342700D-02  9.30812124822067800D-02
29  6 -1.21003574550342900D-01  2.79223620681365700D-02  5.08168679306690000D-02  1.33783127508510100D-01 -5.03045698182601700D-02
29  7 -4.01551957465443800D-02 -1.78060165480943700D-01 -1.00745355850589400D+00 -1.86504851946751200D-03  2.47460054367641000D-01
29  8 -3.14907924719456700D-02 -4.71431132661541200D-01 -2.34265720046542500D+00 -1.26805217865461900D-01  1.61150429226181800D-02
29  9 -1.92689736518788000D-01  1.76574693596170000D-01  9.34428450229556800D-02  5.58247471734885200D-02  3.49127470363778700D-02
29 10 -9.93531370981727100D-02 -2.03365367077692500D-01 -4.17167956764827300D-01  1.40447779137970400D-01  2.62836482232925100D-01
29 11 -6.07206363303676600D-02 -2.26630342114880900D+00  1.36743397772998300D+00  2.26511306673142700D-01  2.08829688592416200D-01
29 12 -1.19715417290669100D-01 -8.91142713017471900D-02  1.67909014882505800D-01  7.85394414992920700D-02  1.08884824771466800D-01
29 13  9.84413322355663600D-02  2.43844548131823000D-01  5.61946386157331400D-02 -2.24246240310238600D-01  2.24260704671354800D-01
29 14 -2.66836992766306000D-02 -1.03785121762386300D+00  1.16852911072206600D+00  6.87213860372689300D-02  1.20100380058947300D-01
29 15 -6.26258880588414500D-02 -5.74744920001060400D-02  7.75960342027432500D-02 -7.55431420382514100D-02  5.17877895824586300D-03
29 16 -2.06318977321237900D-01 -4.60684517470125100D-01  7.70488463224629900D-01 -5.87520933882369500D-02 -1.24175458948727700D-01
29 17 -7.63676339583814800D-02  6.93370468577576000D-01  2.70394810356924000D+00 -6.99268203684392100D-02 -1.68332215565778300D-01
29 18  4.23617244437723700D-02  1.25970491122006000D-01  8.95998065889122600D-02  6.36877668815260500D-02  1.26874731425530300D-01
29 19 -1.22240936563064700D-01 -2.15099912693510600D-01  1.09580314928622400D+00  5.33735184154677600D-01 -1.80952266426583800D-01
29 20  9.86329935190962500D-03  3.93609025939331800D-02 -2.20415014770345900D-01 -4.94919740863857600D-01 -7.47660463794500300D-02
29 21  7.70501438083054700D-02 -8.88350280435213400D-02 -1.53583711125832900D-02  9.41435334997829700D-02 -4.17175590644878700D-02
29 22 -5.24259744352945000D-02  2.93745075693436200D-02  3.70488918647944900D-02 -1.40117928519147500D-01 -2.97739584428446200D-01
29 23  1.04634117090191300D-01  1.93105467338254600D-01  1.06838290422372900D-02 -1.78711139176487700D-01  1.11393955992263400D-01
29 24 -5.82428260685183400D-02 -8.61027094694357400D-02  8.18964462442469600D-01  7.27821189359051600D-01  1.17722589680742800D-01
29 25  6.06365835877945100D-02  3.06650487003035600D-02  2.49771393732967900D-01  6.13754414474064800D-01 -4.01420123564899600D-02
29 26 -4.91182051999448500D-02 -1.00116336373542500D-01 -4.69628245279601600D-02 -1.25616075142068800D-01  1.62743455164198200D-01
29 27 -3.71273800221289600D-02 -2.74605501092070800D-01  2.82178366301328000D-02  2.63559405666502500D-01 -1.59582622870382000D-01
29 28 -1.15160516292573200D-02  1.71098674499639300D-01  2.39482474507524200D-01 -1.17888207589320400D-01 -1.43146665836051900D-01
29 29  7.48595704794624000D-03  1.00260154448348600D-01  4.82463261414292100D-02  7.76955305375312400D-02  2.91571572738975800D-02
29 30  2.48793607317712900D-02 -7.37186904066404900D-02 -4.08593814939400400D-01  1.06080847586310200D-01  1.46567888700310600D-01
29 31 -5.66434640872348000D-02 -3.33653568758070400D-01 -2.95669334537071300D-02 -1.02013524899869600D-01 -6.05771006035980100D-02
29 32 -1.41136444135566900D-01 -3.38417759973028600D-01  2.07159409886714100D-01 -3.25793423861943800D-01  6.66074656587463700D-02
30  1 -1.72656489600627200D-01 -3.04971956822801100D-01  1.81286553261732700D-01 -5.13669844342926500D-02 -3.74914316002254800D-01
30  2 -1.66702982785089800D-01  1.55303138953197200D+00  1.13124472168787400D-01 -1.41282721953470100D-02 -5.20276497337441800D-02
30  3  2.31475507533012300D-02  2.88800989804428800D-02  1.67191512983908600D-01 -1.75233927700369400D-02 -5.54663962311388300D-02
30  4  1.88961135926531000D-01  4.14843056831527700D-01 -2.01908476040809100D+00  1.65708973315236700D-01 -3.48818433595520400D-02
30  5 -7.87348092153071200D-02  1.09294830715175600D-01 -5.02999797424033800D-01  1.17608891352397200D-01 -8.37433576413830100D-02
30  6 -7.12513238739253800D-03  9.08684900287764800D-02 -2.70899173324353100D-01 -1.51450234980602700D-01  5.48649612837100900D-02
30  7  8.40090872898774500D-02  1.54264823149885900D-01 -2.22287074072481500D+00  1.17816847622830600D-01 -9.78361981569479400D-02
30  8 -2.71976524154311600D-02  2.40871881074813100D-01  1.19409113853987100D+00 -5.87216054505645700D-02 -7.06547012703915600D-02
30  9  1.71553169072087100D-01 -1.00898467801695000D-01 -1.49873173680420000D-01  2.95037759202629300D-02 -5.59846857310025800D-02
30 10 -5.84732328843463200D-02 -1.39472887415325300D-01  4.53838351256832500D-01 -2.00028317998523400D-01  7.48604216449607300D-02
30 11  4.14895202287823500D-03  2.92468109772847400D+00  5.78719199983587200D-01  5.01444043699701100D-02  1.03743329707700700D-01
30 12 -1.73661607700879900D-01  6.99182779931793600D-02 -6.74358005864185400D-02  3.93215372449351700D-02 -3.01412717440038100D-02
30 13 -1.45541529782297600D-02 -2.86069408838719800D-02  1.45846777806609400D+00 -1.94754962502517600D-01 -1.40635197124378400D-01
30 14 -1.38279397716616600D-01 -8.42446234351414700D-02 -7.96460829864573300D-01  8.09927964621009500D-02  1.25496984418274100D-01
30 15  1.29651403524729900D-02 -1.38462124770747300D-01  2.70897616150111200D-01  1.56918056783631600D-01 -3.22229709966601900D-02
30 16  1.05342366462520400D-01  2.55379997062260600D-01  1.03552816266859000D+00 -1.08734730594396900D-01  2.48938515969095000D-01
30 17 -6.14232483567046500D-02 -1.80644026620929700D-01  2.45366854344338400D-01  3.58275452444710800D-02 -1.38515282610299900D-01
30 18  8.71606519683713700D-02  5.13546306419287700D-02 -3.04870198165492500D-01  8.46285756932507700D-02  9.59255918780002600D-02
30 19 -4.98721462943587700D-02 -8.81313553368376500D-02  9.69477119275456200D-02  3.53480540218002300D-01  1.15720299017739400D-01
30 20 -1.14350769208457000D-01  4.69686788366827400D-03 -5.82746389837624400D-01 -2.43845264591373300D-01  9.71377674575645000D-03
30 21  2.60723204073566000D-03 -1.41970471261478800D-01  1.05270277052626000D-01 -1.03758778707326700D-01 -6.94996605726608400D-02
30 22  1.73258439279987200D-01 -1.64970974517923000D-01 -1.86359644791009000D-02  6.76477756441589300D-02 -1.25579845512300800D-01
30 23  4.73625154341629700D-01 -3.48045308829327200D-01  3.73504320392820500D-01  6.04471015204767000D-03 -2.49041848924590200D-02
30 24  2.11297308567183700D-02  5.71717893502632800D-02  1.54867282971578300D-01  3.94609417059850000D-01  1.27527868148013600D-01
30 25  2.14620986755265800D-01  7.72491668559625500D-03 -6.36325771729581900D-01 -6.37133261505849300D-02 -6.80007269228128700D-02
30 26 -3.25801837450984100D-01  2.61530329635417500D-01  5.18884748238520300D-02 -1.52456680843871500D-01 -1.06876308247199800D-01
30 27  2.59332989091072000D-01  2.27726407218159300D-01 -7.23929136332244300D-02  4.77932417040501400D-02  6.76015900964219700D-02
30 28  5.01376412449422000D-02 -1.17739231341364200D-01 -6.86678203893661300D-01  2.92139185814517600D-02 -1.73241951684165200D-01
30 29  2.43845317830510000D-01  1.26951898323074800D-01 -1.11880837104112800D-02  8.04613487590705600D-02  4.88573204760798000D-02
30 30  1.52132430855498300D-01  3.41154108143221300D-01  4.38570930463021100D-02 -3.69562204718822800D-02  7.65535343834332200D-02
30 31 -6.73501144987681800D-01 -9.89476889700756000D-02 -2.70000962176173500D-01 -3.81311629104280800D-02  2.73596896892093500D-01
30 32 -3.54073348163131100D-01 -3.15966000159864500D-01 -3.05224460620921900D-01  1.12081788580283400D-02  3.63220578994776100D-02
31  1  4.80717164679041100D-02 -1.15622432001486900D-02 -6.61790840948412900D-01 -1.56376200825365700D-01 -2.24720125485008900D-01
31  2 -7.65792856368853500D-02  3.58981890267334700D+00  5.11354047991857000D-01 -1.22004747230125500D-01 -1.52520188017543100D-01
31  3 -7.26167798839742900D-02  2.25136967901517200D-01 -2.93050884823946400D-01  4.42682766528093200D-02 -9.44037582389162100D-03
31  4  1.06020555194450800D-01  2.41002493721838100D-01 -1.44528897814737700D+00  1.88186903046473100D-01  1.34589840860998200D-01
31  5 -4.61258554748119700D-02  1.24000123615022500D+00 -1.70845313348976000D+00  1.14360299160046000D-01  1.49681502044571200D-01
31  6 -5.71782728665148600D-02 -9.25032291780560200D-02 -8.18584131757421200D-02 -5.82446267867973200D-02  4.65886329942094700D-02
31  7 -8.93176236737778500D-02 -1.04889627481696200D-01  2.16690685122033100D+00  1.75022398591150100D-01 -4.36470046724253500D-02
31  8  4.30931770736335400D-02 -2.07430741800061100D+00 -1.62425514044951900D+00  2.03180493030724600D-02 -1.44482733311344100D-02
31  9  1.44131352651685800D-01 -1.29683079320552900D-01 -5.92733703045013400D-02  9.65969005242817000D-03 -4.85612693123621200D-02
31 10  5.19069064820854400D-02  9.55472526783003300D-02 -4.81685781320931000D-01 -9.86404290826672900D-02  1.67093150233975900D-01
31 11  5.41992963948390700D-02 -3.63241983654499700D+00 -8.06652755721583300D-01 -1.72301028015626500D-01 -8.01219192298990000D-02
31 12  2.09341203622724300D-01 -1.29219284392824700D-01  4.51143882714457800D-02  2.87700764637320600D-02 -6.06963778241779500D-02
31 13  9.69999740641445800D-03  3.73167166076065600D-02 -1.30994447150466200D+00  2.57096948942316900D-01  6.28517442130363400D-02
31 14  4.32020804960353000D-02 -1.71154175012854300D+00  1.55909927049288000D+00  3.15326120955470700D-02 -5.41332253301604000D-02
31 15  6.08548041903192000D-02 -6.72157886015761200D-03  1.49086593985145400D-01  1.46982543707825200D-02 -7.20998145008838000D-02
31 16 -1.48465333995067600D-01 -2.48560048555707300D-01  2.25377945632150200D+00 -2.29958388423730800D-02  2.97982048175990800D-01
31 17 -6.93966077475237900D-02  1.80080892909187500D+00  1.61190242064657100D+00  1.76926735541822000D-01  1.31587041305718800D-01
31 18  1.81968500070110200D-01 -3.13555541375827600D-01  1.20860846720741000D-02  1.08101627209417000D-01  9.20991452855885900D-02
31 19  5.97624052745029700D-02  1.80446190031197200D-01 -3.12315412284324800D-02 -2.61682545562919300D-01 -3.15778272920661300D-02
31 20  5.77067794192983000D-02  1.02870436512908200D-02 -3.33289382241638300D-01 -1.95921629833766300D-01  4.30387747291406700D-03
31 21  3.81008840868739600D-03 -4.62879189687686300D-02  7.57378615025738700D-02 -1.57914732651022400D-01  4.41894712928362600D-01
31 22 -2.83979980277340500D-01  4.07292369295000100D-02 -2.13588019846507600D-03 -1.45030988099204600D-02  2.93983671337295700D-01
31 23 -3.68325188040046600D-01  7.43415167027499100D-02 -1.59010871829357500D-02 -4.33734940531324100D-02  1.35500726304656500D-02
31 24 -6.03600989221315900D-02 -1.15598051555324800D-01 -2.25955110945917500D-02 -5.31759275278504200D-01 -3.72133709710874500D-02
31 25  4.35360973507488700D-03 -4.27312170835674100D-02  6.08132883898818500D-01 -9.81222404435290900D-02  8.23495728934911700D-02
31 26  2.09712711005917000D-01  2.28904331918027800D-02 -2.64840024397756900D-02  1.01915985040100700D-01 -7.64551734304093300D-02
31 27 -2.54608116096914500D-02 -2.18307336505325700D-01  1.01838627680460300D-02 -6.03697172555174800D-02 -1.06392278577973700D-01
31 28  9.68661990088626600D-02  9.52607956911097700D-03  5.38857105120532900D-01 -4.70477822012185100D-02  3.00441202206690900D-02
31 29  6.61653554471693500D-02 -1.32209731426152200D-01 -7.87646569364560100D-02  3.22269715944347600D-02 -5.80837150868430700D-02
31 30 -1.15545963078357600D-01  1.07375310812873700D-01  1.50195779050215400D-01 -1.14439770891806000D-02 -7.22225667067911400D-02
31 31 -3.02092000676327500D-01  3.31729174831374500D-01  1.62255330329113100D-01  1.33957235227171200D-01 -8.23823141875547800D-02
31 32 -3.34957857330499500D-01  1.06349737876344500D-01  5.52194717460334400D-02  4.18740421294256000D-02 -7.62854468765997700D-02
32  1  1.95457585055487500D-01  2.96624657584380300D-01 -1.10356795258402200D+00  1.56760444312595200D-02 -7.42604845615727800D-02
32  2 -1.22120829200141900D-01 -2.25690566663282500D+00  1.92314852919234500D-01  1.10201678145882400D-01 -1.43947600215760400D-03
32  3 -2.94486532435848700D-01  2.95926008438006600D-01 -1.42865718670922000D-02 -2.62496653792206900D-02 -2.12151486805316700D-02
32  4 -2.85858968903997300D-01 -6.05190716985938400D-01  1.47720606765007400D+00  2.60828178353735100D-01  5.98705359332806800D-02
32  5  7.62899227662561700D-02 -2.02238674832315800D+00  1.36556365223716800D+00  8.73989248167616600D-02 -6.99148709699509400D-02
32  6  3.04749478541043800D-01 -2.34834607571094600D-01  8.81834949971184400D-02  2.75307258868870200D-02  8.84246931914619400D-04
32  7 -1.53498657715054200D-01 -2.78169994487144200D-01  9.87088124111261800D-01 -6.85079669279726700D-02 -1.45237279620869800D-01
32  8  6.01841609309950500D-02  6.06998799417331100D-01  8.52111677157842300D-01 -1.68172126378051300D-01 -2.23372979699867200D-01
32  9  2.07128471749220900D-01  1.62445079506464700D-02  1.32806850646520900D-02  8.31190232018935000D-02 -1.04661966999679800D-01
32 10  1.87375591599746700D-01  3.42207379347489200D-01 -1.54726810883657900D+00  1.63751089157080600D-01  8.98510161614053700D-02
32 11  2.87070664862880200D-02  1.01977747154214500D+00 -6.11860906252752100D-01  1.21904031989607800D-01 -1.16781030341346600D-02
32 12 -1.68759381942370100D-01  1.80437484976504500D-01 -1.46373615216521000D-01 -1.45705859686611000D-01  2.41130763282372700D-01
32 13 -1.49818188628247500D-01 -2.45467602466262800D-01  2.35833571242242800D-01 -7.94823751606697600D-02 -9.27263634718970700D-02
32 14  6.23023487095480100D-02  1.65382944990137700D+00 -1.13807543625586800D+00 -2.55871035548013700D-01 -1.90470229119701900D-01
32 15  2.24787118412382400D-01 -3.43168892926805100D-02 -2.14864585480394000D-01 -2.17145073959342600D-01  6.26560022048537100D-02
32 16 -8.80733461430833800D-02 -1.81098847865436400D-01  8.72279073954877700D-03 -1.59371897659927000D-02  2.07341359951465900D-01
32 17 -8.35699631769064000D-03 -8.14354820054224900D-01 -1.50796425441961000D+00  5.81323790919874100D-02 -1.70479206545788200D-01
32 18  2.42626700606043300D-01 -7.21474940602555800D-02 -3.64065905163058900D-02  8.54526397539656500D-02  4.75832813890902200D-04
32 19  7.22609077137136400D-02  1.66610155765029300D-01  1.40180043080284000D-01 -2.63524729475308400D-01 -8.85745871947333400D-02
32 20 -3.28086779596413600D-01  3.52405862715408500D-02  3.52175343109527600D-01  1.65412529900165200D-01 -6.79167478529694200D-02
32 21 -5.64083166754493600D-02  3.34819035096695200D-01  3.25602185963341700D-02  2.48642198295049800D-02 -2.91591113242885500D-02
32 22  4.29489149478316600D-03 -5.56438149855835100D-02 -7.40651256371569800D-02 -7.63088927076225200D-02  1.12254246802290500D-01
32 23 -3.14321036979777900D-01  2.02066790177487300D-01 -1.11988463721923400D-01  1.07161293905121800D-01  4.33110916277460900D-02
32 24  5.62721926630084200D-02  1.29296888428579200D-01  2.94280791890488300D-02 -3.11142166312616200D-01  1.48013498382243300D-01
32 25  1.70203275253125400D-01 -2.15930836017877400D-02 -4.15939311243956800D-01 -8.31953324769999600D-03  5.41923281319684800D-02
32 26  3.16334967613748600D-01 -4.38763723738830100D-01  1.17006995360254600D-01 -2.49115589604905800D-02  4.07385571385319500D-02
32 27 -1.58269981780417900D-02 -8.07020866353546500D-02 -9.23283756476265700D-02  1.34305572153847100D-01 -4.85057425229184100D-02
32 28  3.43514582696176600D-02  1.41542842533006900D-02  7.69120517933950500D-02  2.03963396114569700D-01 -7.15248880172417900D-02
32 29 -2.48891787303145000D-02  5.73669967366570600D-01  2.03387688724386700D-01 -1.52497104325086100D-01 -2.84644453967570000D-01
32 30 -8.69705205141012200D-02  7.68106725453706800D-03 -4.22688051885216900D-02  1.98153806475847900D-01 -8.75943074627753600D-02
32 31  8.71895694636953800D-02  5.63089429927797000D-01  1.94131266448790800D-02  3.36037095151585400D-01  4.70317068014183500D-02
32 32 -8.30918505005597000D-02  2.23986959077030100D-01 -2.78649963422133700D-03 -1.70510204680775100D-03 -4.82123238868611100D-02
33  1  7.08934202914986000D-02  1.83204681794288900D-01  9.19259340970703900D-01  4.38740465906402200D-02  4.09299700284555700D-02
33  2  1.87059735333661900D-02 -2.25962940496037800D+00 -1.00993028149500300D+00  1.23471015506176000D-01  9.75439243815080900D-02
33  3 -2.96077069903911500D-01  1.98533145522403800D-01  3.96398090953113600D-01  7.15180146998957600D-03 -1.84083095878022800D-02
33  4  1.53946122678199300D-01  2.87240635837849200D-01  4.62299779622849500D-01  1.43060266096453900D-01  7.36922567855585200D-02
33  5  1.16188719697491200D-02 -4.22715990536850300D-01  8.66677067131924300D-01 -9.66597654128283800D-02  1.59124878067259600D-01
33  6 -8.84302942055593000D-02 -7.06945838617004000D-02  5.61551904555797300D-03  5.46288773372146000D-02  2.01887419175234300D-02
33  7  8.29200494406306700D-02  1.98332328584023500D-01 -4.18909835474735700D-01 -2.00015486288625400D-01  1.65604457338623200D-01
33  8 -9.49762596599920700D-03  7.79527347970052400D-01  2.44339153837236800D-01  4.73387694863705400D-02 -2.17965686757326200D-03
33  9 -1.88392823872612700D-01  1.90572480740185900D-01  3.80627102439623700D-02 -3.69630188490272400D-03  4.24359226419852200D-02
33 10 -1.72105445362168000D-01 -4.73866834530849700D-01  7.69581374676677900D-01 -8.23183430780758700D-02 -7.97067067067539800D-03
33 11 -1.79256144515541900D-03  6.28038037193605300D-01  6.86932219868343200D-01  9.62783251821114500D-02  2.42895492617447900D-01
33 12 -1.38533663490854900D-01 -1.04361829126593400D-01  4.66488827773067100D-02  2.75139046927630000D-02 -1.01811665086841600D-01
33 13  8.61708293575361600D-02  1.91259087529065300D-01 -5.25603540288401300D-01  1.36668294536822200D-02  1.01346272217137400D-01
33 14 -3.05667100729418100D-02  4.76842253865894000D-02 -7.15779768395537800D-01  1.30189027110877200D-01 -1.04021704671757700D-01
33 15 -1.91012149612078200D-01  2.95033854283835800D-01  6.41655832776063500D-02  4.89755353207729300D-03 -1.46282973923826400D-02
33 16  2.52478951124782800D-02 -6.84309409093881400D-02 -1.55690491325583200D+00 -1.64444601900613300D-01 -3.35548265780632600D-01
33 17  4.47205864507029400D-02 -1.11162481971271800D+00 -7.28333122612158500D-01 -1.54037843336896800D-01  2.18391487556654600D-01
33 18 -1.86569783224096900D-02 -1.99734509234245800D-01 -2.65311557046594500D-01 -4.64100793685483800D-02 -3.24564693990018900D-03
33 19  1.01354198164866700D-01  2.16157745534222000D-01  5.01468926858268500D-02  2.58894116935881900D-01 -8.81535503226849300D-02
33 20 -9.19477272415162200D-02 -3.98608581323174800D-02  2.99792987703611000D-01  3.27141126484465800D-02  3.63114011415843700D-02
33 21  2.27032562575989500D-01  1.55571552896835800D-01 -3.87408845581802500D-02  2.50648890040478000D-02  3.46764860818434300D-02
33 22 -5.97413750858910500D-02  9.65231049205874800D-02  4.26415172471885000D-02  3.27748420619538600D-02  1.75720498174495700D-01
33 23 -3.08313154610707400D-01  1.32592656436211600D-01 -1.66695762899801900D-01 -5.31531262937988500D-02  4.06255516350824000D-02
33 24 -3.08586593503973800D-02 -7.00419643483336800D-02  2.47620000992300900D-01  2.85534402956161400D-01  2.53910028173380100D-02
33 25  1.20000582992683100D-01 -2.77972507776903000D-03 -2.40778066593234300D-02  1.84373871539757300D-01 -5.29556817986575000D-02
33 26 -1.22986396763799500D-01 -6.41034476715081100D-02 -8.20989276291611000D-02  1.50541793534857500D-01 -1.38248335166787900D-01
33 27 -1.22934583680693400D-02  2.05952443176130700D-01 -1.40462665367519600D-02 -1.40929154638321400D-02  2.38982860905626700D-02
33 28 -8.00051232125330600D-02  5.61068371219703200D-02 -1.46274017164937500D-01 -6.27188308114161800D-03 -1.07581574035603500D-01
33 29 -2.66363967682855300D-02 -2.25116154474693800D-01  9.47410197877109200D-02  5.89194481854620700D-02  9.65068732962991500D-03
33 30 -8.75253335665129900D-02  8.51940922493037800D-02  5.00302735332749000D-02 -1.17714332152057700D-01 -9.29471738304828200D-03
33 31 -1.68970610829249400D-01 -3.24823473881106500D-03 -1.86405967445822100D-01  7.65886046632922900D-02 -8.80274453013791800D-02
33 32 -1.18507551643412200D-01  1.22915483278265600D-01  2.27935610645629800D-01  6.53708606931648900D-02  2.38338249517706100D-02
34  1 -3.95576511759907100D-02 -1.11225567243572400D-01  5.53384151614931000D-01 -8.52723123115656100D-02  3.18483074938546200D-02
34  2  6.73025792069527800D-03 -2.43831449127863800D-01 -4.77376337084452900D-01 -1.95162926843517600D-01  1.45488757040573800D-01
34  3 -7.77403049018532400D-02 -6.77484521387205200D-02  3.51984958673229100D-06 -3.24435233161511700D-03  4.46431657325536000D-04
34  4  1.10484615317901700D-01  2.67646170753970300D-01 -4.36015469314045300D-02 -6.34188259872039600D-02  3.13833390194872100D-01
34  5  3.01837800426884600D-03  5.18953203572312700D-01 -1.67352885602625400D-01  4.68464030929535800D-02  9.25038961022215400D-02
34  6 -1.27876362123313600D-01  3.53724660210921500D-02 -1.95763010394034500D-01 -5.50850971495056200D-02  1.45618208462992400D-02
34  7 -6.18262955538630600D-02 -1.13065460840357500D-01  5.43671111704798400D-01  5.08174280568418800D-02  1.46944748595302300D-01
34  8 -1.11862678598586700D-02 -4.88673343388813600D-01 -5.60526044619332500D-01  7.34138175210619100D-02 -3.09838514074889600D-02
34  9  8.80487336824799800D-02 -5.70648822749919800D-02  1.53111718306449300D-01 -2.57199829189357600D-02 -1.33425780067753200D-03
34 10 -6.99592158739010100D-02  2.81967650970717700D-03  2.59677341340295300D-01 -1.72133051039383900D-01 -2.75151377178904100D-01
34 11  4.97717457252801100D-02 -1.39574985578558500D+00  6.37474446578219700D-01 -1.71465433153797200D-01  9.86884403157548300D-02
34 12  6.64085195377847200D-02 -1.65096959853539400D-01 -1.25237248104145100D-02 -1.00227645067945300D-02 -3.55293438524845200D-02
34 13 -5.80298464262478000D-02 -1.77871284494307400D-01 -7.60679292064607000D-01 -9.67182395909736100D-02  3.12543441245842800D-01
34 14  4.87999710925047200D-03 -8.73802446727957400D-01  3.95885831157900300D-01  3.85334582508425300D-02 -1.90957690127436600D-01
34 15  1.09634166434967600D-01  8.13235236924690100D-02  1.19088617306320800D-01  6.05251999937862000D-03  1.15871875892302600D-03
34 16  4.41647987957395900D-02  6.26173870292111600D-02 -7.67535612656442000D-01 -8.68048109010526000D-02 -1.06355547793200000D-02
34 17  7.05018522905024100D-03  8.86952441002525900D-02  2.50943565607178000D-01  6.17546407983189500D-02 -1.35002961581893400D-03
34 18 -1.23045009245345000D-01  1.24395038861164000D-01  5.86208392370656900D-02  4.34446159981621800D-02  5.11504799752552300D-03
34 19  8.30548562756058000D-02  2.22265841837970700D-01 -3.94117869981963400D-02  1.12520046120921700D-01  8.64982445651613800D-02
34 20 -7.52724042362352100D-02 -1.06869084445956900D-02  1.46571007881403000D-02 -1.66634257865825800D-01  6.56002080086897400D-02
34 21  1.72682544847198500D-01  3.32043067232034400D-01  2.67210614241551500D-02  1.94060315036209300D-01 -2.28949413845225200D-01
34 22  3.48890988090158700D-02 -3.59128694378029200D-02  5.54197320592233000D-03  1.35279970334815400D-02  1.18007593242727100D-01
34 23 -4.78452798700027900D-02 -7.01623133727249500D-02 -6.05104191147296500D-02  3.70127687298596600D-03 -9.62593459472067500D-02
34 24 -4.76311030642286900D-02 -1.61137571741365800D-01  8.70773149484183300D-02  3.29754150156583200D-01  6.54639542355991000D-02
34 25 -2.19718717996586100D-01  2.61508689142267000D-04  1.50407573635417500D-01 -1.87049068937569000D-01  4.10090574642610300D-02
34 26  1.49431253469112200D-01  4.32175628478511200D-01 -2.76182685086421300D-02 -1.43240633235925600D-01  7.99576278869249700D-02
34 27  6.32830053490006900D-02  4.00161641485956700D-03  1.00950445282337900D-02 -1.00587642264733000D-02 -2.86395886812899500D-01
34 28  2.42032864746235600D-01  4.43630220666641000D-02  1.74287664199732200D-01  1.33259565300697700D-03  7.94077675575842300D-02
34 29  1.28464413992399900D-01 -4.81064490919972600D-01  1.25482890944614400D-01  8.70481284079635400D-02 -9.06101183599088800D-03
34 30 -2.39593765272344700D-01  3.01631967751378400D-01 -1.24672167560104100D-03  1.26829590235315800D-01  5.53386232719254300D-03
34 31 -2.58812977287090300D-01  7.15225106256078100D-02  1.57780401225128800D-01  1.08414171734031900D-01 -2.25010183410713800D-03
34 32  2.34022311761635000D-01 -1.72715143922981500D-01 -1.44882690282826300D-02  1.90889775949388900D-01 -3.14261087078972700D-02
35  1 -6.60716464073464600D-02 -2.65944657597326300D-01  6.10596476618750300D-01 -1.37942640786615800D-01  9.84020932701487200D-02
35  2 -4.14361925465355300D-02 -1.36670427180609600D+00 -6.23725437172751800D-01  2.17281830250304800D-01 -1.47074540764329000D-01
35  3  3.95554801794458400D-02  1.07519060584883200D-01 -5.58159335607684000D-02 -3.18909482203126900D-03 -1.43161890441388400D-01
35  4  1.89472458703593800D-02  1.25574593703286300D-01  8.57957478490617300D-01 -1.32073718110928900D-01  1.18893816033450500D-01
35  5 -1.44845718597136600D-02  1.21578957383199000D-01  1.14204825286624700D-01 -8.26720358477394400D-02  1.00022879445708700D-03
35  6 -1.29056854654183400D-01  1.28056625859725700D-01 -2.03471729047788900D-01  7.97237676666182500D-02  2.99724351850230600D-02
35  7 -1.24354056905038300D-01 -3.08522406692227900D-01  9.64596275194109500D-01 -1.10038464616896600D-01 -1.03519666179156900D-01
35  8 -3.98436797411824700D-02 -4.51179600215567600D-02 -6.45726370332370000D-01  3.46417712424451100D-02 -3.11337525945091800D-02
35  9  1.36937020334941500D-01 -1.05803267740432700D-01  3.99141349478033100D-02 -4.52020533417879600D-02 -7.70270834888468600D-02
35 10  7.65145281971942600D-03  1.07163075935132600D-01  2.62570068534411800D-01 -1.09370104692942600D-01 -2.09318074360110000D-01
35 11 -1.28703699830767000D-01 -1.46398322859707600D+00  6.54372421775626200D-01  1.49870668313214000D-01 -2.67412835275192600D-01
35 12 -1.94096228053696700D-02  2.86822458080562000D-01  3.90672341403708200D-01 -7.78235097765122700D-03  5.11077287553179900D-02
35 13  1.40096623929120500D-01  2.13036879076032400D-01 -1.16293413379070900D+00  2.64550665416488700D-01 -1.07199806776151200D-01
35 14  5.84767126882994900D-04 -6.99563445297016900D-01  6.68263939009492300D-01  1.93202498295626200D-02 -6.00324738317119700D-02
35 15 -4.21147089930337600D-02  1.02147182824745200D-01 -1.97353888931967000D-01 -2.57238222133267700D-02 -7.57689767856439300D-02
35 16  8.48503426493173000D-03  3.01480953493199400D-02 -1.29986996854552300D+00  2.14293643780207300D-01 -1.11473869117469300D-01
35 17 -1.97897349643492100D-02 -5.95045344011214700D-01 -9.02623225760816700D-02 -9.15103650315945600D-02 -6.63698467714347300D-02
35 18 -4.41435809097950000D-02  1.10513427681229200D-01 -2.57737557342361500D-02 -5.54625823265473300D-02  2.20612686704598300D-02
35 19 -4.29800026433942900D-02 -8.21171912136745800D-02  2.40529178215187300D-01  2.01276930334806500D-01 -3.47940483615323500D-02
35 20 -5.61289369199212200D-02  4.99945764706386300D-02  3.32405749328003500D-01 -1.63628230536815300D-02 -1.16499501068677600D-01
35 21  3.52576183752000300D-01 -7.20618081352744500D-02  1.29889115254666200D-01 -1.74607956634923800D-01  1.85501325086687300D-01
35 22 -1.08933684517634100D-02  3.33317876496393600D-02 -3.12002003096150300D-03 -2.61822146771751800D-01  2.09355052953722500D-01
35 23 -2.69744574042784700D-01  6.03895210890615700D-02 -4.69845223190081300D-01  1.23048365835286600D-02  2.18263882774937100D-01
35 24 -9.57437964381737300D-02 -2.30123387123093500D-01  4.83630903929723600D-01  2.54530182610585300D-02 -1.09542257341591700D-01
35 25 -3.16257486308393900D-02  6.41313472075656100D-02  6.11095109134928500D-01 -3.27754954496614800D-02 -1.10043745540961700D-01
35 26 -1.49814525504037400D-01 -1.90557814381508700D-01  5.63562393677019900D-02  9.06499035964347400D-02 -6.91618951225345100D-02
35 27 -2.14880084739004900D-02  2.57995945679687200D-01  3.59651657525683900D-02  1.43288785600874000D-01  7.50861484476360000D-02
35 28  1.65584510077884700D-01 -2.40670658525520500D-01  2.15529850797898700D-01 -2.13814571215395600D-02 -8.72664351455370900D-02
35 29  5.01543576012895000D-02 -3.65767752179548200D-01  1.47943248810736300D-01 -2.53955335818631600D-02 -1.64024501318005200D-03
35 30  3.28787653421145000D-02 -2.25340506781385500D-01 -4.94137183241240100D-02  1.06242208872000000D-02 -3.05998280400634700D-02
35 31  2.74748770980425300D-01 -1.24786686003099900D-01 -3.94768219523877000D-02 -1.20603281076144200D-01 -1.30033584650537700D-01
35 32 -5.06999676548999100D-02 -3.55921817162190000D-02  1.51361631727820700D-01 -6.22832796464159200D-02  3.17315752901660700D-02
36  1 -1.45236108021108200D-01 -2.20648963742207600D-01  9.38017940943003700D-01 -3.72569564780952700D-02 -1.91191355766541800D-01
36  2  4.73853712360326500D-02  1.89914934518388300D+00 -1.05900215742837600D+00  1.22969289956591100D-01  8.06679586611538800D-02
36  3 -5.40526322556827100D-02 -2.66153264054710600D-02 -2.37012357995669800D-01  8.20590904443731100D-02  1.05932796297158600D-01
36  4 -4.41749315703811200D-02 -2.01338694757943900D-01 -1.25298761870156600D+00  4.35252478118775300D-03 -1.70844691657741000D-01
36  5 -1.72691500739392400D-02  1.53649172001037000D+00 -6.25583518605176000D-01 -9.77334755804016400D-02  1.28004372936392000D-01
36  6 -2.58415032839825200D-01  1.30410659903433900D-01  3.26933214636625700D-01  2.60095364992580800D-02 -6.29087906451976400D-02
36  7  2.13851015182203800D-01  5.19145310122231400D-01  1.01127927110480400D+00  1.28984275258347100D-01 -9.96894182281801600D-02
36  8 -9.37072569467317500D-02 -5.22667253057299200D-01 -9.70252065595686200D-01  5.73630673188278800D-02  9.05194772269358700D-02
36  9 -2.00184347127556100D-01  1.09664869900619200D-01 -7.00434671229080300D-02 -7.90883445610244100D-04  1.67848193426022100D-02
36 10 -2.60325146380365400D-02 -1.62724007763443900D-02  9.01041440544927100D-01 -1.20175122081399000D-01  2.35665051627443900D-01
36 11 -4.68383487193448100D-02 -3.23601267663873000D+00  8.84154531234267100D-01  1.32385586970789600D-01  3.34879386252777200D-02
36 12 -7.97370441702826300D-02  4.62491055450060700D-02 -1.42588355010532900D-02  3.40946116527968200D-02 -3.59806028213256300D-02
36 13  5.93793606446765000D-02  3.91004924086948800D-02 -2.21718384223075800D+00  1.34474399578076400D-01  2.52771285616646800D-01
36 14 -6.99218404743978500D-02 -1.94769494560588400D+00  1.12589730310376400D+00  6.06851048954990900D-02 -3.50660980047867800D-01
36 15  1.74821288334066100D-01  1.75839691713802800D-01  1.55222498325502500D-01  3.22497579605903400D-02  2.40643459798544400D-02
36 16  1.89617669096340400D-02 -5.67055147285006100D-03 -1.40324256866154200D-01  1.27555800672115500D-01  8.16018541557326300D-04
36 17 -6.15657921939221900D-04  4.21180272206805500D-01  7.60851517218847500D-01 -1.57041626373664300D-02 -1.36864709661745200D-01
36 18 -3.71585957333600000D-02  1.74023305395105400D-01 -1.79863768483485700D-01 -2.60977567017203400D-02  5.70979050225763500D-02
36 19 -8.35224395745970800D-02 -1.82205709658054900D-01  4.50709672205240000D-01  6.11560918558821900D-01 -7.05748362311689600D-02
36 20 -2.44771417541277400D-01  2.17951883771384900D-03 -8.12002386279416200D-02 -2.40395208894967900D-02 -4.22889547367595700D-02
36 21 -1.90127150400673100D-01 -2.26702455887517700D-01 -1.40183431915106400D-01  8.76276261717793300D-02 -2.00023407193784100D-01
36 22  1.12395781022005000D-01 -8.80327386526321400D-02  5.66079101597388700D-02 -2.17438500122695600D-02 -1.26650177860869100D-01
36 23  3.31118508159595900D-01 -2.04468330298727200D-01  1.71454431897039700D-01 -1.22072240177136200D-01  5.95098933302389500D-02
36 24 -7.36928495799848800D-02 -1.53087879697884000D-01  4.57498733459417800D-01  4.67100305139477400D-01 -4.78290436433809400D-02
36 25  1.25489797548004700D-01  2.38051285343300900D-02  6.78171658509823200D-01  1.57035163731862200D-01 -7.50456964032801800D-02
36 26  3.13096002059034600D-01  8.67268325790961100D-02 -3.29125269296105800D-02 -2.56389281513246500D-02 -6.19652692436310700D-03
36 27  3.18354550756876100D-02 -1.97727096360606800D-01  3.93067845857040400D-02 -8.28861764081922900D-03  5.92208286922614200D-02
36 28  1.29481647023286100D-01 -1.88702475715547500D-01  5.34419431399898000D-01 -7.71127804768976100D-02 -6.74803752793516600D-02
36 29 -2.03271937245981100D-01 -2.63588807651157700D-01 -2.04055450207261100D-01 -1.30967898667303400D-01  1.75223470400028300D-01
36 30 -2.03136309945864800D-01 -3.90997263855963700D-01  1.28632027414145800D-01 -1.37393250903405300D-01  7.95045883364637600D-02
36 31 -9.02281923207092900D-02 -3.80037137906256100D-02  2.12084487988564900D-01  1.26112438001013600D-01  5.79213278605214200D-02
36 32  3.45690746187067000D-02  1.22443995946704600D-02 -7.68567089544285500D-02 -1.20835058480718700D-02 -1.98721729194479000D-02
37  1  8.28478531709753200D-02  1.31265678917218100D-01 -7.48311993927681600D-01  8.32001997180072900D-02  1.37626796992971700D-01
37  2 -1.56930726343571400D-02  1.60115545157368100D-01  1.16265505804644700D-01  2.30644937972770400D-01  3.50960032802938800D-02
37  3 -2.64267989272543600D-01  2.29171985992249400D-01 -1.44461535216146100D-01  6.85792360584364200D-04 -9.75099452543409600D-03
37  4 -3.61020572073851400D-02 -8.05638537929490000D-02 -6.38668971211465400D-01 -9.22616240814265600D-02  3.60039498328392100D-02
37  5 -2.13809767534098700D-02 -4.55419943774659600D-01  3.63388846584811600D-01 -1.35034061522219000D-02 -1.84796970089926400D-02
37  6 -1.31807661383928400D-01  1.50287358392921100D-01  3.37841392494003400D-02  6.98630249707729000D-02 -2.14737593187009800D-02
37  7 -5.13881411868011600D-02 -1.62054059748796500D-01  1.75313966112656500D-01 -2.59556290895841200D-02  2.52522436034583500D-01
37  8  1.33889205206577300D-02  4.48743894745518700D-01  7.24499628967885400D-01 -1.22363664624078400D-01  1.05450852498784400D-02
37  9  1.51589977119289500D-01 -1.62135062369167700D-01 -1.74196396423860700D-01  1.19035415179033400D-02 -8.44454439212659200D-03
37 10  1.63695125954364500D-01  3.45202301272785200D-01 -9.27603058782423800D-01  1.24571571553764000D-01 -4.38639319560795500D-02
37 11 -6.70743926403323900D-02  1.29007302517488100D+00 -5.66719228584796600D-01  2.07166456416105100D-01 -1.11664854133095800D-01
37 12  2.10410995342320200D-01 -9.87461412092240100D-02 -1.96657836029775900D-02  1.84548737705256400D-02  4.70223420305235700D-02
37 13 -9.93205948294080800D-02 -2.06568756605386500D-01  9.12778078186163000D-01  1.60469307874807600D-01  1.18982703761855500D-01
37 14 -5.95874822368626600D-03  7.72228165918094000D-01 -5.97413312228029400D-01 -3.53573138435534200D-02  1.19285567473024100D-01
37 15  1.04116341316594200D-01 -2.23401908789618000D-01 -5.69922833805230500D-02 -3.09867421320010000D-03 -1.45777492557852300D-02
37 16 -5.80609123522079100D-02 -8.92958029864506800D-02  9.28909391334173800D-01  2.13771654996691300D-01  3.58823488219012200D-01
37 17 -8.48331756701696200D-03 -1.05010099781022100D-01 -4.16056949951283500D-01 -8.10206141534873500D-02  1.80211508362787300D-01
37 18 -6.71420897666586300D-02 -1.13069418596128400D-01  7.16150974966831400D-02 -5.87903133616326700D-02 -9.52801074824562300D-03
37 19  6.61814007271356700D-02  1.72245508233066800D-01  9.85278178238179100D-02 -7.12113007098419500D-02 -5.36386025219897000D-02
37 20 -1.04319112362180100D-01  2.28236192824796200D-02  7.07645480541388300D-02 -6.57605678785636200D-02 -8.59459243657155900D-02
37 21 -2.40369305233612100D-01  1.44591573707196100D-01 -3.05359321149384400D-02  1.99746307986166200D-01 -2.52511954846758400D-01
37 22  5.27656468605924800D-02  1.49108454922086400D-01  9.36834704061297700D-03 -2.22846118108554800D-02 -1.10110040024204700D-01
37 23  1.03648923114295400D-01  6.46111690991022300D-03  4.45103989838772300D-02 -1.78930117972424900D-02  1.05316605025220200D-01
37 24 -1.70382112611637800D-01 -4.61151629808635700D-01  7.91091724614823600D-02  1.31645843904950100D-01 -1.00911640559022700D-01
37 25 -8.72288757559675200D-02 -5.36657928341930400D-03 -8.27504749796284100D-02 -9.08741818837697200D-02 -4.33501633746898600D-02
37 26 -1.07038952667668000D-01  1.26143307230615000D-01  4.28748398197030000D-02  1.25722423418444900D-02  1.32871860283602300D-01
37 27 -1.45444102625446700D-01 -1.61240396105754800D-03 -7.66993229432117100D-03  1.59744363520310800D-02  2.76285711038685300D-01
37 28 -1.36506617854572800D-01 -1.39779093184112700D-01 -3.79382420671647300D-02 -5.52583670510055000D-03 -1.03409556603195800D-01
37 29  2.05763282113389300D-01  2.03364674416165800D-01 -9.13156517424159900D-02  3.15606257399426000D-02  6.14393219842983600D-03
37 30 -1.58666222710979900D-01  1.55927096142696500D-01 -2.01724955560877400D-01 -1.00823875952450200D-01  2.70901659468612900D-02
37 31 -1.16348587721888100D-01  4.05135648534734900D-01 -1.21100124251766400D-01  3.23397268293905500D-02 -1.63000735793093300D-02
37 32  1.39473536211252800D-01 -3.30036583435341600D-01 -7.04842067029273600D-02  8.42607787316401500D-02  4.29526497112477100D-02
38  1  1.45070657626389700D-01  2.68809337740920400D-01 -8.97563958955507900D-02  7.40281678578183400D-03  2.80877880211452400D-01
38  2 -4.61274312740698800D-03  3.17466140577086400D+00  3.68035869379845800D-01  8.26300412483286800D-02 -3.63326319349587400D-02
38  3 -1.16572645988245000D-01  1.52905277923203100D-01 -1.03502808684700400D-01  5.57262313520609900D-02 -1.31436756661270200D-01
38  4  8.10056778496848600D-03  3.09377296200671800D-02 -4.04332666636350200D-01  1.01616229724143300D-01  1.74003685981235400D-02
38  5  3.97264224359083600D-02  1.13146031145633300D+00 -1.91702050697286700D+00 -2.83587558671521900D-01  7.56212865708307800D-02
38  6  6.62860849277287600D-02 -1.41907371498559100D-01  7.09298537605169100D-02  9.41065163686329600D-02  9.05586577856803800D-02
38  7 -7.67502875007636400D-02 -1.04649378644712500D-01  1.49299388208741400D+00  3.94527127253929800D-02 -1.51505858592862800D-01
38  8 -5.90304179175361300D-02 -2.07824645225597700D+00 -2.16886554996389800D+00  2.33829187271011000D-01  1.55754810642953300D-01
38  9  9.91972376584445800D-02 -2.54952048301398700D-01  1.73250161557928600D-01 -4.69378970931890700D-02  6.31585022155205200D-02
38 10 -1.13997383088117300D-01 -2.92791342464865200D-01 -3.82653848762015100D-01  6.64819776197754500D-02 -1.70566827461971600D-01
38 11 -1.05651556993429900D-01 -4.03729763585006700D+00 -7.35465265505298000D-01  1.18668889805232800D-01 -4.14651529434312600D-03
38 12  1.10611163756303100D-02 -6.91460108128674000D-03  1.66748210452180700D-01  3.58036193456061000D-03 -5.47434986728220500D-02
38 13  2.03812984594968700D-02  2.17389577330114700D-02 -8.84989236538946100D-01 -8.29021860251464800D-02 -2.44075398653709600D-01
38 14 -3.94413186606563500D-02 -9.93675405313265800D-01  2.08822217293594200D+00  6.17136145989915900D-02 -4.73645079617916600D-02
38 15  1.88193607494129400D-01 -1.40829099532336900D-01 -1.86449271913734600D-01  3.17170138994051400D-02 -6.19250711883170000D-02
38 16  1.11856081540989600D-02  1.43348847449581500D-01  8.92900145342880200D-01  2.38736256264752900D-02 -5.03904991272482900D-02
38 17 -1.69407406847890200D-02  1.59632847039516700D+00  1.94813306917452800D+00 -4.40230685463361100D-02  5.00783079384879700D-02
38 18  1.46022965856948000D-01 -1.96101273795434500D-01  5.18808507722433500D-02  1.88715651939178700D-03  2.08395927090230800D-02
38 19  1.28338232797606700D-01  2.80482676311730700D-01 -3.59620332076451600D-01 -6.26166959586709100D-01 -1.26598885374222800D-01
38 20 -1.43690781620970200D-01 -6.37501323812217200D-02 -2.48762336288951300D-01  5.04182200079309600D-01  9.98016288515994600D-02
38 21 -1.35352738907644700D-01  2.30963779087294400D-01  5.30487600213622500D-02 -6.84414270454564400D-02 -8.82150004100712700D-02
38 22  1.56656427455528200D-01 -1.88065133286262000D-01  1.02060527713365100D-03  1.64706033714119900D-02 -3.03756955125605400D-02
38 23 -7.40783639691850900D-02  1.04454059481744600D-01  2.15671490622511000D-01 -4.37499181938091900D-02  5.13288983429866800D-02
38 24  7.12228098926450800D-02  1.86689415822985200D-01 -2.79068920769384200D-01 -6.38107127090828100D-01  7.35580436498057700D-02
38 25 -2.24690853376794600D-01  6.43394240440693800D-02  6.28523180371023700D-01  1.96945122732617700D-03 -1.27496277283970400D-01
38 26  6.12644260517826000D-02  8.07500755562984400D-02 -2.52471373953091400D-02  1.62660346578888700D-02 -5.14869636713070200D-02
38 27  3.52209290134178100D-02  3.19784330770248100D-02 -1.41395943248929700D-02  6.10358988373787600D-02  1.41078221500850400D-01
38 28 -5.38837149787088900D-02 -8.71945065221416000D-02  2.74386253494654100D-01 -1.65871067982584100D-02 -7.15939707663874300D-02
38 29 -1.72760240073222100D-01  4.23163725551549100D-01  8.64732442468069400D-02  6.22698906003778900D-03  7.53047419929038900D-02
38 30 -5.98410403157499600D-02  2.96116919201545800D-01  1.34960234123053100D-01 -8.99581723105020200D-02 -8.20277881515762400D-02
38 31  8.54585159401586600D-02  1.19781803596474900D-01 -1.98940514035328600D-02 -8.22499206043826300D-02 -5.39333079150342100D-02
38 32 -6.67354084684405600D-02  2.00594563318494100D-01 -2.02993732726744500D-01  5.10591952320185400D-02  6.48052262485632300D-02
39  1 -1.48016640811810900D-01 -2.71444751560531300D-01  5.29396722387924700D-01 -1.16433410971663800D-01  1.63441204727271500D-01
39  2 -1.76677818477858800D-01  1.05812528883244900D-01 -9.14530248469151700D-01  7.79032360213295400D-02  1.54738230244045400D-01
39  3 -1.85470449151562500D-01  3.07322189075175500D-02  8.67067941380266300D-03 -1.37790327696911100D-02 -1.61676550740914000D-01
39  4 -1.02449708787846700D-01 -2.97390157917159100D-01 -1.01445274635269900D-01  5.54585836594341200D-02  1.28949090777101500D-01
39  5 -8.54094942619594600D-02  5.07358794809231900D-02 -1.51804764545374800D-02  2.52541081736649300D-02  2.27805532772740800D-02
39  6 -7.11315761674187500D-03 -1.56673956605322700D-02 -1.49007630000697000D-01 -4.23318695990051300D-02  3.90339326372989600D-02
39  7  1.61110645399159600D-01  4.01082307831699200D-01  5.11686274327678300D-02 -1.72288674883156600D-01  1.66104256203392300D-01
39  8 -3.34674533991745900D-02  2.60570195820139300D-01 -3.81364826353074900D-01 -4.91445414171416700D-02 -8.18093109455213000D-02
39  9 -7.57579903430609900D-02  1.57567301288581700D-01  3.58060907006969200D-02 -9.54718797180487700D-03 -4.06811081767011800D-03
39 10  8.95689810633357700D-02  2.18112505295911200D-01  6.00601744841830500D-01  1.30702610438679900D-02 -1.74483741744855400D-01
39 11 -4.85065665344020700D-02 -1.22976066337676600D+00  1.04730911982572800D+00  1.39713138866063300D-01 -4.92048120771154900D-02
39 12  1.25862575642170900D-02  3.66185545128987100D-02 -9.75377356939208400D-02 -1.70320995459330400D-02  5.79343616208054300D-02
39 13  1.47480655309191600D-01  2.88223676732270200D-01 -1.09514645784348400D+00 -1.73246667944369800D-01  1.54283379266031500D-01
39 14 -7.65587689488667800D-02 -7.38836099236610100D-01  1.43904483865391800D-01 -5.85786915577078900D-03 -4.95842660582612600D-02
39 15 -1.04642490427756400D-01  1.54226756486017600D-01  6.63329368773201700D-02  4.06169857222051000D-02  4.39767582800909300D-02
39 16  1.51434703409300200D-01  3.10003161652570600D-01 -5.57732457501946700D-01 -2.26824078229603100D-02  1.08407044876111100D-01
39 17 -1.29104197839128500D-01 -4.71702629316364100D-01  4.24004340205861700D-02 -9.20200896675450000D-03  5.06639632103538900D-02
39 18 -2.26503045874064000D-01  1.75839082663710000D-01  1.01143508275520700D-01  8.82473731627093900D-02  5.42990267341172500D-02
39 19  3.03867691983363300D-02  1.10420642993355700D-01  3.57064249243530000D-01  1.91742570744773600D-01 -1.20029738710272500D-01
39 20  1.66822925883103100D-01  3.89130698237007600D-02  1.44336313929484800D-01 -2.35426299050677700D-01  1.52083841903461700D-02
39 21 -2.92570023047817200D-01 -2.02971866438243900D-01  4.76697596625152000D-02  5.15562241493819700D-02 -1.74743937341686400D-02
39 22 -3.40818304152128400D-02 -4.33147308975160300D-02 -5.76906290679955300D-02 -4.86078866643386400D-02  1.50969623854099000D-02
39 23  4.02751268255756400D-02 -5.53720892109854500D-02 -1.18682774346703000D-02  5.41468522665198100D-02 -7.38588955925493500D-02
39 24 -1.14785392744673500D-01 -2.47359975130963900D-01  6.49358300790185200D-01  7.81923542502393300D-02  1.01247009411531500D-01
39 25 -9.12429208627927600D-03 -1.21376635420258500D-02  8.91809648482551800D-02 -5.32260321879328400D-02 -2.22304876091213500D-03
39 26  1.82905244343768800D-01  2.16801083031184800D-02  7.18390682458207500D-03  1.76837364969168000D-01 -3.94582403686024500D-02
39 27 -1.37379124600565600D-01 -8.65952598684432400D-02 -4.95825268291874000D-02  7.61569746679399100D-02  6.20037726440894900D-02
39 28 -1.06334192059910300D-01  4.43304194158208900D-02  1.15729305538105700D-01  5.32065209060358300D-02 -1.19309036738878500D-01
39 29  2.08641297210665500D-01 -1.56714843381437100D-01 -2.23812023604765300D-01  9.41263113181124000D-02  9.22808907624029900D-02
39 30  2.20779281189301300D-01 -3.00006937851348900D-01  2.37072580959323100D-01  6.69798130100426300D-03  1.15659691359203000D-01
39 31 -1.05340638967253100D-02 -3.55382813192435300D-01 -1.01478269476305500D-01 -4.20719079641612800D-02  2.12367268801983600D-01
39 32  1.44416370403367200D-01 -6.19097196700271100D-01 -4.25840254057607300D-02  9.33075532511630100D-02  2.21969279152309700D-01
40  1  1.94915777929482700D-03 -1.26194298906084500D-02  4.14745425140405000D-01  5.98648583628574400D-02  4.78969662399537300D-03
40  2 -2.60244424571528200D-02  1.62229247761734500D-01 -4.48496336348294200D-01  1.73136160845905700D-01 -4.86422345950669700D-02
40  3  1.42844147334529400D-01 -9.42019127394616300D-02 -1.06436479595699000D-01  1.36506283923555900D-02 -6.61321822751398800D-02
40  4  1.39668004428312500D-01  3.03333899041910500D-01 -1.68368266478420000D+00  1.14988401784022900D-01 -1.21262409586440000D-01
40  5 -4.51314121445266200D-02  3.57284318575746600D-02  5.18176939877059400D-01 -9.74310390040547700D-02 -2.02516806927410500D-01
40  6  1.16008973707071700D-01  8.65078332203394500D-02 -1.72349310073576000D-02  1.16092143401622900D-01 -2.53611965286943500D-02
40  7  1.42574973718204600D-01  3.00698181652696500D-01 -3.17825544017667300D-01 -9.80061524597101600D-03 -6.87949885631358200D-02
40  8 -1.92346174114289000D-02  2.89856463970152100D-02  8.47270781356047900D-01  8.66040157039035000D-02 -3.36052377833117800D-02
40  9 -2.15978818395458100D-02  5.52031196228577300D-02 -1.36673625150981800D-02  1.42617109531640400D-02  2.58484462875884400D-02
40 10  5.42418700361516400D-02  4.88907560382285800D-02  9.03645908396199200D-02 -3.52064748156519800D-02 -4.26275314383808600D-02
40 11  2.91647739333552500D-02  1.17799748460308400D+00  1.43131691844438500D-01  7.72465800779757500D-02 -1.90624787733345600D-01
40 12 -1.26444914825272200D-01  3.17069702558618000D-01 -1.26913109472735400D-01 -2.12452477320032300D-02 -1.88007320790261200D-01
40 13  7.31452204750681200D-02  1.73353093248501600D-01  4.16834933167019100D-02  2.73429276825485000D-02 -1.64597998596964600D-01
40 14 -1.81085205161764800D-02  1.30195065446991900D-02 -9.68705492206118300D-01  1.09566321535469100D-01  3.76274811299438100D-03
40 15 -3.21036929088371400D-02  2.83409447958431200D-02 -2.83044409366284300D-01 -5.81181252658231600D-02  6.31123214386410700D-02
40 16 -8.47159445611502800D-02 -1.33840183225553100D-01  1.04409044445518300D+00 -7.35619079688013400D-02 -2.45978597448273600D-02
40 17 -8.71964749658468800D-02 -2.52968076013198200D-01 -1.07568979039052000D-01 -1.10123953774628100D-01  4.45010074691183600D-02
40 18  2.04398895904201400D-02 -6.49408970595379800D-02  2.44801357349390200D-02 -3.13342038579824000D-02  3.09227727123233800D-03
40 19  4.09689716882260900D-02  1.17973339321222900D-01 -4.84864572427779000D-02 -4.73770252783112700D-02  9.79309602486922400D-03
40 20 -1.26833336070746500D-01  1.06328193847093300D-01  8.30631573727262100D-02  2.81716245426256000D-01 -1.40066917709634500D-01
40 21 -2.17785147658458200D-01 -1.95871218886890000D-01 -1.13571700657781200D-02  1.54168099968533500D-01 -2.27408983396462300D-01
40 22  7.32408834279292700D-02  1.06615179766155500D-01 -3.07905862922835900D-02 -1.47393661419082800D-01 -1.49523244748298400D-02
40 23 -1.20683081089465100D-02  2.70206325837775400D-02  2.68848368118511000D-03  1.36667708133774500D-02 -4.39072306903104100D-02
40 24  4.66318659342418500D-03 -1.22479643047620900D-02  6.95383303722694600D-02 -3.07610134821165400D-02 -8.28042123554330200D-02
40 25 -1.61401078519355300D-01  5.69252972556293200D-02 -6.45372628207265000D-02  1.24569665846837800D-01 -1.41957046926872500D-01
40 26 -1.30849944509048600D-01 -1.15854609048621200D-01 -1.27539597412799300D-01 -2.46968647128403200D-01  4.44499533434085200D-01
40 27 -1.97530886305681900D-01  8.58597655299363600D-02 -1.67082420427477600D-02 -7.08617579371591300D-02  1.24225575195177400D-01
40 28 -4.29285822224216000D-01  3.05060247029038600D-01 -6.17435900707584100D-02  2.68143941765218500D-02  1.20630798918409300D-02
40 29 -8.52656904321722300D-02  4.22365369583340800D-01 -1.38516563286593500D-01 -2.10048832192334800D-01  6.19778327592692300D-02
40 30  2.16462550111639100D-01  1.52728727551091700D-01  4.28409747488134700D-02 -1.80261150572574300D-01 -2.87797126364724800D-02
40 31 -2.66799924771203700D-01 -8.87129397615343700D-02 -5.56007123687644500D-02  1.32435339332266100D-01 -4.31328845140397700D-02
40 32 -5.32349736274887500D-01  1.66879604143376500D-02  1.61539048709318300D-02  7.14559420561145700D-03  1.75533504769876700D-01
41  1  1.35996239068001900D-02  5.09665916982293300D-02  8.32685485210658500D-01 -1.84224717323914700D-01  1.27880287222367600D-01
41  2 -5.05074327151909700D-03 -2.66796931680803300D+00 -3.79753026178878000D-01 -9.10819987202269900D-02  3.44262715113924100D-02
41  3 -9.50364396513406200D-02  6.06101681399481800D-02  7.31799222164013800D-02 -6.46987045570699300D-02 -2.47369081838936100D-02
41  4  6.35184723065468400D-02  1.78055956011966500D-01  3.43858851915343800D-01  8.52412950083391600D-02  1.06733755992728400D-01
41  5 -3.09732805573880000D-02 -9.37955538186879700D-01  1.59857325028873700D+00  5.86080781874154900D-04  1.77515522210784500D-01
41  6 -6.43904031414355100D-02 -1.13125119069349400D-01  1.22211480729332600D-01 -4.46338192871973500D-02  1.05427894355702900D-01
41  7  1.59639858297994100D-01  2.95450423625469100D-01 -1.80044693246031600D+00  9.47082449397728000D-02  9.53499600015324500D-02
41  8 -2.54797806718956500D-02  1.07282066028252600D+00  1.81459479336076000D+00  1.26373457592367100D-01  1.27239258037677200D-01
41  9 -8.56707246629398200D-02 -4.15685333747365700D-02 -1.26495517054569700D-01 -3.38701395955987700D-03  7.31598769726699000D-02
41 10  1.56155690030153800D-02  2.02803534426531100D-02  8.09922473764629600D-01 -8.55587713059897100D-02 -1.65366042320093100D-03
41 11  4.82469543212298400D-02  3.44435740021947300D+00  2.10933680469643800D-01 -1.81962856530561300D-02 -1.36870669846918500D-01
41 12  3.68732696460916500D-02  9.99974002008258100D-02  3.36953712696531800D-02 -8.03854664929346900D-03 -1.02105043120154500D-01
41 13  1.00840125329721400D-01  3.63673223902058800D-01  1.06823481874769800D+00 -8.24242297526224800D-02 -8.63403722580659100D-02
41 14  2.39861700287587300D-02  5.79991304336612900D-01 -1.73976201009208400D+00 -1.25241993677661700D-03 -2.47937768554616100D-01
41 15  2.71980363800651600D-01 -2.40425952460362400D-02  1.42416293177278600D-01 -5.78841147303767900D-02 -2.77160196184400500D-02
41 16  7.17964081651733600D-04 -3.56426224536291800D-02 -1.13491916269230800D+00 -1.72417273794866700D-01  2.41972566291764600D-01
41 17  3.90817971434548500D-02 -1.17624631071017000D+00 -1.66855368932583200D+00  1.48375632387083200D-02 -1.65594494317100500D-01
41 18  1.91711601969052300D-01 -2.61171076519524200D-02 -2.38323368423111300D-01 -7.61911078795141500D-02 -6.05675870401838800D-02
41 19  8.02331490071162600D-02  1.99019577887538300D-01 -7.25177079790063600D-02 -2.61488090056990100D-01 -6.63875430617847100D-02
41 20 -1.84705169972330100D-01 -2.71197121828416300D-02  4.84476319798346900D-01  4.33251652080187700D-01  9.22949929852415800D-02
41 21 -6.73597509275728900D-03 -3.53680112358276900D-02 -3.47227822421777500D-02 -1.20593126453078400D-01 -6.67896979480017800D-02
41 22  1.87382824401079700D-01  1.36170838582920600D-01  5.20129675033299100D-02  6.41875019243992700D-02 -8.84288583540338800D-02
41 23  1.12952850413454100D-01 -2.45239920594194000D-02 -2.51077286699196400D-01  3.02730517046939100D-02 -1.09565626346244100D-01
41 24 -2.92936444514913400D-02 -4.42551063193941700D-02  1.53323650108386500D-01 -3.45792188935303100D-01 -1.24222495527805200D-01
41 25  1.61691430344236400D-01  4.57863925163459300D-02 -3.72787269928979800D-01 -3.59576752333646000D-01 -7.88971006340267600D-02
41 26 -2.72167770678204000D-01  8.47565985178939200D-02 -7.85740521139330900D-02 -4.57243411257839100D-02  1.03395476672320700D-01
41 27 -5.76711355465365300D-02  7.39146143857308300D-02  4.37554456855972600D-02  4.97704768605446800D-02  1.46655806597785800D-02
41 28  3.92227974925015800D-02 -5.38883781522801800D-02 -2.27016197172042700D-01 -9.34024541877338500D-03  3.81057458996728300D-03
41 29 -1.83081594132105800D-01 -5.62877380335847800D-02  8.10005284275388000D-02  3.53261077864144600D-02  6.78670503788434000D-03
41 30 -2.09167336887958900D-03  5.43347989390951700D-01 -6.25261999071884100D-02  4.37434942726833800D-02 -4.20453399423554600D-03
41 31 -1.73646630891627700D-01 -6.42658471947860900D-01 -2.59415972842110200D-01 -5.00183359920300500D-02 -9.87487819137509300D-02
41 32  5.94389970230074200D-02 -7.35309486982431600D-02  2.56091687943635300D-01  4.54934859862538000D-02 -8.46577766955028400D-02
42  1 -1.30838007511581900D-02  3.09035916245977000D-02 -1.23660973823229200D+00 -3.92593056772752400D-02 -1.07400644868652700D-01
42  2 -7.08444932450177700D-05  5.10456471716730000D-01  1.30956044039263100D+00  4.24016059438155800D-01 -1.13043749845794500D-01
42  3 -3.12539852337563900D-02  1.44297735079550400D-01  7.42314946440305100D-03  1.51827264632923300D-02 -7.69698645529530700D-02
42  4 -9.20236106815339200D-02 -2.06128260884128000D-01  4.24605684199416200D-01 -1.23409976158578700D-01  1.10019688988210900D-01
42  5 -3.64676109231848000D-02 -5.33752617222422400D-01 -3.69374619659979600D-01 -1.99598303690888700D-01  2.15093886040462000D-01
42  6 -7.65109356642410900D-03 -2.07442792474038100D-01  4.36428421381907400D-02  1.18707387870471200D-01 -1.84527391111989800D-02
42  7 -1.24637909116922400D-02  4.38459053183476900D-02  4.75199831591567800D-01 -2.32660502991485800D-02 -9.42029202119819000D-02
42  8  5.09560146510409100D-02 -2.09547936395861100D-01  4.55432670106940700D-02 -4.81631843656948500D-02 -1.67087074879315500D-01
42  9  8.72689990852525800D-02  7.98180757940632600D-02 -1.22795959856635200D-01  2.12511528003725600D-02  3.09078345650455500D-02
42 10  7.00895280165474400D-02  1.79430763572369300D-01 -1.44922709029993400D+00  3.14109447994382600D-02  7.08667384320010000D-02
42 11 -9.97359924797500500D-02  2.39648064851826600D-01 -1.27441728513020500D+00  2.68511663834328500D-01 -1.68762792323203500D-01
42 12  2.54379635526794000D-01 -8.56168432035906300D-02  7.39976530180767300D-03 -4.91287985828963700D-03 -4.62602686049291900D-03
42 13 -8.11810935319652900D-02 -8.95506952095563700D-02  1.40510700063298000D+00  4.20029315883268800D-03 -4.33021151436666200D-02
42 14  4.54772270570358800D-02  8.38666180462013600D-01  2.97024477360972500D-01 -1.40112488913633200D-01 -5.61844723819332500D-02
42 15 -5.36861574060328500D-02  1.09870629787966400D-01  4.55878559442527400D-02  4.73789526953994200D-03  9.06137149077265600D-03
42 16 -1.61519209921602800D-01 -3.68203213629956900D-01  9.58363534613001100D-01  3.46527979112612000D-02  1.42018990787473900D-01
42 17 -1.08752393081152500D-01  4.35245997630986400D-01  2.41321639290163800D-01 -6.64478173973707800D-02  2.55348186840402600D-01
42 18 -1.20661535082336700D-01 -1.34686651758065500D-01  1.62669732685047600D-01 -5.06988022454675100D-02 -3.34036420062799100D-02
42 19 -7.84454304848574700D-02 -2.68138021513545700D-01 -2.95712403171982100D-01  1.16444425106509800D-01  1.20247189888747300D-01
42 20 -2.00781539490403800D-02  1.41969967263582800D-03 -2.15795129583221800D-01 -1.11765140307993800D-01 -1.41723735982299600D-01
42 21 -5.42997772195139100D-02  3.44403013405479000D-01  7.87464909516412000D-02 -3.22530967309216400D-02  9.16615773350245900D-02
42 22 -5.94084806041032100D-02 -1.82968805900202600D-02 -6.20640620956112600D-02 -1.85301780637940100D-02 -1.44047382018633800D-01
42 23  2.35684163242806400D-01 -9.16367812241728100D-02  6.11738469026176600D-02  4.08344747760013400D-02  3.05378794801959900D-01
42 24 -3.71153469293026900D-03  1.82460536305861200D-02 -2.81261330560647600D-01 -3.51436663500828400D-01  2.86889633441142000D-02
42 25 -2.38145307619478500D-01  3.16692913572259800D-02 -4.52834643573908300D-02  7.91647113282217400D-02 -8.25744387347366700D-02
42 26 -1.19327311981920100D-01  2.48305518599408700D-01 -5.37708239373350200D-02 -8.15060135723792700D-02  5.16505515920211200D-02
42 27  2.98554619803581200D-02  1.20320441394521500D-02 -1.69677485418227200D-02  4.64213628381163300D-02 -1.67993332150766700D-01
42 28  3.23562869061288900D-01 -1.55569536910522300D-01 -4.00345836086547400D-02 -1.41657473135103300D-04 -2.48462190644207000D-02
42 29 -3.63749437554791000D-02  4.24994193006750300D-01 -8.31834929417160100D-02 -5.09282832973137800D-02  1.19513976105360600D-01
42 30 -1.98685037258770500D-01  9.30817522719277500D-02  9.05167052973854500D-02  7.07866972635518400D-02 -6.34728294392747200D-02
42 31 -3.64617445135975000D-02  1.73985825572834400D-01 -1.46562919241892800D-01  7.59386632618366100D-02  3.48020281528429000D-02
42 32  7.74503956260869300D-03 -1.16094732610358700D-01  1.16413669746987000D-01 -1.87045958976783700D-01  1.82715416112633400D-01
43  1 -4.63176609991150200D-02 -1.56639747818780400D-01 -2.94353895157560800D-01 -7.58392623619025000D-03  4.84977098958675400D-02
43  2 -8.66484950000637000D-02 -1.88911164280447100D-01  3.13487186099217900D-01  9.08924991300117000D-02 -1.90617190708451600D-01
43  3  3.28595248832489100D-02  1.57757665825202900D-01 -9.12620350731858900D-03  2.53463538589565800D-02 -7.01708987305217500D-02
43  4 -7.17624247987688800D-03 -7.03743129417758300D-02  3.24328336338539900D-01 -1.26567504807060600D-01 -2.74126488150973700D-02
43  5 -2.45543047482380200D-02 -3.00671371998054300D-01  2.36983293510735600D-01  6.19019476431333000D-02  2.01607017699552000D-01
43  6  3.41230645681249200D-02 -2.35730082267677000D-01 -1.08634744638088100D-01 -1.80379204537905500D-02 -1.69073501765800500D-03
43  7  6.82584141463337700D-02  2.06473812609607600D-01 -1.93848111703402600D-01 -1.48316747166330200D-01  1.04490674415032800D-02
43  8  3.04754893986375400D-02  1.02325540076288200D-01  3.28723143532961600D-01 -1.37233360443191700D-01  2.19739712985923000D-01
43  9 -2.33821131851980700D-01  1.40814188660577800D-02  9.14222901370058100D-02  1.57024511275465100D-02 -6.25305243739388700D-02
43 10  2.40986832574951400D-02 -6.25531007822112300D-02 -1.38742755707513100D-01  2.93542987020925000D-02 -1.80235490660887500D-01
43 11 -4.75805629128176100D-02  6.61791909693508900D-01 -1.29708621057904200D-01  1.02833888481192100D-01 -2.56387770511700500D-01
43 12 -1.05603908995393800D-01  3.61991679507094800D-01 -5.12151638884213700D-02  1.74316690609296900D-02  1.12773713535972400D-01
43 13  7.23089712698689200D-02  2.14296303268689800D-01  1.91938979731693900D-01  1.98732275438944500D-01  3.17220915386057300D-02
43 14  3.80907157646578800D-02  1.19755102608002200D-01 -3.76251342965065300D-01 -2.21515048091237700D-02  9.42382106072718900D-02
43 15 -5.55730632804418500D-02 -3.86651473268301800D-02 -6.88942349866136800D-02 -2.71765324622210000D-02 -1.91543715751202000D-02
43 16  4.09981927120470300D-02  4.29603177810409200D-02  1.40411648440097400D-01  3.61184833711744800D-01  7.44433127847712200D-03
43 17  3.03391755359169800D-02 -1.29001334090767300D-01 -1.13430236844525000D-01 -4.14362829388652800D-02 -1.14192862116840300D-02
43 18  1.90778751283708700D-01 -1.79359465072025000D-01 -1.07471277397332900D-02 -1.23621859107678600D-02  8.50036977403305500D-02
43 19 -8.70923391031565900D-02 -2.19573499616067100D-01  1.24473513173979700D-01 -1.00469434172691400D-01 -1.06279425700205800D-02
43 20  7.01521778220894300D-03  8.53506072519523900D-03 -3.41335429097541500D-02  1.09173550817282700D-02 -2.02591180955317800D-02
43 21  1.47778705167139700D-01 -2.05464650683114800D-02  6.19797115282955200D-02 -9.96198321958166200D-02  3.76676923752675100D-02
43 22  6.19521398205491700D-02 -6.44859143147583900D-02  6.18286165797670100D-02 -1.50960849727880200D-02  5.73483625416579800D-02
43 23 -6.60720569571864500D-02  8.72369441552854600D-03 -2.08393061319969200D-02 -7.99875857682904900D-02  5.17564576063469500D-02
43 24 -2.92898197409596700D-02 -9.98476141073858100D-02  1.12119230586717500D-02  7.55846801939094900D-02  2.51749179725534700D-02
43 25 -1.22085488428798100D-01 -4.26570721784629600D-02 -1.88513168746657400D-01  8.04961409430825800D-02  3.69160752006381100D-02
43 26  1.02765712055219200D-01  3.45563179562680600D-02  1.07558809400919400D-01 -4.23305779554433300D-01  4.08058066467401100D-01
43 27  1.52477130870327200D-02 -8.70039156432406100D-02  2.47480280993525700D-02  5.03255962078815200D-03  2.23021883869000000D-01
43 28 -3.71344953985264500D-01  1.48323070116264500D-01 -1.35722181365052800D-01 -2.74843048167678400D-02 -1.07575856677949800D-01
43 29  1.49137016489053500D-01 -1.06848019069201800D-01  1.62880120790854300D-02  2.11241674739178700D-01 -2.31200057152456600D-02
43 30  1.69557299065821100D-01 -2.00403803347704700D-01 -8.82466877769310100D-04  3.20832852325243700D-02 -8.72763613603710200D-04
43 31  5.94827658156720200D-02 -4.57959170153768400D-02  2.81303699621654300D-02 -1.00064364984933400D-01 -9.65544373949751700D-02
43 32  9.77102875863884300D-02  2.12324317123634900D-01  1.65851669231017000D-02  1.45772982049587800D-01 -1.13018393714754500D-01
44  1  9.47195991258450400D-02  2.26786899534946400D-01 -1.59547117934566200D+00  5.29603540731096400D-02 -1.01933005591714200D-01
44  2 -2.99686979768173900D-02  7.02032062093936500D-01  6.53955656735176900D-01 -6.67126123477155800D-02  2.91259998039819400D-02
44  3 -3.04234774077327900D-02  1.29747760375032900D-03 -9.60394576211613400D-02  3.17120672939034000D-03 -2.09284212187007400D-01
44  4 -9.76434818753243900D-02 -2.24473341941716800D-01 -2.06797776546090500D-01 -1.86948760546312900D-02  4.87543083909459900D-02
44  5  5.15065404062099300D-02 -2.73258371695842700D-01 -9.28891543035679400D-02 -1.35907050014000300D-01 -8.70366964587794400D-02
44  6 -6.17271842311520000D-02  1.48763880689931200D-01 -1.38094676046586700D-01 -6.73708155347309500D-02  8.39184383652266500D-02
44  7 -7.56051053943684300D-02 -1.48721614148548500D-01  7.83207513158989700D-01 -5.56116924245162400D-02 -3.81054741660186200D-02
44  8  1.42437025218270700D-01 -5.81887426196393300D-01  3.16262453288419500D-01  3.78123669624720400D-02 -9.33406124637826400D-03
44  9 -4.48985553726558100D-02  5.42326166190341500D-02  1.03860334567274700D-01 -4.12517062266916900D-02  1.02411034079332700D-02
44 10  1.92418107563929200D-01  3.95031856416219400D-01 -1.50267797519495800D+00 -2.34165575133920800D-02  1.14356995068117100D-01
44 11  1.58656822607867700D-02  4.38824637222634400D-02 -6.99038183434391800D-01 -6.91413433567649200D-02 -4.29476575813829500D-02
44 12 -1.63994591990761800D-01  2.06942249572144800D-01  1.90682071404049800D-02  1.99145893396182200D-02 -8.20316435800179600D-03
44 13 -1.66533617680004800D-02 -4.15215489851702800D-02  5.61732574494746100D-01 -7.18124077980431300D-02 -1.01926157385746200D-02
44 14  2.11116891969238800D-01  3.13910594196847400D-01 -3.69277119785569200D-01 -9.88347354054569100D-02  5.26580244904622500D-03
44 15 -1.09679860094788500D-01  1.04414057645742600D-01  5.86803002293233000D-03  2.54138842809351700D-03 -9.20613542090638900D-02
44 16 -1.05610214009482500D-01 -1.77217668388642800D-01  1.61928645305660500D+00 -1.03583638532437000D-02 -5.71205241216238300D-03
44 17  1.10308559961110500D-01  5.97885304362327900D-01  2.88522778076111700D-01 -3.17064554272320300D-02  7.17024928488782000D-02
44 18 -1.02490385523166900D-01  3.07878926742892200D-02 -8.26903195861984800D-02 -2.16884534500509900D-02  8.53755731746159500D-03
44 19  5.07313537221657200D-02  1.56091856789950400D-01 -8.92890485378360400D-03 -1.67238632284830000D-01  6.67288286315155000D-02
44 20 -4.90176662006698700D-02 -1.41514035563678300D-01 -1.61388958841432600D-01 -1.36060451060415500D-02  2.31799065097793400D-01
44 21 -2.87014345451876400D-02 -1.91862579919872800D-01  1.72365983228973200D-01  1.70694526248782300D-01 -2.25475851666448700D-01
44 22  5.47813254176662700D-02  1.40483940652883400D-01  7.39393592363954400D-02  1.11013309141888500D-01 -2.58167662571071300D-01
44 23  3.13273329611954800D-01 -5.51056670408836800D-02  9.58027081233470700D-02 -5.00745416999152500D-02  6.20050688197052900D-02
44 24  2.63170601759190100D-02  5.97290147822775600D-02  2.60779945803585600D-02 -1.50528026335356600D-01 -1.23478463411773100D-02
44 25  2.03695256610631700D-03 -1.97171907295751800D-01  8.38233419156273800D-02  1.16921152827084800D-01  2.40625535218571600D-01
44 26 -1.92437466692487400D-02 -9.02548597801691200D-02  4.80300422321818600D-02  5.56431585075592800D-02 -1.67812978463848000D-02
44 27 -3.88618606611744200D-02 -8.90785073495617000D-02  7.36876991809301300D-02 -3.06413213980866500D-01 -3.46569472526232500D-02
44 28 -4.62495983985635100D-02  8.09065456511867300D-02 -9.28689137476239500D-03 -7.51176069915437400D-02 -7.69178679686636500D-02
44 29  6.94775789337220400D-02  2.52467443259433000D-01 -1.53913288378092700D-02 -2.11936697304443900D-01  2.19349322479329200D-03
44 30  1.19699006124015500D-01  2.32608768230849400D-01 -6.60388818290673100D-03  7.17638456411672800D-02 -2.17479221203124500D-01
44 31 -6.81832607255778200D-02 -9.96948898574107800D-03 -5.60307804127239200D-02  1.10475020597951600D-01 -3.23819972018943600D-01
44 32 -1.55861880131072700D-01 -1.30165893168050400D-02 -1.46340867177532800D-03 -1.24968276504644800D-01 -1.99837511357982800D-01
45  1 -2.16194758224969400D-01 -4.68111395311143600D-01  4.99874885407748300D-02  5.62649520294016900D-06  1.96713500062413000D-01
45  2  0.00000000000000000D+00 -4.95672281630357800D-05 -2.90786373333938500D-01  0.00000000000000000D+00 -3.29312820870230500D-02
45  3  3.16851032140970500D-02  1.24617887292621100D-03 -2.87056250909167800D-07  0.00000000000000000D+00  0.00000000000000000D+00
45  4 -1.61112905871559300D-01 -4.05322194270915900D-01 -3.08187574975104700D-02  1.93248730427862900D-01  4.08838946471590400D-02
45  5  0.00000000000000000D+00 -1.51535236004692500D-01 -1.16802399705841200D-01  0.00000000000000000D+00  3.59256872075584600D-02
45  6  1.15207855846697500D-03 -3.70777657660258000D-02  4.02456569815043800D-02  0.00000000000000000D+00  0.00000000000000000D+00
45  7 -1.61115144724444400D-01 -4.05327201403857000D-01 -3.08177539458735100D-02  1.93248138961084900D-01 -4.08849682323447800D-02
45  8  0.00000000000000000D+00 -1.51535859310095200D-01  1.16831963464094100D-01  0.00000000000000000D+00  3.59270606024162900D-02
45  9  1.15222174478169100D-03 -3.70792823471979800D-02 -4.02471049915685300D-02  0.00000000000000000D+00  0.00000000000000000D+00
45 10 -2.16193996573984900D-01 -4.68108406657420600D-01  5.00133300839830200D-02  6.34526629348739300D-06 -1.96710648363214900D-01
45 11  0.00000000000000000D+00 -1.73084431787715500D-05  2.90792421018867000D-01  0.00000000000000000D+00 -3.29318046300339200D-02
45 12  3.16854576807341400D-02  1.24634694929994700D-03  8.17501019608349000D-08  0.00000000000000000D+00  0.00000000000000000D+00
45 13 -1.61119410344526000D-01 -4.05335423250907300D-01 -3.08571633961890400D-02 -1.93250656698060800D-01 -4.08876374994298800D-02
45 14  0.00000000000000000D+00  1.51553275873738100D-01  1.16840348648193000D-01  0.00000000000000000D+00  3.59225306465288600D-02
45 15  1.14716849528991800D-03 -3.70696991418188200D-02  4.02466829000307800D-02  0.00000000000000000D+00  0.00000000000000000D+00
45 16 -1.61119717257489600D-01 -4.05334506181062300D-01 -3.08448071172981000D-02 -1.93251360747814700D-01  4.08867526087239200D-02
45 17  0.00000000000000000D+00  1.51547079103833400D-01 -1.16863687065584900D-01  0.00000000000000000D+00  3.59218364845313300D-02
45 18  1.14528968948349000D-03 -3.70671261740147300D-02 -4.02471300938641900D-02  0.00000000000000000D+00  0.00000000000000000D+00
45 19 -2.24554000386345400D-02 -4.38791330813085000D-02  8.34209113405093800D-02  2.54340375698107900D-01 -7.23836704541993200D-06
45 20  1.13238125255810400D-01  0.00000000000000000D+00  1.03410652140031600D-05 -1.04741445601717300D-01  0.00000000000000000D+00
45 21  1.12533172397193900D-05 -3.83369939739876200D-01  0.00000000000000000D+00 -3.34096819173246600D-03  1.06190209563114700D-02
45 22 -7.27805276457904400D-03  1.99996802858441500D-07  0.00000000000000000D+00  0.00000000000000000D+00 -2.93781730132251000D-02
45 23  8.77466310631508500D-02 -5.83684580499255400D-02 -7.70758999801541300D-07  0.00000000000000000D+00  0.00000000000000000D+00
45 24 -2.24539304311670400D-02 -4.38771219196998000D-02  8.34139507010424900D-02  2.54333144271318200D-01 -3.70862292762631800D-06
45 25 -1.13237799523005300D-01  0.00000000000000000D+00  4.83272786079205300D-06  1.04734401554881400D-01  0.00000000000000000D+00
45 26  4.90661611112306600D-06  3.83365073964622300D-01  0.00000000000000000D+00 -3.34111025740547300D-03  1.06188669310156100D-02
45 27 -7.27775667360993200D-03 -1.67453272573024700D-07  0.00000000000000000D+00  0.00000000000000000D+00 -2.93777106863265700D-02
45 28  8.77447569419622400D-02 -5.83670462556355500D-02  3.98526656906762700D-08  0.00000000000000000D+00  0.00000000000000000D+00
45 29 -4.32975098129005400D-02  1.60341706927573000D-01 -2.40824486903536100D-02 -1.01117065456999000D-02  0.00000000000000000D+00
45 30 -4.32920875107642200D-02  1.60347569021026100D-01 -2.40808635118332800D-02  1.01112135916775900D-02  0.00000000000000000D+00
45 31 -4.32878142467254200D-02  1.60360609901765200D-01  2.40818986572873700D-02  1.01112163014904400D-02  0.00000000000000000D+00
45 32 -4.32888516345434600D-02  1.60361437706824700D-01  2.40824000223897600D-02 -1.01107271204536100D-02  0.00000000000000000D+00
46  1  1.48827681546013900D-01  3.10396132246548200D-01 -3.69843227977053500D-01  9.66287387179957100D-03 -8.88438164717060900D-03
46  2 -4.33632521344519500D-02 -2.46665277970173000D+00  2.51241499146753800D-01  2.89380401395899700D-01  8.52233086810786100D-02
46  3 -2.34790974090065900D-02 -6.17442112720719200D-02 -1.85759560562250900D-01  7.19365352579419100D-03  3.63024694443138700D-02
46  4 -6.69835225910954100D-02 -1.23546911495317800D-01  1.13523994523538600D+00  5.42836190286032400D-02  1.97499930988364500D-02
46  5 -4.69579258691496800D-02 -9.77386518494409300D-01  1.21387255742858600D+00  2.00458218102686400D-02  4.99924721689043700D-02
46  6 -6.67433654577066400D-02  1.67508932888015300D-02  8.43711018684828600D-02  5.36806500924892200D-02 -5.48783818020346600D-02
46  7 -1.16630648522965600D-01 -2.64455891382749300D-01  2.11024261410400400D-01  1.83824770344123900D-01 -7.60991761301449800D-02
46  8 -1.11090042797368200D-02  5.90938025919334800D-01  1.08681605386137900D+00 -2.17013229582035800D-01  7.91099152652521300D-02
46  9 -1.15279234766859500D-01  3.61693195016074000D-02  2.99766117294552600D-02  8.97253650191483000D-02  1.42223352887842200D-02
46 10  8.75132169945922700D-02  1.22137894980022900D-01 -3.40332419196335600D-01  4.38543584850145500D-02  7.55174538521314100D-02
46 11 -2.82862744495115400D-02  1.29629570616131800D+00 -3.45927661280405200D-04  4.47380194077370200D-01  9.95856911879844900D-02
46 12  5.17805429480929200D-02 -1.51366234136077700D-01  1.87196260583259600D-01  1.42927750455354400D-02 -2.40366044977827500D-02
46 13  7.79450623542229500D-02  2.23913154332910800D-01 -5.72681273437244700D-02  7.01854554164693000D-02  9.57921461924666000D-03
46 14 -6.28213806053708500D-02  6.63879455924408900D-01 -1.04868405298509400D+00 -1.00513670946985400D-01  1.50884405363855600D-01
46 15 -2.25998290139078800D-01  7.51138847752229100D-02 -8.91864441932768600D-02 -3.80066547350815000D-02  4.10754977897579600D-02
46 16  1.29702030052080900D-01  1.91166765070281200D-01 -8.66324889342940800D-01 -1.44961711107165600D-02  4.07544819746212300D-02
46 17 -5.24266077977809000D-02 -7.97426094559516200D-01 -1.31921090261291100D+00 -5.39210038712248900D-02 -1.11608036417348700D-01
46 18  4.52585686751821800D-02  6.63494677421656400D-02 -2.39480275294677500D-02 -2.70556925011136200D-02 -9.62314670902471100D-03
46 19  3.09539327377927900D-02  7.71900856860998100D-02 -8.65464010095866300D-02 -1.11541789726356400D-01  6.47722744852580700D-02
46 20  9.70281321078618100D-03  5.27985599317512200D-02  3.54871128466267800D-01  1.83321544776771200D-02 -1.43907689182082600D-01
46 21  2.92689767849888400D-01 -4.03637659939470700D-02 -7.20352812626286900D-02  2.78489928825718500D-01 -3.65349078860925400D-01
46 22  8.68591500352064300D-02 -1.34805952497729500D-02 -1.09013124892205200D-02 -5.24784145843768700D-02  6.41510678358879200D-03
46 23 -5.40084137345468200D-02  4.75933069509579400D-02 -2.23258013239851500D-01 -1.22129094876010000D-02  1.10275968744618100D-01
46 24  9.28018523191642400D-02  3.10557794444071700D-01  4.63559066175740500D-02 -3.04537717738827500D-01 -8.44027530385892500D-02
46 25 -5.82788721724724300D-03  2.98820033566219900D-02 -3.05077048975577600D-02  9.23497273596989900D-02 -1.74267402347851500D-01
46 26  1.15542181362399000D-01  1.94409226327668500D-01 -3.00278670458585100D-02  9.19160200840116900D-02 -1.64432721876266800D-01
46 27  7.25167017922550000D-02  1.37085799780652400D-01 -4.09353811567916500D-02  2.06323073735426200D-02  1.64407187844256500D-02
46 28 -1.54452465397719600D-01  1.38011746613293900D-01  8.57500899230376800D-02  2.17166483896552800D-02 -2.07734777532830700D-01
46 29 -1.81779408383187100D-02 -2.22084093984051400D-01  2.35061449927165200D-01 -8.91273801481566100D-03  4.71854489124903200D-02
46 30  1.31095137736698300D-02 -1.34092621380908400D-01 -1.26341937480221000D-01  1.08622337495015600D-01  1.00331718055631700D-01
46 31 -2.80632067680682100D-02  1.01410468443607900D-01 -1.42334282919280200D-01 -9.76936128055367600D-02  1.40585853843552800D-01
46 32 -9.20803590938208800D-02  3.89906942854589000D-01 -8.41607344830363700D-03  1.46975342871764100D-01  1.10479023547648200D-01
47  1 -1.62162914701618500D-01 -3.12162508399652100D-01 -8.72754382770250200D-02 -2.90361760494101400D-02 -1.17969001993865200D-01
47  2  3.83650269661447600D-02  1.38492083828308000D+00  4.27223612708157700D-01 -7.03418844024432500D-02  5.74630550060636000D-02
47  3  2.61804147717706300D-01 -3.19267202723769800D-01  3.53934589577676700D-04  2.54600203948912000D-02  6.67926324873103200D-02
47  4 -1.85460989199724000D-01 -4.59386114232357100D-01 -5.62798697404093800D-01 -1.20172588928059100D-01  9.30610800074105600D-02
47  5 -2.89072427260343200D-02  4.87721390382713700D-02 -5.93404798912681200D-01 -4.48081816893708100D-02  1.46697843472987600D-01
47  6  9.29872180831539100D-02 -2.39685061556141400D-01  1.77281541351049300D-02 -1.35168076900887600D-02  2.34681900402594000D-02
47  7 -1.03238449102360300D-01 -1.80845832960096000D-01 -3.04384707754073200D-01  2.14028090772202800D-01  4.01845255348240000D-02
47  8 -1.84096715498847600D-02  7.09519890433949100D-02  3.84978742697314300D-01  1.54576835504957300D-01 -2.97467552607741400D-01
47  9  1.71844211857307300D-01  1.25623340750434400D-01  1.41105694272604100D-02  2.84891842374058300D-02  3.64665325820458100D-02
47 10  1.71787537271913900D-01  3.95999197828170100D-01 -2.14413486145779500D-01 -2.83272061562100700D-02 -5.65914146747675000D-02
47 11 -7.97608847142160900D-03  1.08888537398699700D+00 -6.90473610043085700D-01 -1.52478140489449100D-01 -4.83130988278367100D-03
47 12 -1.09229735146809700D-01  1.14061045029593600D-01  2.59119474859534800D-01  4.24772129918005800D-03 -1.81001772174495600D-03
47 13  7.68966948045385900D-02  2.32706993554606400D-01  9.43105889019239200D-01  8.10412294341561500D-02 -2.22406292556441800D-02
47 14 -7.90003429819541100D-03  4.20081407650224000D-01  1.62974924704949500D-01 -2.34871580316253500D-02 -1.57840115524777500D-01
47 15 -2.25656584085520700D-02  1.80405773933330000D-01 -4.60856018445515000D-02  2.46460964059552000D-02 -2.41052927367175700D-02
47 16 -1.50413848495551600D-01 -3.55254647361732200D-01  1.00363928110361300D+00  5.89044727293981800D-02  2.08906098104151000D-01
47 17 -7.87881344150889300D-02  3.07336706495827000D-01  4.26924447661480300D-01  1.75652427527212100D-01  6.12144649578663400D-02
47 18  7.79382059614742700D-02 -1.39152670919340100D-01  1.03702921529862100D-01  2.41753324980320600D-02 -1.01509654855944700D-02
47 19  4.49841384913356600D-02  1.60187590142754300D-01 -2.47234162261872400D-01 -2.33404736598652700D-01  7.92974972991187400D-02
47 20  7.37613173123534100D-02  2.47811827627901600D-02 -4.01581676853599000D-01 -8.79670788921063700D-02 -3.45729989203345700D-02
47 21  8.55558799460538100D-02 -9.98698555569624600D-02 -4.01085192981911000D-02 -9.51717596501241400D-02 -7.48720224975370200D-03
47 22  1.02658961899877700D-01 -7.10489378194446300D-02 -3.06111460546414100D-02 -4.64125310210678700D-02 -1.91528250505692300D-01
47 23  2.32955898518932000D-01 -4.14276480132392800D-02  1.50138833011482400D-01  1.13644789398564200D-02  7.18975501270673100D-03
47 24  1.65592611269620400D-02 -3.33324163763271500D-02 -3.66866986860191900D-01 -7.75342052301375400D-02  3.73163429246236200D-02
47 25 -1.22816256944985000D-01  4.03745592821739000D-02 -1.45248219920122700D-01 -4.14827203257721200D-02  3.18443498681905600D-02
47 26 -1.71020941036508500D-01 -1.82265298929521000D-01 -7.41617990088470800D-02  1.83234975503656700D-01 -1.93143712331219400D-01
47 27  9.90873682756289600D-03 -6.68740871318854900D-02  1.64070413915421800D-03  7.17306595494395500D-02  1.88226002387765000D-01
47 28 -7.75452396079687900D-02 -1.10680762779796300D-01 -1.55314411408378900D-01 -2.66826431511501700D-02  1.66923251264318700D-01
47 29  1.59597973608647000D-01  1.04426254320813000D-01  6.50600591657979300D-02  2.26254284417253500D-02  8.37597493899897700D-02
47 30 -1.96562342480093200D-01  1.02882648040703700D-01  2.75672754294042200D-02  9.66908140384652600D-02 -7.36709326631395100D-02
47 31 -1.46520046703785500D-02  1.79955292950688700D-01 -1.33711318681469700D-01  2.84586753981185400D-02  5.75264808209890400D-02
47 32 -4.98045917296592100D-02  6.89226286867128400D-02 -4.17761564085121300D-02  4.20811537221026000D-02  7.56070433045943500D-03
48  1 -1.99009384671039700D-02 -1.02035548987746000D-01  1.02175275837685500D+00  3.86143983548709300D-02 -1.49296468397893100D-01
48  2  8.12015064521818800D-02  1.88083030685489800D+00 -6.60155056455141600D-01 -3.47500939643973200D-02 -1.29961633320261800D-01
48  3  1.21802104379439000D-01  8.15952894082286800D-03  3.87086587004374300D-01 -4.35140947591018500D-03  8.77077935773013100D-02
48  4  1.92032065624864600D-01  3.71880457778637700D-01 -1.50541099544286500D+00 -7.18433996537544600D-02  9.78155466590918200D-03
48  5  7.82429049923631500D-02  1.10613097184099900D+00 -8.07467615216382100D-01 -3.57126829953830100D-02  1.41110381483034600D-01
48  6 -1.63322844530174000D-01  2.22124630471403700D-02  2.33346357632873400D-01  8.64164962557621500D-03  2.20620148920222600D-02
48  7  1.60212706771191800D-01  3.11142844226124400D-01 -1.40240367704499200D+00 -4.24819312008880200D-04  3.26443992432391300D-02
48  8  4.79555765887173400D-03  3.63956067147122900D-01  2.95811241255521600D-03  5.84048714596816600D-02 -1.20501444018735900D-01
48  9  3.39938954695597600D-02  8.65075485491763500D-02 -2.66621238721376700D-01 -2.48961160596055400D-02 -2.52181263900086300D-02
48 10  1.15113341323903500D-01  2.54055963021879000D-01  1.00630660697028700D+00  3.14768478733677000D-02 -8.75805474043338500D-02
48 11 -3.16278763825825200D-02  8.12133862451337500D-01  5.85815708762424400D-01 -1.84324143415360600D-01 -2.80009323348072700D-02
48 12  4.25916610169533900D-02 -1.45907286821460900D-02 -1.06188699614424500D-01  1.46284312992776900D-02  1.23887157026871900D-01
48 13  4.40471435278499800D-02  7.37649451909748300D-02  5.43312647992832900D-01  7.39879111834718200D-02 -8.89626290354371400D-02
48 14 -2.32325048693643300D-03 -5.69802248535707700D-01  3.31148821341863500D-01  6.22287315376846300D-02 -1.30049185807359900D-01
48 15  3.56371053683887500D-02  9.44120804389714500D-02  6.99804903422008300D-02  5.89518585494530500D-02 -3.33099416766154500D-02
48 16 -4.29184762210647800D-02 -9.25325452028541200D-02  2.95661572795515500D-01  2.73200884627219500D-02 -2.04852163604028300D-02
48 17  8.54083186959637800D-02  1.35906358508770600D-01  7.59989245946699900D-01 -3.05305332279522200D-02  7.34246466954927000D-02
48 18 -1.52903444207022500D-01  7.94787975115299900D-02  3.09135732704269800D-02 -3.59585554607891100D-02  2.38070695790253200D-02
48 19  9.59203818044603400D-03  1.04468022623429100D-01  2.02796589572740400D-01 -9.00841444113141500D-03  1.52424824091735200D-03
48 20 -1.25981999233444200D-01 -2.83565297629414700D-02 -4.77950353912919300D-01 -1.03620972278453300D-01 -1.88142082963071200D-02
48 21 -9.58404183382354800D-02 -2.13883858477993200D-02  2.85196788886770100D-02  1.96128478577841400D-01 -1.92497083225559100D-01
48 22 -3.63139535228217300D-03 -1.81338979505773900D-02 -1.65403504297626200D-03  5.86274257625746700D-02  2.07064876995324700D-01
48 23 -1.68758064735600800D-01 -3.83068122597231300D-02  2.67491075598952200D-01  2.83840751209959700D-03  7.24675689017063700D-02
48 24  1.25889760126012100D-02  6.48829363103285700D-02  1.46141628823140200D-01 -2.02253872058430600D-01  6.44486668419766300D-02
48 25 -5.90102054098624200D-02  2.39587864342616200D-02 -2.62482103450153200D-01 -1.58146516517618200D-01  3.70017471211207300D-02
48 26 -2.93076125740672400D-01  1.36603645031158500D-01  1.29881991127803900D-01 -6.85381948472412300D-02 -3.98613015054286800D-02
48 27  1.08399496352670400D-01 -1.74401397461583600D-01  6.35009908909694100D-03  1.80209303543163800D-01  7.78887541681115800D-02
48 28 -1.00751838567120400D-01  2.28630843990087800D-02 -3.16902796576940600D-01 -1.79416282207717500D-02  2.51544004355667300D-02
48 29  1.37920921953352900D-01 -3.63355776137690700D-01  1.05089558936947900D-02  2.36557824336953900D-01 -1.06139548656150700D-01
48 30  3.66755781959447100D-02 -3.42000568252884100D-02 -3.53168008313326500D-03 -1.93851905278009900D-01 -6.46296501858861000D-02
48 31  5.33216180016393300D-02 -3.70477903376942100D-01  8.84516887441373800D-02 -7.37735705888667300D-02 -4.36641395019298700D-02
48 32  1.10232242289694000D-01 -2.07840445093891700D-01  1.39400019259802200D-02 -6.93821485018152300D-02 -1.38422805764999800D-01
49  1 -2.51716207933173200D-03  4.63915543318146300D-02  8.63659863729262000D-01  4.89239407284930400D-02 -1.46261811717803900D-02
49  2  6.32216308784244000D-02  9.71170418904990600D-01 -9.73711116055253800D-02  3.55391422747594900D-02 -1.19751710088919500D-01
49  3  2.96689230896511600D-01 -1.76937520807591800D-01 -2.36740744731925200D-01  2.89731956698109600D-02  1.84042948424029600D-02
49  4  7.07651949358803100D-02  1.25401980786707500D-01 -7.63873330598034700D-01  2.56992876107567200D-01 -5.97260474500924300D-02
49  5 -2.50055976070847100D-02  4.02781927534642300D-01 -5.61508176474775900D-01  4.56889553419158000D-02 -2.04058085119464000D-01
49  6  7.51890775857645400D-02  1.28869007533700300D-01 -1.16782024404345900D-01  5.01384277015917600D-02 -8.66165642474980700D-02
49  7  8.83097927639592000D-02  1.67945774830859100D-01 -9.14484015020049800D-01  3.24416978423666900D-03  1.27292956595746500D-01
49  8  1.33506837905878100D-02  5.11941354480806700D-01 -2.49108272379737900D-01 -1.19348469806699200D-01 -2.31598884171933900D-01
49  9 -9.07474281643272900D-02  3.22346312336261500D-01 -3.06281225885200400D-02 -4.34167291181143500D-03 -3.06926260409893100D-02
49 10  6.67551955594747800D-02  1.80239631811145500D-01  6.01841259274767800D-01  3.30943661286781200D-01 -1.40413085220951900D-01
49 11 -8.55664172220700100D-02  3.71170024668072000D-01  2.36784406503238800D-01  3.53834377495686800D-02 -5.63468997620885500D-02
49 12  5.43209195414427700D-03  5.09148078079442400D-02 -1.56421071728046900D-01  2.92587025585261400D-02  9.46994031348411500D-02
49 13 -1.70361546039301100D-02 -2.05057310059874400D-02  3.92425036356743900D-01 -1.42383083952659200D-01 -3.24572959976771900D-02
49 14  2.76805241034891300D-02  4.60809702069597800D-01  2.35891922664029500D-01 -9.98385323577295500D-02  7.83267866579775800D-02
49 15  6.65171519282862200D-02 -1.44843938586263500D-01  2.29536581348857800D-02  7.65500812513217200D-03 -5.95125189294754200D-02
49 16  2.83610514093438800D-02  9.84794945963276000D-02 -7.83593447809457500D-02  1.03308648467067100D-01  3.94296454631743000D-02
49 17 -1.04709080233891800D-02  3.19803007543749800D-02  4.39336678350438800D-01  6.54197411164023900D-02  7.04041875555538900D-02
49 18 -2.08042393035654400D-02 -4.95999482519885000D-02 -2.35618600860930900D-01 -4.73671472667834200D-02 -5.85926585795362400D-02
49 19 -1.55862657219532100D-02 -2.67541878992061700D-02 -2.03711000967673100D-01 -9.45330250397896200D-02  1.00599852217762800D-01
49 20  4.81569365906532300D-02  3.74387771982080400D-02 -3.53807901005616700D-01  1.38122597441260200D-01 -9.75519656543563800D-02
49 21  2.81470498856938000D-01 -1.19089894899616100D-02  2.68636711391775400D-02  1.66592541493427200D-01 -2.14221014417383800D-01
49 22  4.76284729239568800D-02 -2.90885941853986300D-01  2.86771210891889300D-02 -7.48489551679862400D-02 -9.44090712578085400D-02
49 23  4.38989355944490700D-02  5.05101356633601900D-02  2.98036652437587000D-02 -5.29130776294850400D-02  9.77672340580342700D-02
49 24  4.34026844304724000D-02  8.87455269277629400D-02 -1.10693275399559400D-01 -2.74209498526788400D-01  8.08672315644898100D-02
49 25 -1.79624838936915600D-01  3.50502161039132900D-02 -4.92166811285026600D-01 -3.50048549482554700D-02 -2.40694177095131400D-04
49 26  4.21227515019367700D-01 -2.18330449164667900D-01  4.62847752180606000D-02 -4.81296885644526000D-02  5.98591669447882000D-02
49 27 -1.17294783803354800D-02  2.52149180421943300D-01  2.86502356860364400D-02  2.26230212443683200D-02  2.86366136393525600D-01
49 28 -1.91676004444791900D-01 -9.46901319487341300D-02 -1.86276803982760100D-01 -5.30968032495306200D-02  1.33176039182362600D-01
49 29 -2.43139665178100200D-02 -8.46652513166988600D-02 -2.45904118570090000D-01  7.21830705110904200D-03  5.55487310010161900D-02
49 30 -2.54704563378034300D-02 -3.67582490935165400D-01 -1.10602626490148400D-01  5.45732417519573300D-02  2.96516299636044600D-02
49 31  3.36038513456769000D-02  5.20343837940896300D-01  8.15565732158143700D-02 -1.20839997889638700D-01 -3.40885099416409500D-02
49 32  8.55088741331943100D-03  2.30308078160661300D-02  1.85935572220571600D-01 -1.22845250911661700D-01 -8.43494109146947200D-03
50  1  2.51934319765660900D-02 -7.36686862181427800D-03 -8.58062316974656800D-01  1.28840122721338600D-01 -1.49839791008769000D-02
50  2  1.87742628314574300D-02 -1.40736146808959500D+00  5.08467552748406400D-01  4.45283224980773200D-01 -7.91747672555484500D-02
50  3  1.74301735801077700D-01 -9.51269685455295700D-02 -8.58189799070393100D-02  1.07680805707261400D-02  2.07151114191910200D-02
50  4  1.40903080109618000D-01  3.63025360939850900D-01  8.44498024230477200D-01 -6.82687990141035700D-03  9.34291269622696400D-02
50  5  5.45799467512729000D-02 -4.22182017419757100D-01  7.89771672043628200D-01 -1.64375142725690000D-01  5.79760447302626000D-02
50  6 -3.77154206762348500D-02 -2.02606240540281200D-02  1.30310091528094500D-01  1.25431793248267600D-01 -7.49413734847496800D-02
50  7  4.64278924047842900D-02  1.64868402595874600D-01  1.40761190329461500D+00  6.05285954712043200D-02 -3.41806159648311700D-02
50  8  4.80659402401115400D-02 -7.36735677993985600D-01 -2.98173072891186900D-01 -2.58637785154652000D-01  1.64697038001286100D-01
50  9 -9.09115489557902500D-02 -7.37854890454963100D-02 -1.94365209219540200D-03  1.16031311877111200D-01  9.15832983482037900D-02
50 10  7.65460200841461100D-02  1.60908434725743500D-01 -1.01962917015077800D+00 -7.96534446543142000D-02 -8.77775432286604200D-02
50 11 -2.78614580635516400D-02 -1.17274791365379800D+00 -4.16255104916187400D-01  4.23515912075188900D-01 -8.05828972703370000D-03
50 12 -1.55794489852449500D-01  1.63852779579483100D-01 -1.74509266724203200D-01  8.51887365709212000D-02  3.16907190376351200D-02
50 13 -3.72435665483170300D-02 -1.01844750725527000D-01 -7.77515619126487700D-01 -6.21553752662644300D-02  1.00836983223344900D-01
50 14 -3.51718804748717900D-02  2.14555352042144100D-02 -4.68642897191414100D-02 -5.84630874244597100D-02  1.00307081293609700D-01
50 15 -9.56569109926221500D-02 -4.65017030098789500D-03 -3.34874269751631500D-02 -1.30899624630047200D-03  1.91162494405374000D-02
50 16 -6.33770242309206200D-04 -1.39554949337581000D-02 -6.86925120133478600D-02 -5.78648686919783100D-02 -8.59823416655289000D-02
50 17  4.11616696542356400D-02  3.39502573088846000D-01 -5.25716628620587300D-01 -2.40255837627016200D-01  2.83341972386333700D-01
50 18 -1.93134923555364700D-01 -9.02070488309686700D-02  5.63386559596120800D-03 -6.83264074037385100D-02 -5.92146208143347200D-02
50 19  4.74878877560079000D-02  1.53612003144431200D-01 -1.74319013051943300D-01 -2.39613724156353200D-01  1.01566425883615500D-01
50 20 -1.72048983303349400D-02  1.68034961292978400D-02  2.74407665783915000D-01 -8.00436480330658600D-03 -1.69849353933784400D-01
50 21 -1.10184396451035600D-01  3.06410139420099000D-02 -6.91445210735280600D-03 -2.99670858670945600D-01  1.59112504433090600D-01
50 22  1.40558354237855100D-01 -2.95763261184013400D-02 -2.75068893792670900D-02 -7.26709652165642300D-04 -1.25472341625007900D-01
50 23  3.94297535661586800D-02  8.60425880588484000D-02  1.68540031876284500D-02 -2.03146222381226400D-02  2.07109412088714400D-01
50 24 -7.65268491206330400D-03 -3.99052484864717100D-02  5.80925173030116000D-02 -1.20900754783605900D-01 -2.38728263760197200D-02
50 25  8.67723497710875100D-02  1.24790578352668700D-02  1.86873979840391900D-01 -1.09201567133344300D-01 -1.54616447062287200D-01
50 26  1.08819269228671500D-01  1.93635885598967100D-03  5.72258661802679000D-02  2.21125832158079700D-01 -1.85138543445690800D-01
50 27 -3.59872887123891600D-02  9.31508562196589300D-02 -3.31849547172607200D-02 -5.84922129359965200D-03 -1.98776007875842000D-01
50 28  1.06579030685558600D-01  9.21969771902834100D-02  2.15038234274624500D-01 -5.10229575980566800D-02 -2.14934098653810100D-01
50 29  5.54853629555045300D-02 -1.21377640332749700D-01  8.15645467381112800D-02  8.65850869017536100D-02 -1.21440234899094200D-02
50 30 -1.22357385861417200D-01  2.35055899316329000D-01 -8.76348637686473200D-02  8.05484818314352600D-02  7.69749917428015400D-02
50 31 -6.54918323035708600D-02  1.98946318568120400D-01  2.13965100569534200D-01  2.25878359915281000D-01  6.09615851814545500D-02
50 32  1.34706342874343600D-01  1.07405741652112600D-01 -7.33982552869890900D-02  1.88469514320901300D-01  1.13786604263837200D-01
51  1  0.00000000000000000D+00  0.00000000000000000D+00  0.00000000000000000D+00  0.00000000000000000D+00  0.00000000000000000D+00
51  2  0.00000000000000000D+00  0.00000000000000000D+00  0.00000000000000000D+00  0.00000000000000000D+00  4.85675915312108500D-02
51  3  4.85675915312110300D-02  4.85675915312110800D-02  0.00000000000000000D+00  0.00000000000000000D+00  0.00000000000000000D+00
51  4  0.00000000000000000D+00  0.00000000000000000D+00  0.00000000000000000D+00  0.00000000000000000D+00  0.00000000000000000D+00
51  5  0.00000000000000000D+00  0.00000000000000000D+00  0.00000000000000000D+00  0.00000000000000000D+00 -1.93300613781851000D-02
51  6 -1.93300613781848400D-02 -1.93300613781849900D-02  0.00000000000000000D+00  0.00000000000000000D+00  0.00000000000000000D+00
51  7  0.00000000000000000D+00  0.00000000000000000D+00  0.00000000000000000D+00  0.00000000000000000D+00  0.00000000000000000D+00
51  8  0.00000000000000000D+00  0.00000000000000000D+00  0.00000000000000000D+00  0.00000000000000000D+00 -3.72089584469301900D-02
51  9 -3.72089584469304200D-02 -3.72089584469301000D-02  0.00000000000000000D+00  0.00000000000000000D+00  0.00000000000000000D+00
51 10  0.00000000000000000D+00  0.00000000000000000D+00  0.00000000000000000D+00  0.00000000000000000D+00  0.00000000000000000D+00
51 11  0.00000000000000000D+00  0.00000000000000000D+00  0.00000000000000000D+00  0.00000000000000000D+00  9.81947543207576000D-02
51 12  9.81947543207575700D-02  9.81947543207575000D-02  0.00000000000000000D+00  0.00000000000000000D+00  0.00000000000000000D+00
51 13  0.00000000000000000D+00  0.00000000000000000D+00  0.00000000000000000D+00  0.00000000000000000D+00  0.00000000000000000D+00
51 14  0.00000000000000000D+00  0.00000000000000000D+00  0.00000000000000000D+00  0.00000000000000000D+00  1.48099832854514600D-02
51 15  1.48099832854513000D-02  1.48099832854512200D-02  0.00000000000000000D+00  0.00000000000000000D+00  0.00000000000000000D+00
51 16  0.00000000000000000D+00  0.00000000000000000D+00  0.00000000000000000D+00  0.00000000000000000D+00  0.00000000000000000D+00
51 17  0.00000000000000000D+00  0.00000000000000000D+00  0.00000000000000000D+00  0.00000000000000000D+00 -2.74017358904577000D-01
51 18 -2.74017358904576800D-01 -2.74017358904576600D-01  0.00000000000000000D+00  0.00000000000000000D+00  0.00000000000000000D+00
51 19  0.00000000000000000D+00  0.00000000000000000D+00  0.00000000000000000D+00  0.00000000000000000D+00  0.00000000000000000D+00
51 20  0.00000000000000000D+00  0.00000000000000000D+00  0.00000000000000000D+00  0.00000000000000000D+00  0.00000000000000000D+00
51 21  0.00000000000000000D+00  0.00000000000000000D+00  0.00000000000000000D+00  1.60187382047538900D-01  1.60187382047539300D-01
51 22  1.60187382047538800D-01  0.00000000000000000D+00  0.00000000000000000D+00  0.00000000000000000D+00 -2.92020449075784400D-01
51 23 -2.92020449075784200D-01 -2.92020449075784200D-01  0.00000000000000000D+00  0.00000000000000000D+00  0.00000000000000000D+00
51 24  0.00000000000000000D+00  0.00000000000000000D+00  0.00000000000000000D+00  0.00000000000000000D+00  0.00000000000000000D+00
51 25  0.00000000000000000D+00  0.00000000000000000D+00  0.00000000000000000D+00  0.00000000000000000D+00  0.00000000000000000D+00
51 26  0.00000000000000000D+00  0.00000000000000000D+00  0.00000000000000000D+00 -1.81062228275994700D-04 -1.81062228276358300D-04
51 27 -1.81062228275998700D-04  0.00000000000000000D+00  0.00000000000000000D+00  0.00000000000000000D+00  0.00000000000000000D+00
51 28  0.00000000000000000D+00  0.00000000000000000D+00  0.00000000000000000D+00  0.00000000000000000D+00  0.00000000000000000D+00
51 29  0.00000000000000000D+00  0.00000000000000000D+00  0.00000000000000000D+00  0.00000000000000000D+00  0.00000000000000000D+00
51 30  0.00000000000000000D+00  0.00000000000000000D+00  0.00000000000000000D+00  0.00000000000000000D+00  0.00000000000000000D+00
51 31  0.00000000000000000D+00  0.00000000000000000D+00  0.00000000000000000D+00  0.00000000000000000D+00  0.00000000000000000D+00
51 32  0.00000000000000000D+00  0.00000000000000000D+00  0.00000000000000000D+00  0.00000000000000000D+00  0.00000000000000000D+00
52  1  0.00000000000000000D+00  0.00000000000000000D+00  0.00000000000000000D+00  0.00000000000000000D+00  0.00000000000000000D+00
52  2  0.00000000000000000D+00  0.00000000000000000D+00  0.00000000000000000D+00  0.00000000000000000D+00  0.00000000000000000D+00
52  3  0.00000000000000000D+00  0.00000000000000000D+00  0.00000000000000000D+00  0.00000000000000000D+00  0.00000000000000000D+00
52  4  0.00000000000000000D+00  0.00000000000000000D+00  0.00000000000000000D+00  0.00000000000000000D+00  0.00000000000000000D+00
52  5  0.00000000000000000D+00  0.00000000000000000D+00  0.00000000000000000D+00  0.00000000000000000D+00  0.00000000000000000D+00
52  6  0.00000000000000000D+00  0.00000000000000000D+00  0.00000000000000000D+00  0.00000000000000000D+00  0.00000000000000000D+00
52  7  0.00000000000000000D+00  0.00000000000000000D+00  0.00000000000000000D+00  0.00000000000000000D+00  0.00000000000000000D+00
52  8  0.00000000000000000D+00  0.00000000000000000D+00  0.00000000000000000D+00  0.00000000000000000D+00  0.00000000000000000D+00
52  9  0.00000000000000000D+00  0.00000000000000000D+00  0.00000000000000000D+00  0.00000000000000000D+00  0.00000000000000000D+00
52 10  0.00000000000000000D+00  0.00000000000000000D+00  0.00000000000000000D+00  0.00000000000000000D+00  0.00000000000000000D+00
52 11  0.00000000000000000D+00  0.00000000000000000D+00  0.00000000000000000D+00  0.00000000000000000D+00  2.15092641992714000D-09
52 12  2.15092649954981400D-09  2.15092652739269300D-09  0.00000000000000000D+00  0.00000000000000000D+00  0.00000000000000000D+00
52 13  0.00000000000000000D+00  0.00000000000000000D+00  0.00000000000000000D+00  0.00000000000000000D+00  0.00000000000000000D+00
52 14  0.00000000000000000D+00  0.00000000000000000D+00  0.00000000000000000D+00  0.00000000000000000D+00  2.74413622471773600D-09
52 15  2.74413587542959200D-09  2.74413604747157900D-09  0.00000000000000000D+00  0.00000000000000000D+00  0.00000000000000000D+00
52 16  0.00000000000000000D+00  0.00000000000000000D+00  0.00000000000000000D+00  0.00000000000000000D+00  0.00000000000000000D+00
52 17  0.00000000000000000D+00  0.00000000000000000D+00  0.00000000000000000D+00  0.00000000000000000D+00  2.66854320057496900D-08
52 18  2.66854319471594200D-08  2.66854320128837400D-08  0.00000000000000000D+00  0.00000000000000000D+00  0.00000000000000000D+00
52 19  0.00000000000000000D+00  0.00000000000000000D+00  0.00000000000000000D+00  0.00000000000000000D+00  0.00000000000000000D+00
52 20  0.00000000000000000D+00  0.00000000000000000D+00  0.00000000000000000D+00  0.00000000000000000D+00  0.00000000000000000D+00
52 21  0.00000000000000000D+00  0.00000000000000000D+00  0.00000000000000000D+00 -2.48984223129553000D-08 -2.48984222681786400D-08
52 22 -2.48984223361203000D-08  0.00000000000000000D+00  0.00000000000000000D+00  0.00000000000000000D+00 -2.77324836800635700D-04
52 23 -2.77324836800495900D-04 -2.77324836800631800D-04  0.00000000000000000D+00  0.00000000000000000D+00  0.00000000000000000D+00
52 24  0.00000000000000000D+00  0.00000000000000000D+00  0.00000000000000000D+00  0.00000000000000000D+00  0.00000000000000000D+00
52 25  0.00000000000000000D+00  0.00000000000000000D+00  0.00000000000000000D+00  0.00000000000000000D+00  0.00000000000000000D+00
52 26  0.00000000000000000D+00  0.00000000000000000D+00  0.00000000000000000D+00  4.47213509512998300D-01  4.47213509512998400D-01
52 27  4.47213509512998100D-01  0.00000000000000000D+00  0.00000000000000000D+00  0.00000000000000000D+00  0.00000000000000000D+00
52 28  0.00000000000000000D+00  0.00000000000000000D+00  0.00000000000000000D+00  0.00000000000000000D+00  0.00000000000000000D+00
52 29  0.00000000000000000D+00  0.00000000000000000D+00  0.00000000000000000D+00  0.00000000000000000D+00  0.00000000000000000D+00
52 30  0.00000000000000000D+00  0.00000000000000000D+00  0.00000000000000000D+00  0.00000000000000000D+00  0.00000000000000000D+00
52 31  0.00000000000000000D+00  0.00000000000000000D+00  0.00000000000000000D+00  0.00000000000000000D+00  0.00000000000000000D+00
52 32  0.00000000000000000D+00  0.00000000000000000D+00  0.00000000000000000D+00  0.00000000000000000D+00  0.00000000000000000D+00
53  1  0.00000000000000000D+00  0.00000000000000000D+00  0.00000000000000000D+00  0.00000000000000000D+00  0.00000000000000000D+00
53  2  0.00000000000000000D+00  0.00000000000000000D+00  0.00000000000000000D+00  0.00000000000000000D+00  2.38927057736138300D-02
53  3  2.38927057736137000D-02  2.38927057736136500D-02  0.00000000000000000D+00  0.00000000000000000D+00  0.00000000000000000D+00
53  4  0.00000000000000000D+00  0.00000000000000000D+00  0.00000000000000000D+00  0.00000000000000000D+00  0.00000000000000000D+00
53  5  0.00000000000000000D+00  0.00000000000000000D+00  0.00000000000000000D+00  0.00000000000000000D+00  2.84587122340177100D-01
53  6  2.84587122340177300D-01  2.84587122340177200D-01  0.00000000000000000D+00  0.00000000000000000D+00  0.00000000000000000D+00
53  7  0.00000000000000000D+00  0.00000000000000000D+00  0.00000000000000000D+00  0.00000000000000000D+00  0.00000000000000000D+00
53  8  0.00000000000000000D+00  0.00000000000000000D+00  0.00000000000000000D+00  0.00000000000000000D+00  1.70939129086735300D-01
53  9  1.70939129086735600D-01  1.70939129086735400D-01  0.00000000000000000D+00  0.00000000000000000D+00  0.00000000000000000D+00
53 10  0.00000000000000000D+00  0.00000000000000000D+00  0.00000000000000000D+00  0.00000000000000000D+00  0.00000000000000000D+00
53 11  0.00000000000000000D+00  0.00000000000000000D+00  0.00000000000000000D+00  0.00000000000000000D+00  3.53171344232856400D-02
53 12  3.53171344232856600D-02  3.53171344232854600D-02  0.00000000000000000D+00  0.00000000000000000D+00  0.00000000000000000D+00
53 13  0.00000000000000000D+00  0.00000000000000000D+00  0.00000000000000000D+00  0.00000000000000000D+00  0.00000000000000000D+00
53 14  0.00000000000000000D+00  0.00000000000000000D+00  0.00000000000000000D+00  0.00000000000000000D+00 -1.75158808606485400D-01
53 15 -1.75158808606485200D-01 -1.75158808606485000D-01  0.00000000000000000D+00  0.00000000000000000D+00  0.00000000000000000D+00
53 16  0.00000000000000000D+00  0.00000000000000000D+00  0.00000000000000000D+00  0.00000000000000000D+00  0.00000000000000000D+00
53 17  0.00000000000000000D+00  0.00000000000000000D+00  0.00000000000000000D+00  0.00000000000000000D+00 -4.09901646949542600D-03
53 18 -4.09901646949539700D-03 -4.09901646949530300D-03  0.00000000000000000D+00  0.00000000000000000D+00  0.00000000000000000D+00
53 19  0.00000000000000000D+00  0.00000000000000000D+00  0.00000000000000000D+00  0.00000000000000000D+00  0.00000000000000000D+00
53 20  0.00000000000000000D+00  0.00000000000000000D+00  0.00000000000000000D+00  0.00000000000000000D+00  0.00000000000000000D+00
53 21  0.00000000000000000D+00  0.00000000000000000D+00  0.00000000000000000D+00 -1.96002044551890200D-01 -1.96002044551890600D-01
53 22 -1.96002044551890500D-01  0.00000000000000000D+00  0.00000000000000000D+00  0.00000000000000000D+00 -1.37322990361762900D-01
53 23 -1.37322990361762700D-01 -1.37322990361762500D-01  0.00000000000000000D+00  0.00000000000000000D+00  0.00000000000000000D+00
53 24  0.00000000000000000D+00  0.00000000000000000D+00  0.00000000000000000D+00  0.00000000000000000D+00  0.00000000000000000D+00
53 25  0.00000000000000000D+00  0.00000000000000000D+00  0.00000000000000000D+00  0.00000000000000000D+00  0.00000000000000000D+00
53 26  0.00000000000000000D+00  0.00000000000000000D+00  0.00000000000000000D+00 -8.51661256770955300D-05 -8.51661256767530300D-05
53 27 -8.51661256768306000D-05  0.00000000000000000D+00  0.00000000000000000D+00  0.00000000000000000D+00  0.00000000000000000D+00
53 28  0.00000000000000000D+00  0.00000000000000000D+00  0.00000000000000000D+00  0.00000000000000000D+00  0.00000000000000000D+00
53 29  0.00000000000000000D+00  0.00000000000000000D+00  0.00000000000000000D+00  0.00000000000000000D+00  0.00000000000000000D+00
53 30  0.00000000000000000D+00  0.00000000000000000D+00  0.00000000000000000D+00  0.00000000000000000D+00  0.00000000000000000D+00
53 31  0.00000000000000000D+00  0.00000000000000000D+00  0.00000000000000000D+00  0.00000000000000000D+00  0.00000000000000000D+00
53 32  0.00000000000000000D+00  0.00000000000000000D+00  0.00000000000000000D+00  0.00000000000000000D+00  0.00000000000000000D+00
54  1  0.00000000000000000D+00  0.00000000000000000D+00  0.00000000000000000D+00  0.00000000000000000D+00  0.00000000000000000D+00
54  2  0.00000000000000000D+00  0.00000000000000000D+00  0.00000000000000000D+00  0.00000000000000000D+00  1.54985595279030500D-01
54  3  1.54985595279030400D-01  1.54985595279030300D-01  0.00000000000000000D+00  0.00000000000000000D+00  0.00000000000000000D+00
54  4  0.00000000000000000D+00  0.00000000000000000D+00  0.00000000000000000D+00  0.00000000000000000D+00  0.00000000000000000D+00
54  5  0.00000000000000000D+00  0.00000000000000000D+00  0.00000000000000000D+00  0.00000000000000000D+00  6.67052458984469200D-02
54  6  6.67052458984469700D-02  6.67052458984470900D-02  0.00000000000000000D+00  0.00000000000000000D+00  0.00000000000000000D+00
54  7  0.00000000000000000D+00  0.00000000000000000D+00  0.00000000000000000D+00  0.00000000000000000D+00  0.00000000000000000D+00
54  8  0.00000000000000000D+00  0.00000000000000000D+00  0.00000000000000000D+00  0.00000000000000000D+00 -3.38263541751527300D-01
54  9 -3.38263541751527300D-01 -3.38263541751527300D-01  0.00000000000000000D+00  0.00000000000000000D+00  0.00000000000000000D+00
54 10  0.00000000000000000D+00  0.00000000000000000D+00  0.00000000000000000D+00  0.00000000000000000D+00  0.00000000000000000D+00
54 11  0.00000000000000000D+00  0.00000000000000000D+00  0.00000000000000000D+00  0.00000000000000000D+00 -4.82698905539152500D-02
54 12 -4.82698905539151900D-02 -4.82698905539151000D-02  0.00000000000000000D+00  0.00000000000000000D+00  0.00000000000000000D+00
54 13  0.00000000000000000D+00  0.00000000000000000D+00  0.00000000000000000D+00  0.00000000000000000D+00  0.00000000000000000D+00
54 14  0.00000000000000000D+00  0.00000000000000000D+00  0.00000000000000000D+00  0.00000000000000000D+00 -2.31331213273952500D-01
54 15 -2.31331213273952400D-01 -2.31331213273952500D-01  0.00000000000000000D+00  0.00000000000000000D+00  0.00000000000000000D+00
54 16  0.00000000000000000D+00  0.00000000000000000D+00  0.00000000000000000D+00  0.00000000000000000D+00  0.00000000000000000D+00
54 17  0.00000000000000000D+00  0.00000000000000000D+00  0.00000000000000000D+00  0.00000000000000000D+00  3.20551077830263000D-02
54 18  3.20551077830265600D-02  3.20551077830265200D-02  0.00000000000000000D+00  0.00000000000000000D+00  0.00000000000000000D+00
54 19  0.00000000000000000D+00  0.00000000000000000D+00  0.00000000000000000D+00  0.00000000000000000D+00  0.00000000000000000D+00
54 20  0.00000000000000000D+00  0.00000000000000000D+00  0.00000000000000000D+00  0.00000000000000000D+00  0.00000000000000000D+00
54 21  0.00000000000000000D+00  0.00000000000000000D+00  0.00000000000000000D+00  9.82543419482003300D-03  9.82543419481991800D-03
54 22  9.82543419482022000D-03  0.00000000000000000D+00  0.00000000000000000D+00  0.00000000000000000D+00  1.18097431268972900D-02
54 23  1.18097431268974200D-02  1.18097431268973500D-02  0.00000000000000000D+00  0.00000000000000000D+00  0.00000000000000000D+00
54 24  0.00000000000000000D+00  0.00000000000000000D+00  0.00000000000000000D+00  0.00000000000000000D+00  0.00000000000000000D+00
54 25  0.00000000000000000D+00  0.00000000000000000D+00  0.00000000000000000D+00  0.00000000000000000D+00  0.00000000000000000D+00
54 26  0.00000000000000000D+00  0.00000000000000000D+00  0.00000000000000000D+00  7.32371201237769800D-06  7.32371201256098400D-06
54 27  7.32371201279720400D-06  0.00000000000000000D+00  0.00000000000000000D+00  0.00000000000000000D+00  0.00000000000000000D+00
54 28  0.00000000000000000D+00  0.00000000000000000D+00  0.00000000000000000D+00  0.00000000000000000D+00  0.00000000000000000D+00
54 29  0.00000000000000000D+00  0.00000000000000000D+00  0.00000000000000000D+00  0.00000000000000000D+00  0.00000000000000000D+00
54 30  0.00000000000000000D+00  0.00000000000000000D+00  0.00000000000000000D+00  0.00000000000000000D+00  0.00000000000000000D+00
54 31  0.00000000000000000D+00  0.00000000000000000D+00  0.00000000000000000D+00  0.00000000000000000D+00  0.00000000000000000D+00
54 32  0.00000000000000000D+00  0.00000000000000000D+00  0.00000000000000000D+00  0.00000000000000000D+00  0.00000000000000000D+00
55  1  0.00000000000000000D+00  0.00000000000000000D+00  0.00000000000000000D+00  0.00000000000000000D+00  0.00000000000000000D+00
55  2  0.00000000000000000D+00  0.00000000000000000D+00  0.00000000000000000D+00  0.00000000000000000D+00  3.41522118955854500D-01
55  3  3.41522118955854500D-01  3.41522118955854500D-01  0.00000000000000000D+00  0.00000000000000000D+00  0.00000000000000000D+00
55  4  0.00000000000000000D+00  0.00000000000000000D+00  0.00000000000000000D+00  0.00000000000000000D+00  0.00000000000000000D+00
55  5  0.00000000000000000D+00  0.00000000000000000D+00  0.00000000000000000D+00  0.00000000000000000D+00  1.02248810416427400D-02
55  6  1.02248810416427600D-02  1.02248810416427500D-02  0.00000000000000000D+00  0.00000000000000000D+00  0.00000000000000000D+00
55  7  0.00000000000000000D+00  0.00000000000000000D+00  0.00000000000000000D+00  0.00000000000000000D+00  0.00000000000000000D+00
55  8  0.00000000000000000D+00  0.00000000000000000D+00  0.00000000000000000D+00  0.00000000000000000D+00  1.14391458029313400D-01
55  9  1.14391458029313500D-01  1.14391458029313400D-01  0.00000000000000000D+00  0.00000000000000000D+00  0.00000000000000000D+00
55 10  0.00000000000000000D+00  0.00000000000000000D+00  0.00000000000000000D+00  0.00000000000000000D+00  0.00000000000000000D+00
55 11  0.00000000000000000D+00  0.00000000000000000D+00  0.00000000000000000D+00  0.00000000000000000D+00 -2.38080306998499300D-01
55 12 -2.38080306998499100D-01 -2.38080306998499100D-01  0.00000000000000000D+00  0.00000000000000000D+00  0.00000000000000000D+00
55 13  0.00000000000000000D+00  0.00000000000000000D+00  0.00000000000000000D+00  0.00000000000000000D+00  0.00000000000000000D+00
55 14  0.00000000000000000D+00  0.00000000000000000D+00  0.00000000000000000D+00  0.00000000000000000D+00  1.13144556525764800D-01
55 15  1.13144556525764900D-01  1.13144556525764700D-01  0.00000000000000000D+00  0.00000000000000000D+00  0.00000000000000000D+00
55 16  0.00000000000000000D+00  0.00000000000000000D+00  0.00000000000000000D+00  0.00000000000000000D+00  0.00000000000000000D+00
55 17  0.00000000000000000D+00  0.00000000000000000D+00  0.00000000000000000D+00  0.00000000000000000D+00 -9.28269147737867000D-03
55 18 -9.28269147737884600D-03 -9.28269147737887500D-03  0.00000000000000000D+00  0.00000000000000000D+00  0.00000000000000000D+00
55 19  0.00000000000000000D+00  0.00000000000000000D+00  0.00000000000000000D+00  0.00000000000000000D+00  0.00000000000000000D+00
55 20  0.00000000000000000D+00  0.00000000000000000D+00  0.00000000000000000D+00  0.00000000000000000D+00  0.00000000000000000D+00
55 21  0.00000000000000000D+00  0.00000000000000000D+00  0.00000000000000000D+00  2.11521665629961700D-02  2.11521665629961000D-02
55 22  2.11521665629961100D-02  0.00000000000000000D+00  0.00000000000000000D+00  0.00000000000000000D+00 -1.24572299725303300D-02
55 23 -1.24572299725305800D-02 -1.24572299725302000D-02  0.00000000000000000D+00  0.00000000000000000D+00  0.00000000000000000D+00
55 24  0.00000000000000000D+00  0.00000000000000000D+00  0.00000000000000000D+00  0.00000000000000000D+00  0.00000000000000000D+00
55 25  0.00000000000000000D+00  0.00000000000000000D+00  0.00000000000000000D+00  0.00000000000000000D+00  0.00000000000000000D+00
55 26  0.00000000000000000D+00  0.00000000000000000D+00  0.00000000000000000D+00 -7.72276154398104400D-06 -7.72276154345674000D-06
55 27 -7.72276154306576900D-06  0.00000000000000000D+00  0.00000000000000000D+00  0.00000000000000000D+00  0.00000000000000000D+00
55 28  0.00000000000000000D+00  0.00000000000000000D+00  0.00000000000000000D+00  0.00000000000000000D+00  0.00000000000000000D+00
55 29  0.00000000000000000D+00  0.00000000000000000D+00  0.00000000000000000D+00  0.00000000000000000D+00  0.00000000000000000D+00
55 30  0.00000000000000000D+00  0.00000000000000000D+00  0.00000000000000000D+00  0.00000000000000000D+00  0.00000000000000000D+00
55 31  0.00000000000000000D+00  0.00000000000000000D+00  0.00000000000000000D+00  0.00000000000000000D+00  0.00000000000000000D+00
55 32  0.00000000000000000D+00  0.00000000000000000D+00  0.00000000000000000D+00  0.00000000000000000D+00  0.00000000000000000D+00
56  1  0.00000000000000000D+00  0.00000000000000000D+00  0.00000000000000000D+00  0.00000000000000000D+00  0.00000000000000000D+00
56  2  0.00000000000000000D+00  0.00000000000000000D+00  0.00000000000000000D+00  0.00000000000000000D+00  6.44660298299800000D-02
56  3  6.44660298299801300D-02  6.44660298299800600D-02  0.00000000000000000D+00  0.00000000000000000D+00  0.00000000000000000D+00
56  4  0.00000000000000000D+00  0.00000000000000000D+00  0.00000000000000000D+00  0.00000000000000000D+00  0.00000000000000000D+00
56  5  0.00000000000000000D+00  0.00000000000000000D+00  0.00000000000000000D+00  0.00000000000000000D+00  2.90082070879184800D-01
56  6  2.90082070879185100D-01  2.90082070879185000D-01  0.00000000000000000D+00  0.00000000000000000D+00  0.00000000000000000D+00
56  7  0.00000000000000000D+00  0.00000000000000000D+00  0.00000000000000000D+00  0.00000000000000000D+00  0.00000000000000000D+00
56  8  0.00000000000000000D+00  0.00000000000000000D+00  0.00000000000000000D+00  0.00000000000000000D+00 -8.02517076100558200D-02
56  9 -8.02517076100557500D-02 -8.02517076100558900D-02  0.00000000000000000D+00  0.00000000000000000D+00  0.00000000000000000D+00
56 10  0.00000000000000000D+00  0.00000000000000000D+00  0.00000000000000000D+00  0.00000000000000000D+00  0.00000000000000000D+00
56 11  0.00000000000000000D+00  0.00000000000000000D+00  0.00000000000000000D+00  0.00000000000000000D+00  1.73641915460579900D-01
56 12  1.73641915460580200D-01  1.73641915460580100D-01  0.00000000000000000D+00  0.00000000000000000D+00  0.00000000000000000D+00
56 13  0.00000000000000000D+00  0.00000000000000000D+00  0.00000000000000000D+00  0.00000000000000000D+00  0.00000000000000000D+00
56 14  0.00000000000000000D+00  0.00000000000000000D+00  0.00000000000000000D+00  0.00000000000000000D+00  2.19820001329819700D-01
56 15  2.19820001329819900D-01  2.19820001329819700D-01  0.00000000000000000D+00  0.00000000000000000D+00  0.00000000000000000D+00
56 16  0.00000000000000000D+00  0.00000000000000000D+00  0.00000000000000000D+00  0.00000000000000000D+00  0.00000000000000000D+00
56 17  0.00000000000000000D+00  0.00000000000000000D+00  0.00000000000000000D+00  0.00000000000000000D+00  7.30950234879810400D-03
56 18  7.30950234879827600D-03  7.30950234879811200D-03  0.00000000000000000D+00  0.00000000000000000D+00  0.00000000000000000D+00
56 19  0.00000000000000000D+00  0.00000000000000000D+00  0.00000000000000000D+00  0.00000000000000000D+00  0.00000000000000000D+00
56 20  0.00000000000000000D+00  0.00000000000000000D+00  0.00000000000000000D+00  0.00000000000000000D+00  0.00000000000000000D+00
56 21  0.00000000000000000D+00  0.00000000000000000D+00  0.00000000000000000D+00  1.07352632604117400D-01  1.07352632604117300D-01
56 22  1.07352632604117200D-01  0.00000000000000000D+00  0.00000000000000000D+00  0.00000000000000000D+00  1.23311866376064900D-01
56 23  1.23311866376065100D-01  1.23311866376065100D-01  0.00000000000000000D+00  0.00000000000000000D+00  0.00000000000000000D+00
56 24  0.00000000000000000D+00  0.00000000000000000D+00  0.00000000000000000D+00  0.00000000000000000D+00  0.00000000000000000D+00
56 25  0.00000000000000000D+00  0.00000000000000000D+00  0.00000000000000000D+00  0.00000000000000000D+00  0.00000000000000000D+00
56 26  0.00000000000000000D+00  0.00000000000000000D+00  0.00000000000000000D+00  7.64711790647300100D-05  7.64711790650215000D-05
56 27  7.64711790648029000D-05  0.00000000000000000D+00  0.00000000000000000D+00  0.00000000000000000D+00  0.00000000000000000D+00
56 28  0.00000000000000000D+00  0.00000000000000000D+00  0.00000000000000000D+00  0.00000000000000000D+00  0.00000000000000000D+00
56 29  0.00000000000000000D+00  0.00000000000000000D+00  0.00000000000000000D+00  0.00000000000000000D+00  0.00000000000000000D+00
56 30  0.00000000000000000D+00  0.00000000000000000D+00  0.00000000000000000D+00  0.00000000000000000D+00  0.00000000000000000D+00
56 31  0.00000000000000000D+00  0.00000000000000000D+00  0.00000000000000000D+00  0.00000000000000000D+00  0.00000000000000000D+00
56 32  0.00000000000000000D+00  0.00000000000000000D+00  0.00000000000000000D+00  0.00000000000000000D+00  0.00000000000000000D+00
57  1  0.00000000000000000D+00  0.00000000000000000D+00  0.00000000000000000D+00  0.00000000000000000D+00  0.00000000000000000D+00
57  2  0.00000000000000000D+00  0.00000000000000000D+00  0.00000000000000000D+00  0.00000000000000000D+00 -8.96331618361431300D-02
57  3 -8.96331618361433000D-02 -8.96331618361432100D-02  0.00000000000000000D+00  0.00000000000000000D+00  0.00000000000000000D+00
57  4  0.00000000000000000D+00  0.00000000000000000D+00  0.00000000000000000D+00  0.00000000000000000D+00  0.00000000000000000D+00
57  5  0.00000000000000000D+00  0.00000000000000000D+00  0.00000000000000000D+00  0.00000000000000000D+00  1.04108021777863100D-01
57  6  1.04108021777862700D-01  1.04108021777862800D-01  0.00000000000000000D+00  0.00000000000000000D+00  0.00000000000000000D+00
57  7  0.00000000000000000D+00  0.00000000000000000D+00  0.00000000000000000D+00  0.00000000000000000D+00  0.00000000000000000D+00
57  8  0.00000000000000000D+00  0.00000000000000000D+00  0.00000000000000000D+00  0.00000000000000000D+00  1.32488081790402800D-01
57  9  1.32488081790402800D-01  1.32488081790402700D-01  0.00000000000000000D+00  0.00000000000000000D+00  0.00000000000000000D+00
57 10  0.00000000000000000D+00  0.00000000000000000D+00  0.00000000000000000D+00  0.00000000000000000D+00  0.00000000000000000D+00
57 11  0.00000000000000000D+00  0.00000000000000000D+00  0.00000000000000000D+00  0.00000000000000000D+00 -1.23120233208552100D-01
57 12 -1.23120233208551700D-01 -1.23120233208551900D-01  0.00000000000000000D+00  0.00000000000000000D+00  0.00000000000000000D+00
57 13  0.00000000000000000D+00  0.00000000000000000D+00  0.00000000000000000D+00  0.00000000000000000D+00  0.00000000000000000D+00
57 14  0.00000000000000000D+00  0.00000000000000000D+00  0.00000000000000000D+00  0.00000000000000000D+00 -1.81930566086697700D-01
57 15 -1.81930566086697500D-01 -1.81930566086697700D-01  0.00000000000000000D+00  0.00000000000000000D+00  0.00000000000000000D+00
57 16  0.00000000000000000D+00  0.00000000000000000D+00  0.00000000000000000D+00  0.00000000000000000D+00  0.00000000000000000D+00
57 17  0.00000000000000000D+00  0.00000000000000000D+00  0.00000000000000000D+00  0.00000000000000000D+00 -2.15735676021356300D-02
57 18 -2.15735676021356300D-02 -2.15735676021355000D-02  0.00000000000000000D+00  0.00000000000000000D+00  0.00000000000000000D+00
57 19  0.00000000000000000D+00  0.00000000000000000D+00  0.00000000000000000D+00  0.00000000000000000D+00  0.00000000000000000D+00
57 20  0.00000000000000000D+00  0.00000000000000000D+00  0.00000000000000000D+00  0.00000000000000000D+00  0.00000000000000000D+00
57 21  0.00000000000000000D+00  0.00000000000000000D+00  0.00000000000000000D+00  3.21470050291293200D-01  3.21470050291293400D-01
57 22  3.21470050291293100D-01  0.00000000000000000D+00  0.00000000000000000D+00  0.00000000000000000D+00  1.07278073717672900D-01
57 23  1.07278073717672900D-01  1.07278073717672700D-01  0.00000000000000000D+00  0.00000000000000000D+00  0.00000000000000000D+00
57 24  0.00000000000000000D+00  0.00000000000000000D+00  0.00000000000000000D+00  0.00000000000000000D+00  0.00000000000000000D+00
57 25  0.00000000000000000D+00  0.00000000000000000D+00  0.00000000000000000D+00  0.00000000000000000D+00  0.00000000000000000D+00
57 26  0.00000000000000000D+00  0.00000000000000000D+00  0.00000000000000000D+00  6.65458835954717800D-05  6.65458835954838300D-05
57 27  6.65458835956443300D-05  0.00000000000000000D+00  0.00000000000000000D+00  0.00000000000000000D+00  0.00000000000000000D+00
57 28  0.00000000000000000D+00  0.00000000000000000D+00  0.00000000000000000D+00  0.00000000000000000D+00  0.00000000000000000D+00
57 29  0.00000000000000000D+00  0.00000000000000000D+00  0.00000000000000000D+00  0.00000000000000000D+00  0.00000000000000000D+00
57 30  0.00000000000000000D+00  0.00000000000000000D+00  0.00000000000000000D+00  0.00000000000000000D+00  0.00000000000000000D+00
57 31  0.00000000000000000D+00  0.00000000000000000D+00  0.00000000000000000D+00  0.00000000000000000D+00  0.00000000000000000D+00
57 32  0.00000000000000000D+00  0.00000000000000000D+00  0.00000000000000000D+00  0.00000000000000000D+00  0.00000000000000000D+00
58  1  0.00000000000000000D+00  0.00000000000000000D+00  0.00000000000000000D+00  0.00000000000000000D+00  0.00000000000000000D+00
58  2  0.00000000000000000D+00  0.00000000000000000D+00  0.00000000000000000D+00  0.00000000000000000D+00  0.00000000000000000D+00
58  3  0.00000000000000000D+00  0.00000000000000000D+00  0.00000000000000000D+00  0.00000000000000000D+00  0.00000000000000000D+00
58  4  0.00000000000000000D+00  0.00000000000000000D+00  0.00000000000000000D+00  0.00000000000000000D+00  0.00000000000000000D+00
58  5  0.00000000000000000D+00  0.00000000000000000D+00  0.00000000000000000D+00  0.00000000000000000D+00  0.00000000000000000D+00
58  6  0.00000000000000000D+00  0.00000000000000000D+00  0.00000000000000000D+00  0.00000000000000000D+00  0.00000000000000000D+00
58  7  0.00000000000000000D+00  0.00000000000000000D+00  0.00000000000000000D+00  0.00000000000000000D+00  0.00000000000000000D+00
58  8  0.00000000000000000D+00  0.00000000000000000D+00  0.00000000000000000D+00  0.00000000000000000D+00 -1.45093784303377100D-07
58  9 -1.45093784357460400D-07 -1.45093784353837500D-07  0.00000000000000000D+00  0.00000000000000000D+00  0.00000000000000000D+00
58 10  0.00000000000000000D+00  0.00000000000000000D+00  0.00000000000000000D+00  0.00000000000000000D+00  0.00000000000000000D+00
58 11  0.00000000000000000D+00  0.00000000000000000D+00  0.00000000000000000D+00  0.00000000000000000D+00 -2.80727491696499800D-02
58 12 -2.80727491696501500D-02 -2.80727491696501700D-02  0.00000000000000000D+00  0.00000000000000000D+00  0.00000000000000000D+00
58 13  0.00000000000000000D+00  0.00000000000000000D+00  0.00000000000000000D+00  0.00000000000000000D+00  0.00000000000000000D+00
58 14  0.00000000000000000D+00  0.00000000000000000D+00  0.00000000000000000D+00  0.00000000000000000D+00 -3.58149781160848000D-02
58 15 -3.58149781160847300D-02 -3.58149781160847000D-02  0.00000000000000000D+00  0.00000000000000000D+00  0.00000000000000000D+00
58 16  0.00000000000000000D+00  0.00000000000000000D+00  0.00000000000000000D+00  0.00000000000000000D+00  0.00000000000000000D+00
58 17  0.00000000000000000D+00  0.00000000000000000D+00  0.00000000000000000D+00  0.00000000000000000D+00 -3.48352846145057500D-01
58 18 -3.48352846145057600D-01 -3.48352846145057700D-01  0.00000000000000000D+00  0.00000000000000000D+00  0.00000000000000000D+00
58 19  0.00000000000000000D+00  0.00000000000000000D+00  0.00000000000000000D+00  0.00000000000000000D+00  0.00000000000000000D+00
58 20  0.00000000000000000D+00  0.00000000000000000D+00  0.00000000000000000D+00  0.00000000000000000D+00  0.00000000000000000D+00
58 21  0.00000000000000000D+00  0.00000000000000000D+00  0.00000000000000000D+00 -1.35009759971275800D-01 -1.35009759971276100D-01
58 22 -1.35009759971276000D-01  0.00000000000000000D+00  0.00000000000000000D+00  0.00000000000000000D+00  2.41561265414587000D-01
58 23  2.41561265414587000D-01  2.41561265414587100D-01  0.00000000000000000D+00  0.00000000000000000D+00  0.00000000000000000D+00
58 24  0.00000000000000000D+00  0.00000000000000000D+00  0.00000000000000000D+00  0.00000000000000000D+00  0.00000000000000000D+00
58 25  0.00000000000000000D+00  0.00000000000000000D+00  0.00000000000000000D+00  0.00000000000000000D+00  0.00000000000000000D+00
58 26  0.00000000000000000D+00  0.00000000000000000D+00  0.00000000000000000D+00  1.49809945726441400D-04  1.49809945726297200D-04
58 27  1.49809945726296400D-04  0.00000000000000000D+00  0.00000000000000000D+00  0.00000000000000000D+00  0.00000000000000000D+00
58 28  0.00000000000000000D+00  0.00000000000000000D+00  0.00000000000000000D+00  0.00000000000000000D+00  0.00000000000000000D+00
58 29  0.00000000000000000D+00  0.00000000000000000D+00  0.00000000000000000D+00  0.00000000000000000D+00  0.00000000000000000D+00
58 30  0.00000000000000000D+00  0.00000000000000000D+00  0.00000000000000000D+00  0.00000000000000000D+00  0.00000000000000000D+00
58 31  0.00000000000000000D+00  0.00000000000000000D+00  0.00000000000000000D+00  0.00000000000000000D+00  0.00000000000000000D+00
58 32  0.00000000000000000D+00  0.00000000000000000D+00  0.00000000000000000D+00  0.00000000000000000D+00  0.00000000000000000D+00
59  1  0.00000000000000000D+00  0.00000000000000000D+00  0.00000000000000000D+00  0.00000000000000000D+00  0.00000000000000000D+00
59  2  0.00000000000000000D+00  0.00000000000000000D+00  0.00000000000000000D+00  0.00000000000000000D+00  0.00000000000000000D+00
59  3  0.00000000000000000D+00  0.00000000000000000D+00  0.00000000000000000D+00  0.00000000000000000D+00  0.00000000000000000D+00
59  4  0.00000000000000000D+00  0.00000000000000000D+00  0.00000000000000000D+00  0.00000000000000000D+00  0.00000000000000000D+00
59  5  0.00000000000000000D+00  0.00000000000000000D+00  0.00000000000000000D+00  0.00000000000000000D+00  0.00000000000000000D+00
59  6  0.00000000000000000D+00  0.00000000000000000D+00  0.00000000000000000D+00  0.00000000000000000D+00  0.00000000000000000D+00
59  7  0.00000000000000000D+00  0.00000000000000000D+00  0.00000000000000000D+00  0.00000000000000000D+00  0.00000000000000000D+00
59  8  0.00000000000000000D+00  0.00000000000000000D+00  0.00000000000000000D+00  0.00000000000000000D+00  0.00000000000000000D+00
59  9  0.00000000000000000D+00  0.00000000000000000D+00  0.00000000000000000D+00  0.00000000000000000D+00  0.00000000000000000D+00
59 10  0.00000000000000000D+00  0.00000000000000000D+00  0.00000000000000000D+00  0.00000000000000000D+00  0.00000000000000000D+00
59 11  0.00000000000000000D+00  0.00000000000000000D+00  0.00000000000000000D+00  0.00000000000000000D+00  0.00000000000000000D+00
59 12  0.00000000000000000D+00  0.00000000000000000D+00  0.00000000000000000D+00  0.00000000000000000D+00  0.00000000000000000D+00
59 13  0.00000000000000000D+00  0.00000000000000000D+00  0.00000000000000000D+00  0.00000000000000000D+00  0.00000000000000000D+00
59 14  0.00000000000000000D+00  0.00000000000000000D+00  0.00000000000000000D+00  0.00000000000000000D+00  0.00000000000000000D+00
59 15  0.00000000000000000D+00  0.00000000000000000D+00  0.00000000000000000D+00  0.00000000000000000D+00  0.00000000000000000D+00
59 16  0.00000000000000000D+00  0.00000000000000000D+00  0.00000000000000000D+00  0.00000000000000000D+00  0.00000000000000000D+00
59 17  0.00000000000000000D+00  0.00000000000000000D+00  0.00000000000000000D+00  0.00000000000000000D+00  0.00000000000000000D+00
59 18  0.00000000000000000D+00  0.00000000000000000D+00  0.00000000000000000D+00  0.00000000000000000D+00  0.00000000000000000D+00
59 19  0.00000000000000000D+00  0.00000000000000000D+00  0.00000000000000000D+00  0.00000000000000000D+00  0.00000000000000000D+00
59 20  0.00000000000000000D+00  0.00000000000000000D+00  0.00000000000000000D+00  0.00000000000000000D+00  0.00000000000000000D+00
59 21  0.00000000000000000D+00  0.00000000000000000D+00  0.00000000000000000D+00  0.00000000000000000D+00  0.00000000000000000D+00
59 22  0.00000000000000000D+00  0.00000000000000000D+00  0.00000000000000000D+00  0.00000000000000000D+00  0.00000000000000000D+00
59 23  0.00000000000000000D+00  0.00000000000000000D+00  0.00000000000000000D+00  0.00000000000000000D+00  0.00000000000000000D+00
59 24  0.00000000000000000D+00  0.00000000000000000D+00  0.00000000000000000D+00  0.00000000000000000D+00  0.00000000000000000D+00
59 25  0.00000000000000000D+00  0.00000000000000000D+00  0.00000000000000000D+00  0.00000000000000000D+00  0.00000000000000000D+00
59 26  0.00000000000000000D+00  0.00000000000000000D+00  0.00000000000000000D+00  0.00000000000000000D+00  0.00000000000000000D+00
59 27  0.00000000000000000D+00  0.00000000000000000D+00  0.00000000000000000D+00  0.00000000000000000D+00  4.47213595499956800D-01
59 28  4.47213595499956800D-01  4.47213595499956800D-01  0.00000000000000000D+00  0.00000000000000000D+00  0.00000000000000000D+00
59 29  0.00000000000000000D+00  0.00000000000000000D+00  0.00000000000000000D+00  0.00000000000000000D+00  0.00000000000000000D+00
59 30  0.00000000000000000D+00  0.00000000000000000D+00  0.00000000000000000D+00  0.00000000000000000D+00  0.00000000000000000D+00
59 31  0.00000000000000000D+00  0.00000000000000000D+00  0.00000000000000000D+00  0.00000000000000000D+00  0.00000000000000000D+00
59 32  0.00000000000000000D+00  0.00000000000000000D+00  0.00000000000000000D+00  0.00000000000000000D+00  0.00000000000000000D+00
60  1  0.00000000000000000D+00  0.00000000000000000D+00  0.00000000000000000D+00  0.00000000000000000D+00  0.00000000000000000D+00
60  2  0.00000000000000000D+00  0.00000000000000000D+00  0.00000000000000000D+00  0.00000000000000000D+00 -2.10291375193552200D-01
60  3 -2.10291375193552600D-01 -2.10291375193552400D-01  0.00000000000000000D+00  0.00000000000000000D+00  0.00000000000000000D+00
60  4  0.00000000000000000D+00  0.00000000000000000D+00  0.00000000000000000D+00  0.00000000000000000D+00  0.00000000000000000D+00
60  5  0.00000000000000000D+00  0.00000000000000000D+00  0.00000000000000000D+00  0.00000000000000000D+00  1.38189335545501000D-01
60  6  1.38189335545500900D-01  1.38189335545501100D-01  0.00000000000000000D+00  0.00000000000000000D+00  0.00000000000000000D+00
60  7  0.00000000000000000D+00  0.00000000000000000D+00  0.00000000000000000D+00  0.00000000000000000D+00  0.00000000000000000D+00
60  8  0.00000000000000000D+00  0.00000000000000000D+00  0.00000000000000000D+00  0.00000000000000000D+00 -1.33769390441726600D-01
60  9 -1.33769390441727000D-01 -1.33769390441726900D-01  0.00000000000000000D+00  0.00000000000000000D+00  0.00000000000000000D+00
60 10  0.00000000000000000D+00  0.00000000000000000D+00  0.00000000000000000D+00  0.00000000000000000D+00  0.00000000000000000D+00
60 11  0.00000000000000000D+00  0.00000000000000000D+00  0.00000000000000000D+00  0.00000000000000000D+00 -2.89827689238513400D-01
60 12 -2.89827689238513300D-01 -2.89827689238513200D-01  0.00000000000000000D+00  0.00000000000000000D+00  0.00000000000000000D+00
60 13  0.00000000000000000D+00  0.00000000000000000D+00  0.00000000000000000D+00  0.00000000000000000D+00  0.00000000000000000D+00
60 14  0.00000000000000000D+00  0.00000000000000000D+00  0.00000000000000000D+00  0.00000000000000000D+00  1.41710827877425800D-01
60 15  1.41710827877426000D-01  1.41710827877425900D-01  0.00000000000000000D+00  0.00000000000000000D+00  0.00000000000000000D+00
60 16  0.00000000000000000D+00  0.00000000000000000D+00  0.00000000000000000D+00  0.00000000000000000D+00  0.00000000000000000D+00
60 17  0.00000000000000000D+00  0.00000000000000000D+00  0.00000000000000000D+00  0.00000000000000000D+00 -4.37656683470330800D-02
60 18 -4.37656683470337600D-02 -4.37656683470332200D-02  0.00000000000000000D+00  0.00000000000000000D+00  0.00000000000000000D+00
60 19  0.00000000000000000D+00  0.00000000000000000D+00  0.00000000000000000D+00  0.00000000000000000D+00  0.00000000000000000D+00
60 20  0.00000000000000000D+00  0.00000000000000000D+00  0.00000000000000000D+00  0.00000000000000000D+00  0.00000000000000000D+00
60 21  0.00000000000000000D+00  0.00000000000000000D+00  0.00000000000000000D+00 -4.77915432684953200D-02 -4.77915432684956800D-02
60 22 -4.77915432684958400D-02  0.00000000000000000D+00  0.00000000000000000D+00  0.00000000000000000D+00 -1.02496232520433800D-01
60 23 -1.02496232520433600D-01 -1.02496232520433400D-01  0.00000000000000000D+00  0.00000000000000000D+00  0.00000000000000000D+00
60 24  0.00000000000000000D+00  0.00000000000000000D+00  0.00000000000000000D+00  0.00000000000000000D+00  0.00000000000000000D+00
60 25  0.00000000000000000D+00  0.00000000000000000D+00  0.00000000000000000D+00  0.00000000000000000D+00  0.00000000000000000D+00
60 26  0.00000000000000000D+00  0.00000000000000000D+00  0.00000000000000000D+00 -6.35592124439983300D-05 -6.35592124436798700D-05
60 27 -6.35592124440472600D-05  0.00000000000000000D+00  0.00000000000000000D+00  0.00000000000000000D+00  0.00000000000000000D+00
60 28  0.00000000000000000D+00  0.00000000000000000D+00  0.00000000000000000D+00  0.00000000000000000D+00  0.00000000000000000D+00
60 29  0.00000000000000000D+00  0.00000000000000000D+00  0.00000000000000000D+00  0.00000000000000000D+00  0.00000000000000000D+00
60 30  0.00000000000000000D+00  0.00000000000000000D+00  0.00000000000000000D+00  0.00000000000000000D+00  0.00000000000000000D+00
60 31  0.00000000000000000D+00  0.00000000000000000D+00  0.00000000000000000D+00  0.00000000000000000D+00  0.00000000000000000D+00
60 32  0.00000000000000000D+00  0.00000000000000000D+00  0.00000000000000000D+00  0.00000000000000000D+00  0.00000000000000000D+00
 $END