 $CONTRL SCFTYP=MCSCF RUNTYP=ENERGY ICHARG=0 MULT=1 MPLEVL=2 EXETYP=RUN
      INTTYP=HONDO ICUT=13 ITOL=30 D5=.T. MAXIT=100 GENCON=.F. WIDE=1 FSTINT=.T.
 $END
 $SYSTEM TIMLIM=60000 MWORDS=200 MASMEM=200000000 MXBCST=-1 KDIAG=0 NOJAC=1 $END
 $MOORTH NOSTF=.T. NOZERO=.T. SYMS=.T. SYMDEN=.T. SYMVEC=.T. SYMVX=.T.
      TOLE=0.0D0 TOLZ=0.0D0 $END
 $GUESS GUESS=MOREAD NORB=160 IORDER(22)=-23 IORDER(32)=-45 NORDER=1 $END
 $DET NCORE=22 NACT=10 NELS=12 CVGTOL=1D-8 ITERMX=1000 NSTATE=15
      WSTATE(1)=1,1,1,1,1 $END
 $MCSCF MAXIT=200 ACURCY=5D-3 CISTEP=ALDET ENGTOL=1D-3 IFORB=1 ISTATE=1
      SOSCF=.T. $END
 $XMCQDPT NSTATE=5 EDSHFT=2D-2 GENZRO=1D-20 ISTATE(1)=1 THRCON=1D-8 THRERI=1D-20
      THRGEN=1D-20 WSTATE(1)=1,1,1,1,1 $END
 $MCQGENS GEN1=3 GEN2=3 GEN3=1 USEGEN1=.T. $END
 $DATA
p_bq XMCQDPT2/ALDET-CASSCF(12,10) Andrew-style geometry
C1
C      6.0    -0.0000070444     1.4472839560     0.0000000000
S   8
  1    6665.0000000       0.0006920
  2    1000.0000000       0.0053290
  3     228.0000000       0.0270770
  4      64.7100000       0.1017180
  5      21.0600000       0.2747400
  6       7.4950000       0.4485640
  7       2.7970000       0.2850740
  8       0.5215000       0.0152040
S   8
  1    6665.0000000      -0.0001460
  2    1000.0000000      -0.0011540
  3     228.0000000      -0.0057250
  4      64.7100000      -0.0233120
  5      21.0600000      -0.0639550
  6       7.4950000      -0.1499810
  7       2.7970000      -0.1272620
  8       0.5215000       0.5445290
S   1
  1       0.1596000       1.0000000
P   3
  1       9.4390000       0.0381090
  2       2.0020000       0.2094800
  3       0.5456000       0.5085570
P   1
  1       0.1517000       1.0000000
D   1
  1       0.5500000       1.0000000

C      6.0     1.2722727442     0.6794593562     0.0000000000
S   8
  1    6665.0000000       0.0006920
  2    1000.0000000       0.0053290
  3     228.0000000       0.0270770
  4      64.7100000       0.1017180
  5      21.0600000       0.2747400
  6       7.4950000       0.4485640
  7       2.7970000       0.2850740
  8       0.5215000       0.0152040
S   8
  1    6665.0000000      -0.0001460
  2    1000.0000000      -0.0011540
  3     228.0000000      -0.0057250
  4      64.7100000      -0.0233120
  5      21.0600000      -0.0639550
  6       7.4950000      -0.1499810
  7       2.7970000      -0.1272620
  8       0.5215000       0.5445290
S   1
  1       0.1596000       1.0000000
P   3
  1       9.4390000       0.0381090
  2       2.0020000       0.2094800
  3       0.5456000       0.5085570
P   1
  1       0.1517000       1.0000000
D   1
  1       0.5500000       1.0000000

C      6.0     1.2722714959    -0.6794646139     0.0000000000
S   8
  1    6665.0000000       0.0006920
  2    1000.0000000       0.0053290
  3     228.0000000       0.0270770
  4      64.7100000       0.1017180
  5      21.0600000       0.2747400
  6       7.4950000       0.4485640
  7       2.7970000       0.2850740
  8       0.5215000       0.0152040
S   8
  1    6665.0000000      -0.0001460
  2    1000.0000000      -0.0011540
  3     228.0000000      -0.0057250
  4      64.7100000      -0.0233120
  5      21.0600000      -0.0639550
  6       7.4950000      -0.1499810
  7       2.7970000      -0.1272620
  8       0.5215000       0.5445290
S   1
  1       0.1596000       1.0000000
P   3
  1       9.4390000       0.0381090
  2       2.0020000       0.2094800
  3       0.5456000       0.5085570
P   1
  1       0.1517000       1.0000000
D   1
  1       0.5500000       1.0000000

C      6.0     0.0000049299    -1.4472833292     0.0000000000
S   8
  1    6665.0000000       0.0006920
  2    1000.0000000       0.0053290
  3     228.0000000       0.0270770
  4      64.7100000       0.1017180
  5      21.0600000       0.2747400
  6       7.4950000       0.4485640
  7       2.7970000       0.2850740
  8       0.5215000       0.0152040
S   8
  1    6665.0000000      -0.0001460
  2    1000.0000000      -0.0011540
  3     228.0000000      -0.0057250
  4      64.7100000      -0.0233120
  5      21.0600000      -0.0639550
  6       7.4950000      -0.1499810
  7       2.7970000      -0.1272620
  8       0.5215000       0.5445290
S   1
  1       0.1596000       1.0000000
P   3
  1       9.4390000       0.0381090
  2       2.0020000       0.2094800
  3       0.5456000       0.5085570
P   1
  1       0.1517000       1.0000000
D   1
  1       0.5500000       1.0000000

C      6.0    -1.2722755849    -0.6794594567     0.0000000000
S   8
  1    6665.0000000       0.0006920
  2    1000.0000000       0.0053290
  3     228.0000000       0.0270770
  4      64.7100000       0.1017180
  5      21.0600000       0.2747400
  6       7.4950000       0.4485640
  7       2.7970000       0.2850740
  8       0.5215000       0.0152040
S   8
  1    6665.0000000      -0.0001460
  2    1000.0000000      -0.0011540
  3     228.0000000      -0.0057250
  4      64.7100000      -0.0233120
  5      21.0600000      -0.0639550
  6       7.4950000      -0.1499810
  7       2.7970000      -0.1272620
  8       0.5215000       0.5445290
S   1
  1       0.1596000       1.0000000
P   3
  1       9.4390000       0.0381090
  2       2.0020000       0.2094800
  3       0.5456000       0.5085570
P   1
  1       0.1517000       1.0000000
D   1
  1       0.5500000       1.0000000

C      6.0    -1.2722682080     0.6794630315     0.0000000000
S   8
  1    6665.0000000       0.0006920
  2    1000.0000000       0.0053290
  3     228.0000000       0.0270770
  4      64.7100000       0.1017180
  5      21.0600000       0.2747400
  6       7.4950000       0.4485640
  7       2.7970000       0.2850740
  8       0.5215000       0.0152040
S   8
  1    6665.0000000      -0.0001460
  2    1000.0000000      -0.0011540
  3     228.0000000      -0.0057250
  4      64.7100000      -0.0233120
  5      21.0600000      -0.0639550
  6       7.4950000      -0.1499810
  7       2.7970000      -0.1272620
  8       0.5215000       0.5445290
S   1
  1       0.1596000       1.0000000
P   3
  1       9.4390000       0.0381090
  2       2.0020000       0.2094800
  3       0.5456000       0.5085570
P   1
  1       0.1517000       1.0000000
D   1
  1       0.5500000       1.0000000

O      8.0     0.0000007220     2.6882810988     0.0000000000
S   8
  1   11720.0000000       0.0007100
  2    1759.0000000       0.0054700
  3     400.8000000       0.0278370
  4     113.7000000       0.1048000
  5      37.0300000       0.2830620
  6      13.2700000       0.4487190
  7       5.0250000       0.2709520
  8       1.0130000       0.0154580
S   8
  1   11720.0000000      -0.0001600
  2    1759.0000000      -0.0012630
  3     400.8000000      -0.0062670
  4     113.7000000      -0.0257160
  5      37.0300000      -0.0709240
  6      13.2700000      -0.1654110
  7       5.0250000      -0.1169550
  8       1.0130000       0.5573680
S   1
  1       0.3023000       1.0000000
S   1
  1       0.0789600       1.0000000
P   3
  1      17.7000000       0.0430180
  2       3.8540000       0.2289130
  3       1.0460000       0.5087280
P   1
  1       0.2753000       1.0000000
P   1
  1       0.0685600       1.0000000
D   1
  1       1.1850000       1.0000000
D   1
  1       0.3320000       1.0000000

O      8.0    -0.0000006154    -2.6882817993     0.0000000000
S   8
  1   11720.0000000       0.0007100
  2    1759.0000000       0.0054700
  3     400.8000000       0.0278370
  4     113.7000000       0.1048000
  5      37.0300000       0.2830620
  6      13.2700000       0.4487190
  7       5.0250000       0.2709520
  8       1.0130000       0.0154580
S   8
  1   11720.0000000      -0.0001600
  2    1759.0000000      -0.0012630
  3     400.8000000      -0.0062670
  4     113.7000000      -0.0257160
  5      37.0300000      -0.0709240
  6      13.2700000      -0.1654110
  7       5.0250000      -0.1169550
  8       1.0130000       0.5573680
S   1
  1       0.3023000       1.0000000
S   1
  1       0.0789600       1.0000000
P   3
  1      17.7000000       0.0430180
  2       3.8540000       0.2289130
  3       1.0460000       0.5087280
P   1
  1       0.2753000       1.0000000
P   1
  1       0.0685600       1.0000000
D   1
  1       1.1850000       1.0000000
D   1
  1       0.3320000       1.0000000

H      1.0     2.1960808507     1.2673950165     0.0000000000
S   3
  1      13.0100000       0.0196850
  2       1.9620000       0.1379770
  3       0.4446000       0.4781480
S   1
  1       0.1220000       1.0000000
P   1
  1       0.7270000       1.0000000

H      1.0     2.1960769278    -1.2673919500     0.0000000000
S   3
  1      13.0100000       0.0196850
  2       1.9620000       0.1379770
  3       0.4446000       0.4781480
S   1
  1       0.1220000       1.0000000
P   1
  1       0.7270000       1.0000000

H      1.0    -2.1960786111    -1.2673937702     0.0000000000
S   3
  1      13.0100000       0.0196850
  2       1.9620000       0.1379770
  3       0.4446000       0.4781480
S   1
  1       0.1220000       1.0000000
P   1
  1       0.7270000       1.0000000

H      1.0    -2.1960776068     1.2673924603     0.0000000000
S   3
  1      13.0100000       0.0196850
  2       1.9620000       0.1379770
  3       0.4446000       0.4781480
S   1
  1       0.1220000       1.0000000
P   1
  1       0.7270000       1.0000000

 $END
 $VEC
 1  1  4.62026948593801300D-01  1.72114387219784200D-03 -4.52079381619881600D-03 -1.55897235299685800D-07  1.49404000349356500D-04
 1  2  0.00000000000000000D+00  1.25353739019944100D-05 -3.30037852089088000D-03  0.00000000000000000D+00 -1.89056047021963400D-04
 1  3  5.62303425321622300D-04 -3.73247378299081900D-04  1.05417867710002200D-06  0.00000000000000000D+00  0.00000000000000000D+00
 1  4  9.75197123501650100D-04  2.48131750689292100D-04 -2.71846297294165100D-03 -6.91631638433338400D-05 -6.96031822044361500D-06
 1  5  0.00000000000000000D+00  8.59836436688766600D-04  1.86990865349656800D-03  0.00000000000000000D+00 -3.37629100184488800D-04
 1  6  9.21254354530988200D-05  2.45503664731604700D-04 -2.01941682268443000D-04  0.00000000000000000D+00  0.00000000000000000D+00
 1  7  6.19742840372351700D-03 -1.90270293127270600D-04  2.55355094422489100D-03  5.56959352688290900D-05 -4.62350344612713300D-06
 1  8  0.00000000000000000D+00 -7.48992343853885400D-04  1.81724592165023100D-03  0.00000000000000000D+00  3.40650715866625400D-04
 1  9 -9.17650979026466800D-05 -2.48885617964232500D-04 -1.82058013679228800D-04  0.00000000000000000D+00  0.00000000000000000D+00
 1 10 -5.15371766480091900D-01 -2.02120116691098700D-03  4.69846353453069500D-03 -1.74469316241050600D-07  2.21899342829999000D-04
 1 11  0.00000000000000000D+00  9.54385459327677000D-06 -2.93783035924198100D-03  0.00000000000000000D+00  1.66752964419905800D-04
 1 12 -5.78098651050384500D-04  4.11345686630548100D-04 -7.04657994012538900D-07  0.00000000000000000D+00  0.00000000000000000D+00
 1 13  1.27578903277159600D-03 -2.10371342578138500D-04  2.59218281824483900D-03 -5.68698998814135400D-05 -4.23409391090386800D-06
 1 14  0.00000000000000000D+00  7.55116856049816100D-04  1.80902285199126400D-03  0.00000000000000000D+00  3.40967640328670700D-04
 1 15 -9.22925585661561900D-05 -2.48675081762470300D-04  1.81365458907795800D-04  0.00000000000000000D+00  0.00000000000000000D+00
 1 16 -4.95290944903913400D-03  2.23083793490956800D-04 -2.66553948581766400D-03  6.77442729164094900D-05 -7.37260112406404200D-06
 1 17  0.00000000000000000D+00 -8.49553831252904100D-04  1.87758655746394200D-03  0.00000000000000000D+00 -3.37670830325571900D-04
 1 18  9.11853769857881000D-05  2.46485453339870900D-04  2.02947525604049000D-04  0.00000000000000000D+00  0.00000000000000000D+00
 1 19 -5.36936600077411200D-01 -9.02237249900768200D-04  3.98575979610797000D-03  1.70399565992153500D-03  1.29564401490084600D-07
 1 20  7.41269322340112300D-04  0.00000000000000000D+00 -2.18920186940528200D-06 -9.60689013074410200D-04  0.00000000000000000D+00
 1 21  3.45715213626420900D-07 -8.61830468794120100D-04  0.00000000000000000D+00 -7.56385376247698400D-05  3.26785676218751600D-06
 1 22  7.23706808629206400D-05 -9.30739603851577400D-08  0.00000000000000000D+00  0.00000000000000000D+00 -9.23500406920897500D-05
 1 23 -8.90822790761093500D-05  1.81432319768259100D-04  7.07798215644185100D-07  0.00000000000000000D+00  0.00000000000000000D+00
 1 24  4.85788872270527300D-01  7.42787929507071500D-04 -3.43913455653665400D-03 -1.65872962659894200D-03  8.94961103314966900D-08
 1 25  6.27035950041969600D-04  0.00000000000000000D+00 -1.54465143182193000D-06 -6.93032702572986300D-04  0.00000000000000000D+00
 1 26  4.07521834705155300D-07 -8.77673827025243200D-04  0.00000000000000000D+00  8.18371908393443400D-05 -3.03861799908867300D-05
 1 27 -5.14510108483862800D-05  7.92436966071132900D-08  0.00000000000000000D+00  0.00000000000000000D+00  4.83198497397437100D-05
 1 28  1.90106158380519500D-04 -2.38426008120260400D-04 -4.28880279933996400D-07  0.00000000000000000D+00  0.00000000000000000D+00
 1 29  1.62204426380139800D-04 -6.65524220359019700D-04 -1.23732987611396700D-04 -1.32417636225718700D-04  0.00000000000000000D+00
 1 30 -1.65921692725635000D-04  6.31770564983396300D-04  1.22300372245086600D-04 -1.33014678364680400D-04  0.00000000000000000D+00
 1 31 -1.65592848137641000D-04  6.26498120932585700D-04 -1.20926927567685600D-04 -1.32285855473035900D-04  0.00000000000000000D+00
 1 32  1.63101954727129700D-04 -6.70979238907855600D-04  1.25630293325983900D-04 -1.33486644779947100D-04  0.00000000000000000D+00
 2  1 -5.36708824397090000D-01 -2.96892928290439200D-03  1.91998595867230000D-03  2.94688592821483200D-07 -7.01268683385707900D-04
 2  2  0.00000000000000000D+00  2.74944381417262000D-05 -3.19431498885415300D-03  0.00000000000000000D+00 -1.95384244466104100D-04
 2  3 -1.79982403186438700D-04  3.75366647652702200D-04  3.34543298867357000D-06  0.00000000000000000D+00  0.00000000000000000D+00
 2  4  2.44798861583971100D-03  2.71791034340100600D-04 -9.23406435640008300D-04 -1.10859997383498300D-04 -2.92059760378991900D-05
 2  5  0.00000000000000000D+00  9.21605820637166500D-04  4.93093895448018300D-04  0.00000000000000000D+00  5.02948228224758300D-05
 2  6 -1.28522383645840300D-05 -3.74425844578824300D-05 -1.89126100007205400D-04  0.00000000000000000D+00  0.00000000000000000D+00
 2  7 -9.02083027986475300D-03  2.39568456171099900D-04 -1.03677605117210600D-03 -1.14683560262650500D-04  3.00390509957598500D-05
 2  8  0.00000000000000000D+00  9.58520695104545100D-04 -6.77599383939168700D-04  0.00000000000000000D+00  1.09492117321488600D-05
 2  9 -7.98052036713023300D-06 -2.96869136517117000D-06  2.12438955402464000D-04  0.00000000000000000D+00  0.00000000000000000D+00
 2 10 -4.85404148972046900D-01 -2.77180898865201500D-03  1.43685962648075500D-03 -1.47566809297887300D-07  6.81505264210611100D-04
 2 11  0.00000000000000000D+00 -3.74536959659228200D-05  3.51593973366459200D-03  0.00000000000000000D+00 -2.13730332623858900D-04
 2 12 -1.20320988552529700D-04  3.34051321176382200D-04  4.12463918733993600D-06  0.00000000000000000D+00  0.00000000000000000D+00
 2 13  4.38428361387676300D-03  3.03591359819771000D-04 -1.21362830051709700D-03  1.17896448395914700D-04  2.96427401586829000D-05
 2 14  0.00000000000000000D+00 -1.00761284429774700D-03 -6.80435997886013500D-04  0.00000000000000000D+00  1.47338786561697000D-05
 2 15 -3.13162059637091800D-06 -1.16022580598314100D-05 -2.08678509445969400D-04  0.00000000000000000D+00  0.00000000000000000D+00
 2 16 -6.06215264322269900D-03  2.28127044881276500D-04 -7.87861679956982200D-04  1.08811065521498300D-04 -2.92427209422484600D-05
 2 17  0.00000000000000000D+00 -8.79921575601554800D-04  4.83105242862019300D-04  0.00000000000000000D+00  4.63763171787088500D-05
 2 18 -1.70325868897199200D-05 -2.93437302890371800D-05  1.92122612520409700D-04  0.00000000000000000D+00  0.00000000000000000D+00
 2 19 -4.63110913040516900D-01 -1.47173062571197800D-03  4.98710273311480500D-03  2.63716270654657800D-04  3.67371838516969100D-07
 2 20  1.05631873539940200D-03  0.00000000000000000D+00 -6.11613498592967200D-06 -2.49145672162492600D-03  0.00000000000000000D+00
 2 21 -8.26507832169313200D-07  2.38370458886581400D-04  0.00000000000000000D+00  6.42061392856388500D-05 -2.61183836216208200D-04
 2 22  1.96977696930978900D-04 -1.21055195242328400D-07  0.00000000000000000D+00  0.00000000000000000D+00 -4.20193875244792700D-04
 2 23  9.70350673732721100D-04 -5.50156798488014000D-04  2.76125281818989700D-06  0.00000000000000000D+00  0.00000000000000000D+00
 2 24 -5.16197609848884100D-01 -1.55652883783818200D-03  5.37073598796792900D-03  4.38128582980324500D-04 -4.59935967226347800D-07
 2 25 -1.12707360896642900D-03  0.00000000000000000D+00  7.78307332989710600D-06  2.57595404433008400D-03  0.00000000000000000D+00
 2 26  4.83106816861975400D-07 -1.47872228720899300D-04  0.00000000000000000D+00  5.59535812923644500D-05 -2.59288454291301600D-04
 2 27  2.03334872998913400D-04 -1.99847588618157400D-07  0.00000000000000000D+00  0.00000000000000000D+00 -4.27290580592966400D-04
 2 28  9.55187487607757700D-04 -5.27896907014762000D-04  3.26646729481441200D-06  0.00000000000000000D+00  0.00000000000000000D+00
 2 29 -3.67715711353643800D-05 -3.43764119784620500D-04 -2.64864909081754800D-05  2.82263950659089300D-06  0.00000000000000000D+00
 2 30 -1.33629571624827900D-05 -4.12993920323197800D-04 -4.51078380733888600D-05  1.47637775432728700D-05  0.00000000000000000D+00
 2 31 -1.98074210044512900D-05 -4.08687679561216800D-04  3.86881340665187800D-05  1.06795391012232300D-05  0.00000000000000000D+00
 2 32 -3.08757649326574500D-05 -3.43236753699875700D-04  3.14338441207470200D-05 -4.52881714572246000D-07  0.00000000000000000D+00
 3  1  1.58339338664188000D-03  2.14241577634560600D-05 -7.64710324833942800D-04 -3.42011968004247100D-05  1.33542165214190700D-05
 3  2  0.00000000000000000D+00  6.51186651332712700D-04  7.98898652527292400D-04  0.00000000000000000D+00  3.91997613615247800D-05
 3  3  3.77094953043084500D-05 -7.69092566657098200D-05  6.59241487035169400D-06  0.00000000000000000D+00  0.00000000000000000D+00
 3  4  1.51294134573343300D-01  3.61366980709698700D-04  1.11526667147143500D-03 -3.88227003004616000D-05  3.83640073445260700D-05
 3  5  0.00000000000000000D+00 -7.51305627034921300D-04 -1.33308356536680100D-03  0.00000000000000000D+00 -1.05302787370867100D-04
 3  6 -8.73473667314448700D-05  1.92650154102368500D-04 -1.93360742436777800D-05  0.00000000000000000D+00  0.00000000000000000D+00
 3  7  7.69993593819333000D-01  3.47316492325652300D-03 -8.88511430070168500D-03 -1.80773562439496700D-04 -3.13768983138976400D-05
 3  8  0.00000000000000000D+00  2.18202994281778500D-03 -3.98542036187447900D-05  0.00000000000000000D+00  7.71568938806103000D-05
 3  9  2.20409910469643500D-04 -2.97566804350146400D-04 -1.59368474079042600D-04  0.00000000000000000D+00  0.00000000000000000D+00
 3 10 -3.85375313265683400D-04 -3.47149668929189500D-05  7.44237653722030100D-04 -1.85962112077887500D-05  2.35079515484937400D-05
 3 11  0.00000000000000000D+00  2.97955778780727900D-03  1.05117370816724200D-03  0.00000000000000000D+00 -5.71276537500931300D-05
 3 12 -3.34299164300850400D-05  9.05575701801564900D-05 -2.75179247724061400D-04  0.00000000000000000D+00  0.00000000000000000D+00
 3 13 -5.15536155518372400D-01 -2.16939306406382900D-03  4.24340602269525000D-03 -1.25627052440690400D-04  4.15454000601400500D-05
 3 14  0.00000000000000000D+00  7.94858948206243600D-04 -1.11604203937412600D-03  0.00000000000000000D+00 -3.59565142251493900D-05
 3 15 -6.34627395616537900D-05  9.94192537868565500D-05 -1.01399498067439600D-04  0.00000000000000000D+00  0.00000000000000000D+00
 3 16 -3.49674024273630900D-01 -1.42471401978619800D-03  3.05681411333585300D-03 -7.85319583455056000D-05 -1.87122409386552400D-05
 3 17  0.00000000000000000D+00  4.76224704112722100D-04  2.00449884904629700D-04  0.00000000000000000D+00  5.73056363512016100D-05
 3 18 -4.75869538281078600D-05 -9.71868252306705300D-06  3.74415438202954600D-05  0.00000000000000000D+00  0.00000000000000000D+00
 3 19 -7.00123166108381900D-08  3.86846911972986300D-05 -2.36100033209440900D-04 -3.14748881072878300D-04  2.75939076858600600D-06
 3 20  3.24124581722961400D-07  0.00000000000000000D+00 -5.55794304376059900D-05  8.23259450236507100D-05  0.00000000000000000D+00
 3 21  8.62611772951514300D-05  1.47051399341815600D-04  0.00000000000000000D+00 -1.02477285143707600D-07 -5.32191326357819400D-06
 3 22  5.42439054894574000D-06 -8.98174609659158300D-06  0.00000000000000000D+00  0.00000000000000000D+00 -2.75134842255480000D-06
 3 23 -9.11663190344039300D-06  1.18679803259822400D-05 -1.55709931720328200D-05  0.00000000000000000D+00  0.00000000000000000D+00
 3 24 -1.43207473828072300D-02 -8.90555531248788500D-05  4.38322808069550500D-04  4.66301448065162600D-04  3.18898987800983800D-05
 3 25 -2.73738640823355100D-05  0.00000000000000000D+00 -5.52921529063981400D-04  1.71343313008000400D-04  0.00000000000000000D+00
 3 26  3.93256049131419600D-05  2.19028134635651600D-04  0.00000000000000000D+00 -1.63136775900957700D-06  3.12132001617105300D-06
 3 27 -1.48995225715235300D-06  2.02403698192729200D-05  0.00000000000000000D+00  0.00000000000000000D+00 -1.74773303750131400D-07
 3 28  2.65592473412637100D-05 -2.63844740375185200D-05 -2.00083971532779100D-04  0.00000000000000000D+00  0.00000000000000000D+00
 3 29  1.28759852805417800D-04  5.44481375656491100D-04 -2.12829407657661800D-05 -1.63532645499473100D-05  0.00000000000000000D+00
 3 30 -2.35729975159884500D-04  3.30068247783713800D-04  2.97512579155522800D-04 -1.67390768624618300D-04  0.00000000000000000D+00
 3 31  8.52380788769169200D-05 -6.19696272685699000D-04  1.74573733527488200D-04  1.11954498780709300D-04  0.00000000000000000D+00
 3 32  7.44264442750796000D-06 -2.70296358697792200D-04  8.59694629107790200D-05 -3.21882133869706500D-05  0.00000000000000000D+00
 4  1 -4.21211155576825700D-03  4.39640625345891200D-05 -3.23335909117454200D-03  6.17331147379758300D-06  5.77090917437054900D-05
 4  2  0.00000000000000000D+00 -9.94190846932146200D-04  3.65515818516111600D-03  0.00000000000000000D+00  1.88697656200159800D-04
 4  3  1.56748857908270900D-04 -3.45446514108460800D-04 -9.18545350275748600D-05  0.00000000000000000D+00  0.00000000000000000D+00
 4  4 -6.88403072271062600D-01 -3.41271750195641900D-03  1.12916901016580000D-02  1.48084016824136200D-04  2.06625584989314100D-05
 4  5  0.00000000000000000D+00 -3.19617399970201400D-03 -2.14780670449078100D-03  0.00000000000000000D+00 -1.17036980205309500D-04
 4  6 -3.46828001538467000D-04  4.63864981743695900D-04 -1.79187101985630200D-04  0.00000000000000000D+00  0.00000000000000000D+00
 4  7  3.91341622741110100D-01  2.17812073063719600D-03 -8.78753445006664500D-03 -7.78867549617720200D-05  4.22711846882230200D-05
 4  8  0.00000000000000000D+00  2.74945644059001700D-03 -2.58398292485444200D-03  0.00000000000000000D+00  1.25172688735259100D-04
 4  9  3.06374300082552900D-04 -4.31546988817802800D-04 -1.32393093153938500D-04  0.00000000000000000D+00  0.00000000000000000D+00
 4 10  3.58192603793204600D-03 -4.83015390288525300D-05  3.23337682601047600D-03  1.13927202581685400D-05  5.90014154752277200D-05
 4 11  0.00000000000000000D+00 -2.15177260098186600D-04  3.66649840571805700D-03  0.00000000000000000D+00 -1.89423471954737200D-04
 4 12 -1.56673403603265200D-04  3.46096875557978900D-04  1.99697577606739500D-06  0.00000000000000000D+00  0.00000000000000000D+00
 4 13  5.57627448904367400D-01  2.77016159188434000D-03 -9.42595699061916900D-03  1.16822460862298200D-04  2.32774182284552700D-05
 4 14  0.00000000000000000D+00 -2.65540147223155900D-03 -2.07286240210198900D-03  0.00000000000000000D+00  7.08009621575502300D-05
 4 15  2.92898664695958900D-04 -3.63699626853497600D-04  1.38263601483400200D-04  0.00000000000000000D+00  0.00000000000000000D+00
 4 16 -2.59635683922358300D-01 -1.53047998806650300D-03  6.91061758179167900D-03 -4.58988927121467700D-05  4.49590927077648700D-05
 4 17  0.00000000000000000D+00  2.20221198014779900D-03 -2.50598242690502200D-03  0.00000000000000000D+00 -7.91658255676804800D-05
 4 18 -2.52033820761545200D-04  3.31199646329216600D-04  9.21465694766888800D-05  0.00000000000000000D+00  0.00000000000000000D+00
 4 19 -5.17375390930912600D-04  1.85585550226892100D-04 -1.10843283699622100D-03 -1.57236297802438000D-03 -1.06447742409147300D-05
 4 20  1.61309320930759500D-06  0.00000000000000000D+00  1.84551041201162400D-04  4.05886751568063300D-04  0.00000000000000000D+00
 4 21 -1.30604619704661500D-05  7.49907533699791100D-04  0.00000000000000000D+00  3.64310714059392800D-06 -2.70094988821271600D-05
 4 22  2.33663917412086200D-05  6.74994644655549900D-06  0.00000000000000000D+00  0.00000000000000000D+00 -2.37119758935532400D-05
 4 23 -4.01927827304630000D-05  6.39047586240039400D-05 -6.68082567077885000D-05  0.00000000000000000D+00  0.00000000000000000D+00
 4 24 -8.57680959033665700D-04 -1.89516203961622100D-04  1.12278577333200500D-03  1.57633120812562100D-03 -8.98014628381165500D-07
 4 25 -1.14053138431692600D-06  0.00000000000000000D+00  1.81539504425042400D-05  4.12294579101788800D-04  0.00000000000000000D+00
 4 26 -2.87631845644784300D-05  7.51202578885384400D-04  0.00000000000000000D+00 -3.61465956087169400D-06  2.65228072820465100D-05
 4 27 -2.29081477211359700D-05 -2.98284402564600100D-06  0.00000000000000000D+00  0.00000000000000000D+00  2.28889904130987400D-05
 4 28  4.21285888238583800D-05 -6.50175792369699200D-05 -5.34260015946104600D-06  0.00000000000000000D+00  0.00000000000000000D+00
 4 29  3.59871005903402700D-04  4.10465211391979500D-04 -3.24138679917033300D-04 -1.58697711417550800D-04  0.00000000000000000D+00
 4 30 -3.26795228236221100D-04 -7.05367310807231700D-04  2.34783968953658100D-04 -1.09557552728982900D-04  0.00000000000000000D+00
 4 31 -2.86064742410316300D-04 -4.34067993307371500D-04 -2.56034392650045800D-04 -1.14636639257720900D-04  0.00000000000000000D+00
 4 32  2.52640832046397200D-04  7.26910361907002500D-04  1.66594356308719900D-04 -6.54563906507563800D-05  0.00000000000000000D+00
 5  1 -6.85903785224895100D-03 -1.38830095334966000D-04  9.98526779958212200D-04 -2.48217406807527100D-06 -8.64794425841624400D-05
 5  2  0.00000000000000000D+00 -1.43423680790555200D-03 -3.22993134488793600D-03  0.00000000000000000D+00 -2.38854121564924800D-04
 5  3 -5.44610334656386900D-05  2.93315155030770300D-04 -1.52798233129870100D-04  0.00000000000000000D+00  0.00000000000000000D+00
 5  4  2.39328204782031300D-01  8.86092166229970500D-04 -1.31189418935146100D-03 -3.20673660643509100D-05  6.62288351149760800D-05
 5  5  0.00000000000000000D+00  4.01714466912863500D-04  1.88634802277692700D-04  0.00000000000000000D+00 -5.68432415624983000D-05
 5  6  1.05397008208009300D-04 -4.85537666453910600D-05 -8.12212654454020100D-06  0.00000000000000000D+00  0.00000000000000000D+00
 5  7  5.06210709039998200D-01  2.16730409253918100D-03 -4.60515777304515300D-03 -1.00154054838522900D-04 -8.07354011230247300D-05
 5  8  0.00000000000000000D+00  1.34728521177277300D-03  1.02926084364445700D-04  0.00000000000000000D+00  5.12157569871327700D-05
 5  9  1.92632480026904500D-04 -2.43848237014206900D-04 -7.74019730719012100D-05  0.00000000000000000D+00  0.00000000000000000D+00
 5 10 -5.56355778378807500D-03 -1.17449570151390900D-04  2.83756482158701400D-04  1.22264065231481500D-05  7.17338569818895700D-05
 5 11  0.00000000000000000D+00  7.64368561559111000D-04  2.42447251803092800D-03  0.00000000000000000D+00 -1.97180518314356100D-04
 5 12 -1.90489804809805000D-05  2.16229498795312900D-04 -1.00813202235613200D-04  0.00000000000000000D+00  0.00000000000000000D+00
 5 13  3.00610898272836000D-01  1.03186215091105400D-03 -7.13721597060372100D-04  4.99802335068287100D-05 -8.52431668835404400D-05
 5 14  0.00000000000000000D+00 -6.11279919246476800D-05  5.59580414306712300D-04  0.00000000000000000D+00 -8.35279580077774000D-05
 5 15  6.23643773657493000D-05  2.11635806418970200D-05 -1.14027564630139600D-05  0.00000000000000000D+00  0.00000000000000000D+00
 5 16  7.74536369265781000D-01  3.39212408220980700D-03 -7.98377364834474200D-03  1.60432034274205700D-04  8.57042215533158700D-05
 5 17  0.00000000000000000D+00 -2.18635912248402500D-03  1.63801874713303800D-04  0.00000000000000000D+00  6.87635514915248700D-05
 5 18  2.80710152033067900D-04 -3.49473703524494400D-04 -1.32127058886625200D-04  0.00000000000000000D+00  0.00000000000000000D+00
 5 19 -1.99126264038946500D-03 -3.35823340340176500D-04  1.48002954743981000D-03  2.15340872912685000D-03 -1.69495420258122100D-05
 5 20  5.62210978994283300D-05  0.00000000000000000D+00  2.90933637275489700D-04 -7.76007446851550100D-04  0.00000000000000000D+00
 5 21  1.05697540094639800D-05 -1.07127352264009500D-03  0.00000000000000000D+00 -1.58222269228083200D-05  1.27825944371219500D-05
 5 22  3.03963248608356300D-06  8.01202076053923300D-06  0.00000000000000000D+00  0.00000000000000000D+00  4.88376002332718700D-05
 5 23  1.30744409621724000D-04 -1.79582009854955800D-04 -1.18834454976027000D-04  0.00000000000000000D+00  0.00000000000000000D+00
 5 24 -1.30597400469867000D-03 -2.91417317763683200D-04  1.22572161548925900D-03  1.81040192223438300D-03  1.05569904246905200D-05
 5 25 -5.41177874607014700D-05  0.00000000000000000D+00 -1.78669176805329900D-04  6.80063818458771500D-04  0.00000000000000000D+00
 5 26 -3.37413975522076500D-05  9.08960331183908700D-04  0.00000000000000000D+00 -1.53106157543857300D-05  7.68114810431380300D-06
 5 27  7.62946765007669400D-06  2.62030651275281500D-06  0.00000000000000000D+00  0.00000000000000000D+00  4.48858994513308400D-05
 5 28  1.18779745745182000D-04 -1.63665645196507200D-04 -8.47934134312460700D-05  0.00000000000000000D+00  0.00000000000000000D+00
 5 29 -2.89573967207044900D-05 -1.12687532638168200D-04  5.25299273308348900D-05  6.58208172268275100D-06  0.00000000000000000D+00
 5 30 -1.70842110483636600D-04  7.48299041356970800D-05  1.91241129561332300D-04 -1.06348506094621900D-04  0.00000000000000000D+00
 5 31  1.95405975176058900D-05  1.73906277312057600D-04 -4.84295785840866800D-05 -9.16923205632116000D-06  0.00000000000000000D+00
 5 32 -2.56168691710178000D-04  1.13789769583030500D-04 -2.94376113770419800D-04  1.58220223410140800D-04  0.00000000000000000D+00
 6  1 -5.73093375315222900D-03 -4.50074009899553400D-05 -3.57837922864361100D-04  7.73228646583064400D-06 -1.85827872975293100D-05
 6  2  0.00000000000000000D+00  3.08672650958680900D-03 -4.05958452398234400D-04  0.00000000000000000D+00 -5.34718508462765200D-05
 6  3  1.08244392824645600D-05  4.26474115634695400D-05  3.33048176249875000D-04  0.00000000000000000D+00  0.00000000000000000D+00
 6  4  6.71079406337750700D-01  2.98020195423142600D-03 -6.85974530189043000D-03 -1.51662748414366600D-04  6.30638329943677400D-05
 6  5  0.00000000000000000D+00  1.79928214480496100D-03 -5.45879255600465300D-04  0.00000000000000000D+00  1.21937356562944300D-04
 6  6  1.98477627464632500D-04 -3.20414984027728200D-04  1.47244719789823100D-04  0.00000000000000000D+00  0.00000000000000000D+00
 6  7  4.60381513678614800D-02 -2.81198791539315700D-05  9.96833406683495000D-04  6.08719917142164900D-06 -3.18395238043677000D-05
 6  8  0.00000000000000000D+00 -4.60408806801058500D-04 -9.11544574757890000D-06  0.00000000000000000D+00 -1.29653480687458000D-04
 6  9 -1.25459645119228900D-05  1.42199445199516800D-04  5.30579323082388700D-05  0.00000000000000000D+00  0.00000000000000000D+00
 6 10 -3.01127891144260700D-03 -6.52506895845689000D-05  1.04853422442600900D-03 -2.54680084910261900D-05  4.54183310652652400D-05
 6 11  0.00000000000000000D+00 -1.86734344964652400D-03  2.05428811624640500D-03  0.00000000000000000D+00 -1.38806483240435800D-04
 6 12 -5.57441854259102400D-05  1.94550668666439700D-04  2.38416487020963900D-04  0.00000000000000000D+00  0.00000000000000000D+00
 6 13  5.80686712357791600D-01  2.82707535415115900D-03 -8.37363091500921400D-03  1.23864993246940600D-04 -2.68620420644354900D-05
 6 14  0.00000000000000000D+00 -2.54552333143212100D-03 -9.33856368286937000D-04  0.00000000000000000D+00  1.71977080487682100D-04
 6 15  2.90755007792647400D-04 -4.62732088280271800D-04  1.58253237911655700D-04  0.00000000000000000D+00  0.00000000000000000D+00
 6 16 -4.63567197243925800D-01 -2.36990963654702300D-03  7.57204556805212600D-03 -1.20619567341987200D-04  2.43838598512530200D-05
 6 17  0.00000000000000000D+00  2.11405589705340000D-03 -5.94147093022521300D-04  0.00000000000000000D+00 -1.63068568303509800D-04
 6 18 -1.86808018151085300D-04  3.49876586454695100D-04  1.57712944384168200D-04  0.00000000000000000D+00  0.00000000000000000D+00
 6 19  1.34473487239300800D-02 -7.13220511596719000D-05  2.54114092902883600D-04  5.29498991071749800D-04  3.68093670395821800D-05
 6 20  1.28109965912264600D-06  0.00000000000000000D+00 -6.31279654524408600D-04 -1.99532765083697400D-04  0.00000000000000000D+00
 6 21 -2.88412765182588500D-05 -2.76124669576989300D-04  0.00000000000000000D+00 -5.53077927807594300D-06  1.46752133471997300D-06
 6 22  4.06325794294809300D-06 -1.68849816366849300D-05  0.00000000000000000D+00  0.00000000000000000D+00  2.20508449773837700D-05
 6 23  3.88416935237271200D-05 -6.08925385010316300D-05  2.60406559280119600D-04  0.00000000000000000D+00  0.00000000000000000D+00
 6 24  8.88845545871552600D-03 -1.64315738280418500D-04  7.87010843989351400D-04  1.23681710056127700D-03 -2.51723100560644100D-05
 6 25 -8.70368567065815100D-06  0.00000000000000000D+00  4.26915902393435000D-04  3.94268059225274100D-04  0.00000000000000000D+00
 6 26  7.10201504275809400D-05  6.12388036339276400D-04  0.00000000000000000D+00 -7.37342242025085000D-06  1.25402040117886500D-05
 6 27 -5.16678159151993700D-06 -7.07009692161682300D-06  0.00000000000000000D+00  0.00000000000000000D+00  3.04879742315889000D-05
 6 28  5.95679299204565600D-05 -9.00559041520403600D-05  1.98438601347108700D-04  0.00000000000000000D+00  0.00000000000000000D+00
 6 29 -2.34522199030527800D-04  3.86152703293855700D-04  2.76144092764774200D-04  1.73408202770248300D-04  0.00000000000000000D+00
 6 30  1.01711202625640500D-04 -1.31928385326608200D-05 -4.96215143087419900D-05  5.81421617045179000D-05  0.00000000000000000D+00
 6 31 -3.35278936160624400D-04 -1.65932272824669700D-04 -2.93644371739091100D-04 -1.72627144753957200D-04  0.00000000000000000D+00
 6 32  2.69508118248422000D-04 -5.37251370420774700D-05  2.47397846405822000D-04 -1.56498150985472100D-04  0.00000000000000000D+00
 7  1 -4.97678459779259400D-01 -2.99744488556084000D-03  6.89764769742704100D-04 -2.68392582172526300D-07 -6.13049801117474300D-04
 7  2  0.00000000000000000D+00  1.40431675792661800D-05 -3.91167502086825000D-03  0.00000000000000000D+00 -2.35285300659154500D-04
 7  3 -1.24272019588348100D-04  3.59557320247677800D-04  9.48969022495820400D-07  0.00000000000000000D+00  0.00000000000000000D+00
 7  4  4.62276251615953900D-03  4.57089726020365900D-05 -1.80052456193858600D-03 -2.20207512375036200D-05  4.58459238921288400D-05
 7  5  0.00000000000000000D+00  5.28146181979949600D-04  7.40373153385215000D-04  0.00000000000000000D+00  7.48079351380587600D-05
 7  6  1.11568018804888600D-04 -1.86375953942760400D-04 -2.91875408075934200D-04  0.00000000000000000D+00  0.00000000000000000D+00
 7  7  3.94352937088653500D-03 -3.68936169268011800D-06  1.73890590929606600D-03  1.61152692791805800D-05  4.44537990910155300D-05
 7  8  0.00000000000000000D+00 -4.90678261696954200D-04  7.18293531543188800D-04  0.00000000000000000D+00 -8.81696475125487600D-05
 7  9 -1.05643331979847400D-04  1.93812979492336000D-04 -2.93835317665564100D-04  0.00000000000000000D+00  0.00000000000000000D+00
 7 10  5.27680111520773800D-01  3.11202497542547300D-03 -9.95591557380472200D-04 -2.25249377188856300D-07 -6.25608371597040900D-04
 7 11  0.00000000000000000D+00  2.07496640601940000D-05 -3.77488049033496100D-03  0.00000000000000000D+00  2.27951412135439700D-04
 7 12  1.56099214189221300D-04 -3.84050626324816700D-04 -1.72408967094534500D-06  0.00000000000000000D+00  0.00000000000000000D+00
 7 13 -5.76937576956866000D-03 -4.49169536559634200D-05  1.82733971859257100D-03 -1.84151323513684500D-05  4.50900523144870300D-05
 7 14  0.00000000000000000D+00  5.08315118363785600D-04  7.06411956179516000D-04  0.00000000000000000D+00 -8.83223190313736900D-05
 7 15 -1.07284607491767300D-04  1.95606926523019200D-04  2.92147169500216100D-04  0.00000000000000000D+00  0.00000000000000000D+00
 7 16 -2.83528826229521200D-03  1.55684274631557300D-05 -1.74426297821117700D-03  2.02652246381344500D-05  4.52548827811095400D-05
 7 17  0.00000000000000000D+00 -5.19860815907989600D-04  7.53564079163635500D-04  0.00000000000000000D+00  7.54464544787207500D-05
 7 18  1.10860350209689800D-04 -1.86306804688339500D-04  2.92867269595960900D-04  0.00000000000000000D+00  0.00000000000000000D+00
 7 19 -5.04437741425589400D-01 -1.66872379129927900D-03  5.81019321949382800D-03  6.73173849718960600D-04  1.33294831452133300D-07
 7 20  1.13054082157643200D-03  0.00000000000000000D+00 -2.21374357071095400D-06 -2.79899042294308500D-03  0.00000000000000000D+00
 7 21  6.72218056301514300D-07  7.07566728557924000D-05  0.00000000000000000D+00  5.64844657203822900D-05 -2.53233862050826900D-04
 7 22  1.96749396330973100D-04 -1.27815983144103600D-07  0.00000000000000000D+00  0.00000000000000000D+00 -4.38474842023461100D-04
 7 23  9.81016552993688500D-04 -5.42541710970267000D-04  5.78405856446880500D-07  0.00000000000000000D+00  0.00000000000000000D+00
 7 24  4.73713249365909000D-01  1.62261204290974900D-03 -5.60468714309357100D-03 -5.78830172390983700D-04  2.14043953740659200D-07
 7 25  1.09002897860541700D-03  0.00000000000000000D+00 -3.63966707555865300D-06 -2.75136569018233500D-03  0.00000000000000000D+00
 7 26  5.37456525049207500D-07  1.21089097425543300D-04  0.00000000000000000D+00 -6.22312524682313600D-05  2.54758667547429000D-04
 7 27 -1.92527415079183000D-04  1.59324703142051900D-07  0.00000000000000000D+00  0.00000000000000000D+00  4.36423377341839700D-04
 7 28 -9.89441715513689500D-04  5.53018338171830800D-04 -1.19648265616540900D-06  0.00000000000000000D+00  0.00000000000000000D+00
 7 29  6.30440734650783600D-05 -1.83585477657833100D-04 -4.10279812769979900D-05 -6.07585343967270100D-06  0.00000000000000000D+00
 7 30 -6.43834211606114600D-05  1.66067479976272700D-04  4.07373182562350500D-05 -4.45285318070081200D-06  0.00000000000000000D+00
 7 31 -6.27929116677149200D-05  1.57388696343378900D-04 -3.75755489051554700D-05 -2.65871422499664600D-06  0.00000000000000000D+00
 7 32  6.33641359277167700D-05 -1.91875941581248300D-04  4.30181461530079700D-05 -7.11330614617872200D-06  0.00000000000000000D+00
 8  1  5.05737395761855800D-01  1.95600911700906600D-03 -5.04730076179054200D-03  3.79213833564062700D-07  2.19040881262264300D-04
 8  2  0.00000000000000000D+00  3.68930049988588600D-05 -2.19860272017777600D-03  0.00000000000000000D+00 -1.18089193330583700D-04
 8  3  5.27300642444928900D-04 -4.09211449114172000D-04  4.52883533355203800D-06  0.00000000000000000D+00  0.00000000000000000D+00
 8  4  1.05445205370514100D-02  1.56069366443865700D-04  9.37172524249864000D-05 -6.66498455816960300D-05  1.22031059504759500D-05
 8  5  0.00000000000000000D+00  4.34662362239066600D-04  5.57465203111617800D-04  0.00000000000000000D+00 -2.16005389897492100D-04
 8  6  7.94475238883954100D-05  1.36557866009367800D-04  1.98970539266954100D-05  0.00000000000000000D+00  0.00000000000000000D+00
 8  7 -3.36042513810875100D-03  8.93092912595192000D-05  1.81704862264439100D-04 -6.44185270929189000D-05 -1.45890050874322800D-05
 8  8  0.00000000000000000D+00  4.08850997360553200D-04 -5.96521443757530300D-04  0.00000000000000000D+00 -2.16087462685783800D-04
 8  9  8.04371781335252300D-05  1.35650284552097800D-04  2.18204147660349700D-06  0.00000000000000000D+00  0.00000000000000000D+00
 8 10  4.74715706084743200D-01  1.77101685893064300D-03 -4.99198627238512800D-03 -1.91726794361808700D-07 -1.81455521592126500D-04
 8 11  0.00000000000000000D+00 -4.99532910384066000D-05  2.43662327096518500D-03  0.00000000000000000D+00 -1.32390595148036000D-04
 8 12  5.18608678176542200D-04 -3.86218083028357400D-04  5.53507026093953700D-06  0.00000000000000000D+00  0.00000000000000000D+00
 8 13  1.44836093553154500D-02  1.74592732999276200D-04 -5.39344611596905700D-05  6.87145115112754900D-05 -1.51247072705619300D-05
 8 14  0.00000000000000000D+00 -4.74322417168529000D-04 -6.00300084983058100D-04  0.00000000000000000D+00 -2.11022187315484700D-04
 8 15  8.69067647206348600D-05  1.24115422594752800D-04  2.85661974710620100D-06  0.00000000000000000D+00  0.00000000000000000D+00
 8 16 -8.69714492435688900D-04  9.75170151924558900D-05  2.75130944224038500D-04  6.38751286327534500D-05  1.21319860745853400D-05
 8 17  0.00000000000000000D+00 -3.78917587513990900D-04  5.44302748896223200D-04  0.00000000000000000D+00 -2.21252436316560500D-04
 8 18  7.38588182552998600D-05  1.47393618061448800D-04 -1.58629779694065300D-05  0.00000000000000000D+00  0.00000000000000000D+00
 8 19 -4.95805656928327800D-01 -7.26614626702050100D-04  3.27383814187179100D-03  1.56221964943552600D-03  4.85350728890139800D-07
 8 20  6.43987196141478300D-04  0.00000000000000000D+00 -8.19663976384727300D-06 -7.30779301126760900D-04  0.00000000000000000D+00
 8 21 -1.10546821789007600D-06 -8.42542559248354200D-04  0.00000000000000000D+00 -9.62370885536538600D-05  3.07928702533301500D-05
 8 22  6.54442183008737500D-05 -1.53751740763723000D-07  0.00000000000000000D+00  0.00000000000000000D+00 -2.35615847871343700D-05
 8 23 -1.59195433656048400D-04  1.82757018443219100D-04  3.69678937929998900D-06  0.00000000000000000D+00  0.00000000000000000D+00
 8 24 -5.25449140109141800D-01 -8.26580822771378700D-04  3.62123729627464400D-03  1.60242475034111100D-03 -6.08676391594471800D-07
 8 25 -7.11258972789675900D-04  0.00000000000000000D+00  1.03811549135920500D-05  8.99476951924898000D-04  0.00000000000000000D+00
 8 26  6.51391019349235900D-07  8.37831163724185100D-04  0.00000000000000000D+00 -9.26506125888804800D-05  1.54479400767822400D-05
 8 27  7.72026725121223900D-05 -2.60052230534560400D-07  0.00000000000000000D+00  0.00000000000000000D+00 -5.00273376966849700D-05
 8 28 -9.94696175392604300D-05  1.49496955235915300D-04  4.35868091317194300D-06  0.00000000000000000D+00  0.00000000000000000D+00
 8 29 -1.35104690547514200D-05 -4.25765077755452500D-04 -4.14047753032690500D-05 -4.70235692215593600D-05  0.00000000000000000D+00
 8 30 -1.83787785583530900D-06 -4.39700591894181100D-04 -5.11256143625089500D-05  5.20968970151175200D-05  0.00000000000000000D+00
 8 31 -1.04548918038011800D-05 -4.33995243190188000D-04  4.25552584771703300D-05  4.66466323073401300D-05  0.00000000000000000D+00
 8 32 -5.61188367516796300D-06 -4.25123318467311500D-04  4.80443310649155200D-05 -5.14121243075112000D-05  0.00000000000000000D+00
 9  1  8.78868681385454000D-03 -1.21234689532888700D-01 -6.17641376071822500D-02  1.63593169552106900D-06  5.66245023091714700D-02
 9  2  0.00000000000000000D+00  2.73740060824777900D-07  1.45399454000907300D-02  0.00000000000000000D+00 -6.42307572626288400D-03
 9  3 -4.93802059935278700D-03  1.13610963256156400D-02 -3.49826290093226700D-07  0.00000000000000000D+00  0.00000000000000000D+00
 9  4  1.01805432470694500D-02 -1.62797366207685700D-01 -1.00176356052687900D-01  7.33571766704155600D-03  5.95298384114698000D-03
 9  5  0.00000000000000000D+00  1.35058193265846800D-03 -3.67056952397414000D-03  0.00000000000000000D+00 -1.44390458979029500D-03
 9  6 -5.40451105661321100D-03  6.84841564640353100D-03  3.26108468083965700D-03  0.00000000000000000D+00  0.00000000000000000D+00
 9  7  1.01808350899731600D-02 -1.62798819704794000D-01 -1.00176390926583100D-01  7.33700692125880700D-03 -5.95188220032507800D-03
 9  8  0.00000000000000000D+00  1.35138010776014700D-03  3.67054975222650200D-03  0.00000000000000000D+00 -1.44392441604848000D-03
 9  9 -5.40436354794217800D-03  6.84828796399068700D-03 -3.26131242852909400D-03  0.00000000000000000D+00  0.00000000000000000D+00
 9 10  8.78875079822509700D-03 -1.21236484340772100D-01 -6.17636144376248500D-02 -1.30563544919274100D-06 -5.66233764065477100D-02
 9 11  0.00000000000000000D+00 -1.84956671946573700D-07 -1.45392674100757000D-02  0.00000000000000000D+00 -6.42311637989027000D-03
 9 12 -4.93812156227059900D-03  1.13612379421608700D-02 -2.68789042751982600D-07  0.00000000000000000D+00  0.00000000000000000D+00
 9 13  1.01807252131585600D-02 -1.62798040373481200D-01 -1.00177853880424700D-01 -7.33574592441355200D-03 -5.95203549979490300D-03
 9 14  0.00000000000000000D+00 -1.35170964704880300D-03  3.67024809342489700D-03  0.00000000000000000D+00 -1.44400527652856400D-03
 9 15 -5.40443757124333200D-03  6.84844284777188400D-03  3.26102819216685800D-03  0.00000000000000000D+00  0.00000000000000000D+00
 9 16  1.01807074163786100D-02 -1.62798075428867200D-01 -1.00174388905984600D-01 -7.33739293762582100D-03  5.95221056732547900D-03
 9 17  0.00000000000000000D+00 -1.35023293840978700D-03 -3.67103451943220200D-03  0.00000000000000000D+00 -1.44380284892614800D-03
 9 18 -5.40443652770833900D-03  6.84823937663441500D-03 -3.26139550037803400D-03  0.00000000000000000D+00  0.00000000000000000D+00
 9 19  2.62454922554698500D-03 -1.72612103816584000D-01 -1.84616190410745200D-01 -6.38978600876264100D-03 -8.65693459983344100D-07
 9 20 -5.53566504398920500D-02  0.00000000000000000D+00 -6.74647122512264900D-07 -4.48563162461132300D-02  0.00000000000000000D+00
 9 21 -1.13833315269818800D-07 -1.21013798211429000D-02  0.00000000000000000D+00  3.64983641200899400D-04 -1.19005552047526900D-03
 9 22  8.25071879274369400D-04 -2.77832048879117100D-08  0.00000000000000000D+00  0.00000000000000000D+00 -9.53011705150224800D-04
 9 23  2.10961218933732700D-03 -1.15660048418708300D-03  1.43955643877385900D-08  0.00000000000000000D+00  0.00000000000000000D+00
 9 24  2.62461185227517100D-03 -1.72615131247828500D-01 -1.84619130397502900D-01 -6.38972133734349800D-03  6.43760676223104500D-07
 9 25  5.53557334501195100D-02  0.00000000000000000D+00  5.10774597626429900D-07  4.48559350412805200D-02  0.00000000000000000D+00
 9 26  8.01296934048927200D-08  1.21014766853949900D-02  0.00000000000000000D+00  3.65044998599265000D-04 -1.19018104504458100D-03
 9 27  8.25136046445337100D-04 -2.24553220398014200D-08  0.00000000000000000D+00  0.00000000000000000D+00 -9.52992689464179900D-04
 9 28  2.10957330690936300D-03 -1.15658061744517000D-03  1.05656017872511900D-08  0.00000000000000000D+00  0.00000000000000000D+00
 9 29 -8.22963487811211700D-02 -1.53668501724553200D-02  9.37008594957110600D-03  5.59956996486270200D-03  0.00000000000000000D+00
 9 30 -8.22971706631681100D-02 -1.53668657059323400D-02  9.37027234908478100D-03 -5.59958389115519900D-03  0.00000000000000000D+00
 9 31 -8.22975957945787400D-02 -1.53672858932280700D-02 -9.37017185254502900D-03 -5.59963349187902200D-03  0.00000000000000000D+00
 9 32 -8.22959136338112200D-02 -1.53664008800443000D-02 -9.37019098456926300D-03  5.59953578154017400D-03  0.00000000000000000D+00
10  1  5.24105422338303600D-03  6.95247877634641300D-02  7.29889893197695800D-02  6.47365909736998200D-07  1.21300228394649600D-01
10  2  0.00000000000000000D+00  1.91457322804866200D-07  3.64497280870184000D-02  0.00000000000000000D+00 -4.40894397960034800D-03
10  3  6.69921861007982000D-03 -2.29027463047962500D-03 -1.06803129227956300D-07  0.00000000000000000D+00  0.00000000000000000D+00
10  4  3.69294485071769800D-04 -1.88883561051953000D-02 -2.25335439582758900D-02  5.48066360652452800D-03 -6.08603796898432400D-03
10  5  0.00000000000000000D+00  1.28972337414639900D-02 -8.25124553055805000D-03  0.00000000000000000D+00 -3.49650195164655400D-03
10  6  3.43191278270038400D-03  6.45891689461524900D-05 -2.23185005410046400D-03  0.00000000000000000D+00  0.00000000000000000D+00
10  7 -3.73975620078345000D-04  1.89788270774166300D-02  2.25804850852863700D-02 -5.45873386217307400D-03 -6.06276185900705700D-03
10  8  0.00000000000000000D+00 -1.28804733242896800D-02 -8.23833591875702800D-03  0.00000000000000000D+00  3.49218390013746900D-03
10  9 -3.42525393663973900D-03 -6.69299634976410400D-05 -2.22590080310239400D-03  0.00000000000000000D+00  0.00000000000000000D+00
10 10 -5.23883328574125400D-03 -6.93605650689374100D-02 -7.28635678497225600D-02  5.18759386526136600D-07  1.21156971548030500D-01
10 11  0.00000000000000000D+00  5.83374665482609900D-09  3.64067336940945400D-02  0.00000000000000000D+00  4.40608653795646500D-03
10 12 -6.68617706038703400D-03  2.28009052243057300D-03  5.40073578936287100D-08  0.00000000000000000D+00  0.00000000000000000D+00
10 13 -3.74072393206803800D-04  1.89800626492083800D-02  2.25813237013118200D-02  5.45773162763116200D-03 -6.06194945385710300D-03
10 14  0.00000000000000000D+00  1.28801048884299700D-02 -8.23779968795590600D-03  0.00000000000000000D+00  3.49207158883320500D-03
10 15 -3.42510674480515100D-03 -6.69648440279906200D-05  2.22585176062689700D-03  0.00000000000000000D+00  0.00000000000000000D+00
10 16  3.69201513017331200D-04 -1.88873104150718200D-02 -2.25329115177267900D-02 -5.48180971835691100D-03 -6.08696962914624000D-03
10 17  0.00000000000000000D+00 -1.28974978923999300D-02 -8.25148120219194500D-03  0.00000000000000000D+00 -3.49663760003375600D-03
10 18  3.43209446325008500D-03  6.45431367836666200D-05  2.23188301195154400D-03  0.00000000000000000D+00  0.00000000000000000D+00
10 19  2.16242504032815400D-03 -2.62710415960077200D-01 -3.57562506728302800D-01 -5.82037449654246100D-02 -3.35368109911899500D-06
10 20 -2.85723925640655000D-01  0.00000000000000000D+00 -2.13288105610566100D-06 -1.60295579227531700D-01  0.00000000000000000D+00
10 21 -2.19032396060739800D-07 -8.20353356752664400D-03  0.00000000000000000D+00 -5.88606826779816000D-03  1.03769127104056700D-02
10 22 -4.49084444260748500D-03  1.69197302198541600D-07  0.00000000000000000D+00  0.00000000000000000D+00 -3.80240953199247300D-03
10 23  5.36991962753687600D-03 -1.56751009554437800D-03  1.09587101753436800D-07  0.00000000000000000D+00  0.00000000000000000D+00
10 24 -2.16117652157000400D-03  2.62472257584391300D-01  3.57203251530686500D-01  5.81299030809010900D-02 -2.39382910067884300D-06
10 25 -2.85365195850370000D-01  0.00000000000000000D+00 -1.52008251601687600D-06 -1.60104003748711600D-01  0.00000000000000000D+00
10 26 -1.72912043315658800D-07 -8.19785261607658200D-03  0.00000000000000000D+00  5.87765723958519500D-03 -1.03616325745628000D-02
10 27  4.48397533497770600D-03 -1.16796670394123400D-07  0.00000000000000000D+00  0.00000000000000000D+00  3.79774599922638400D-03
10 28 -5.36421616390348300D-03  1.56647016467707100D-03 -7.17043652628515100D-08  0.00000000000000000D+00  0.00000000000000000D+00
10 29 -1.23101131157916700D-02 -3.73919832812432900D-03  8.32245548257464800D-04  3.12619070462652500D-04  0.00000000000000000D+00
10 30  1.23544008610940400D-02  3.73861924476905400D-03 -8.37640373006617400D-04  3.17315579414176900D-04  0.00000000000000000D+00
10 31  1.23551545525288800D-02  3.73853461797116600D-03  8.37740151946051200D-04  3.17378900436096900D-04  0.00000000000000000D+00
10 32 -1.23094482536773200D-02 -3.73932957150613700D-03 -8.32160610591682700D-04  3.12561575931860600D-04  0.00000000000000000D+00
11  1 -1.76291887222637700D-03 -1.39446056091059600D-01 -1.06295101203734100D-01 -3.60319555250681900D-07 -1.20315720815268600D-01
11  2  0.00000000000000000D+00 -2.81948323234075600D-07 -3.58209055188438000D-02  0.00000000000000000D+00  2.37487137739671400D-03
11  3 -1.10153439220529700D-02  8.64047254465627800D-03  1.74012934711296600D-08  0.00000000000000000D+00  0.00000000000000000D+00
11  4  3.96783036765345300D-03 -7.65035271384290100D-02 -3.97995643350707900D-02 -1.90434261404940400D-02  1.83515963178466400D-02
11  5  0.00000000000000000D+00 -1.44248225198717300D-02  1.04513051834273100D-02  0.00000000000000000D+00  3.60382073595884600D-03
11  6 -5.59928239293815100D-03  1.99546165697909500D-03  5.09200391506662300D-03  0.00000000000000000D+00  0.00000000000000000D+00
11  7  3.96751073281161100D-03 -7.64800159612232800D-02 -3.97715391415807400D-02 -1.90491882481178700D-02 -1.83590552062474500D-02
11  8  0.00000000000000000D+00 -1.44392279690906400D-02 -1.04612814838282900D-02  0.00000000000000000D+00  3.60805348032788500D-03
11  9 -5.60341174676241700D-03  1.99535826643467700D-03 -5.09477961117231500D-03  0.00000000000000000D+00  0.00000000000000000D+00
11 10 -1.76920975647435400D-03 -1.39529608196173900D-01 -1.06381758009759000D-01  2.96013814461173500D-07  1.20459455673489100D-01
11 11  0.00000000000000000D+00  2.17763816461724800D-07  3.58650547908484000D-02  0.00000000000000000D+00  2.38023965435457600D-03
11 12 -1.10233924375841700D-02  8.64315278322957600D-03  1.13698075444863900D-09  0.00000000000000000D+00  0.00000000000000000D+00
11 13  3.96743764891379700D-03 -7.64795515702234700D-02 -3.97727371190793100D-02  1.90481379939957500D-02 -1.83596552767373600D-02
11 14  0.00000000000000000D+00  1.44385499399496100D-02 -1.04619623427065900D-02  0.00000000000000000D+00  3.60794772970583900D-03
11 15 -5.60336230824095300D-03  1.99541457853504800D-03  5.09480635236281800D-03  0.00000000000000000D+00  0.00000000000000000D+00
11 16  3.96791835752149900D-03 -7.65036036580309800D-02 -3.97980622852087800D-02  1.90445272683976600D-02  1.83508762134462900D-02
11 17  0.00000000000000000D+00  1.44255468259020600D-02  1.04504853956263100D-02  0.00000000000000000D+00  3.60396859752948300D-03
11 18 -5.59935099158812500D-03  1.99538239405873000D-03 -5.09199157043902300D-03  0.00000000000000000D+00  0.00000000000000000D+00
11 19 -9.88541107442122200D-04  1.97822102988545300D-01  2.99239258631565900D-01  6.18782465091438100D-02  3.43398959198612900D-06
11 20  3.00929905135712400D-01  0.00000000000000000D+00  2.12434877941476700D-06  1.60665033181352400D-01  0.00000000000000000D+00
11 21  2.01962546785350700D-07  4.70427824185959100D-03  0.00000000000000000D+00  7.07583742285055500D-03 -1.28619870285350800D-02
11 22  5.78614960568455500D-03 -2.02024922760185700D-07  0.00000000000000000D+00  0.00000000000000000D+00  3.93561379903526700D-03
11 23 -4.82282483720280400D-03  8.87211038167472400D-04 -1.07109383633200300D-07  0.00000000000000000D+00  0.00000000000000000D+00
11 24 -9.91123223838586600D-04  1.98135722061839600D-01  2.99665825557526100D-01  6.19477753877630700D-02 -2.46695966782522100D-06
11 25 -3.01270233564130800D-01  0.00000000000000000D+00 -1.52449690181543800D-06 -1.60856193577384200D-01  0.00000000000000000D+00
11 26 -1.57979978530921800D-07 -4.71403255778843000D-03  0.00000000000000000D+00  7.08283825573660300D-03 -1.28743177531380900D-02
11 27  5.79147949740151800D-03 -1.39757787827532500D-07  0.00000000000000000D+00  0.00000000000000000D+00  3.94020620998535500D-03
11 28 -4.82932117844290700D-03  8.89114968457556200D-04 -6.78794442469011200D-08  0.00000000000000000D+00  0.00000000000000000D+00
11 29 -3.82103663986003300D-02  4.23282746061667800D-04  4.64053945507150900D-03  3.97358002857749200D-03  0.00000000000000000D+00
11 30 -3.81948004082273400D-02  4.27992365213795300D-04  4.63950808374015000D-03 -3.97312865117520500D-03  0.00000000000000000D+00
11 31 -3.81935013401637800D-02  4.28107401339260900D-04 -4.63936798122088200D-03 -3.97308775161652800D-03  0.00000000000000000D+00
11 32 -3.82114868668554200D-02  4.23301075048083300D-04 -4.64066499070462600D-03  3.97361865975735500D-03  0.00000000000000000D+00
12  1 -9.37418126495970900D-03  2.40994842132815700D-01  1.17806848198875500D-01  4.10266275161899900D-07  1.01542340457624400D-02
12  2  0.00000000000000000D+00  5.02313402862071200D-07 -1.45221135097176200D-02  0.00000000000000000D+00  4.97199441633447500D-03
12  3  1.07738900145679600D-02 -1.57458844309023800D-02 -1.05212824972004900D-06  0.00000000000000000D+00  0.00000000000000000D+00
12  4 -7.08297772405769000D-03  1.21050141272576300D-01  1.04163247052139700D-01 -2.64062314201393900D-02  8.25683750255553500D-02
12  5  0.00000000000000000D+00 -2.34048552317032200D-02  1.32762708198118700D-02  0.00000000000000000D+00  1.06210279146100000D-02
12  6 -5.17917063211915700D-03 -5.44185728249082600D-03 -1.11228172812205400D-02  0.00000000000000000D+00  0.00000000000000000D+00
12  7  7.08203302038867900D-03 -1.21033247831852700D-01 -1.04155829365368400D-01  2.64005529449044600D-02  8.25504853417372600D-02
12  8  0.00000000000000000D+00  2.34054073721305200D-02  1.32702573852288300D-02  0.00000000000000000D+00 -1.06196588076524700D-02
12  9  5.17885519873944500D-03  5.44080360891304600D-03 -1.11218123628948400D-02  0.00000000000000000D+00  0.00000000000000000D+00
12 10  9.37314533285780800D-03 -2.40953396467568300D-01 -1.17776060631621900D-01  8.67626678531750000D-07  1.01510576824474000D-02
12 11  0.00000000000000000D+00  6.54791909574646700D-07 -1.45119775998322700D-02  0.00000000000000000D+00 -4.97146344589600000D-03
12 12 -1.07728423472203800D-02  1.57443057931164900D-02  1.16633643849706900D-06  0.00000000000000000D+00  0.00000000000000000D+00
12 13  7.08445088582078500D-03 -1.21069562572887000D-01 -1.04178713687907300D-01 -2.63894718076292500D-02  8.25287388048384500D-02
12 14  0.00000000000000000D+00 -2.34034028210231800D-02  1.32624860856714000D-02  0.00000000000000000D+00 -1.06181598591254300D-02
12 15  5.17606772676500700D-03  5.44209213236038100D-03  1.11217142885547600D-02  0.00000000000000000D+00  0.00000000000000000D+00
12 16 -7.08062090437754500D-03  1.21014280537097300D-01  1.04140416681429100D-01  2.64177151042520900D-02  8.25906980584340500D-02
12 17  0.00000000000000000D+00  2.34068303488320500D-02  1.32839663119208100D-02  0.00000000000000000D+00  1.06224502745786600D-02
12 18 -5.18188336502287000D-03 -5.44056690955582000D-03  1.11230783909459400D-02  0.00000000000000000D+00  0.00000000000000000D+00
12 19 -4.62366059747938100D-03  8.29604035437548600D-02  5.26091336205953200D-02 -2.23686519315231400D-02 -1.55168007023767300D-06
12 20 -1.24515297699079900D-01  0.00000000000000000D+00 -7.39963431909428600D-07 -5.58346409736998900D-02  0.00000000000000000D+00
12 21  1.44273788774792900D-07  9.08018866707948500D-03  0.00000000000000000D+00 -5.11549048858474300D-03  9.99228685005492200D-03
12 22 -4.87679636147013100D-03  1.06582727051521800D-07  0.00000000000000000D+00  0.00000000000000000D+00 -2.42229894912126200D-03
12 23  2.21360218088264500D-03  2.08696768238672800D-04 -1.28282528606821700D-07  0.00000000000000000D+00  0.00000000000000000D+00
12 24  4.62269454406156400D-03 -8.29413865739708600D-02 -5.25938115095058200D-02  2.23674060510680600D-02 -1.23306518668792700D-06
12 25 -1.24496475885804000D-01  0.00000000000000000D+00 -5.55652762956502300D-07 -5.58268236148474100D-02  0.00000000000000000D+00
12 26  1.47561125161395200D-07  9.07917401801982400D-03  0.00000000000000000D+00  5.11460935011234500D-03 -9.99052513221836700D-03
12 27  4.87591578210604800D-03 -6.03243080583997400D-08  0.00000000000000000D+00  0.00000000000000000D+00  2.42184568381403600D-03
12 28 -2.21308700679514300D-03 -2.08758677018913900D-04  1.57134670916089000D-07  0.00000000000000000D+00  0.00000000000000000D+00
12 29  8.26943695566126600D-02  2.18283071664244200D-02 -1.00415708520901900D-02 -3.63261022729066100D-03  0.00000000000000000D+00
12 30 -8.26815165642860500D-02 -2.18253929662144100D-02  1.00401906731692400D-02 -3.63209580138655600D-03  0.00000000000000000D+00
12 31 -8.26990426031197900D-02 -2.18278440782842500D-02 -1.00419445956191600D-02 -3.63394710149790000D-03  0.00000000000000000D+00
12 32  8.26770497840137200D-02  2.18257789442179200D-02  1.00398817270531200D-02 -3.63080278519086300D-03  0.00000000000000000D+00
13  1  7.93690197752752800D-07 -1.74948680168171100D-05 -6.81681786606245600D-06  2.62814060902633300D-02  1.69088335722883400D-06
13  2  0.00000000000000000D+00  5.50231632645678200D-03  2.15052377667307400D-07  0.00000000000000000D+00 -7.47982866295502800D-07
13  3 -5.52470529525501300D-07  1.30045339589584800D-06 -1.50576271970191100D-02  0.00000000000000000D+00  0.00000000000000000D+00
13  4 -1.45999442637671100D-02  2.07089034127570700D-01  1.26864269046719300D-01  5.65227716095654400D-02 -1.07243125102301100D-01
13  5  0.00000000000000000D+00  1.30709003901627500D-02 -3.91584795141136900D-02  0.00000000000000000D+00 -8.13766772439114900D-03
13  6  1.52560355441652700D-02 -7.11836781977410200D-03  1.78208313557596200D-05  0.00000000000000000D+00  0.00000000000000000D+00
13  7 -1.46014462367772100D-02  2.07107746692059800D-01  1.26880108530797000D-01  5.65181597455401200D-02  1.07229819299084000D-01
13  8  0.00000000000000000D+00  1.30650674197786800D-02  3.91556393511275500D-02  0.00000000000000000D+00 -8.13588649634109700D-03
13  9  1.52549909385529200D-02 -7.11910444221183500D-03 -1.60650128711360300D-05  0.00000000000000000D+00  0.00000000000000000D+00
13 10 -8.89118018687589100D-07  2.18459092996143300D-05  9.96829117596605300D-06  2.62803268726517600D-02  4.41175653850492000D-07
13 11  0.00000000000000000D+00  5.50222212569160200D-03  1.15446310801508200D-06  0.00000000000000000D+00  7.91241548995013900D-07
13 12  6.46756940489385500D-07 -1.43799848956760500D-06  1.50574073486830500D-02  0.00000000000000000D+00  0.00000000000000000D+00
13 13  1.46000091472280700D-02 -2.07086963567259000D-01 -1.26860879055394100D-01  5.65200705157981300D-02 -1.07251620806730300D-01
13 14  0.00000000000000000D+00  1.30691183621887900D-02 -3.91605239286688700D-02  0.00000000000000000D+00  8.13822686329519200D-03
13 15 -1.52565233359410500D-02  7.11829647264591900D-03 -1.76803070539854700D-05  0.00000000000000000D+00  0.00000000000000000D+00
13 16  1.46018856723972100D-02 -2.07115314798997500D-01 -1.26887155760965000D-01  5.65236936145786800D-02  1.07231666935179200D-01
13 17  0.00000000000000000D+00  1.30669459368808900D-02  3.91568821688147700D-02  0.00000000000000000D+00  8.13601068444087600D-03
13 18 -1.52552894681228900D-02  7.11927878368192700D-03  1.64736069809725400D-05  0.00000000000000000D+00  0.00000000000000000D+00
13 19  2.88977928162516300D-07 -5.20375200579255300D-06 -3.15832027727495400D-06  1.81495618546009400D-06 -2.98290098935093900D-03
13 20  7.04804138757592900D-06  0.00000000000000000D+00 -5.89522887660740800D-06  2.99602599127746200D-06  0.00000000000000000D+00
13 21  2.53168212921137300D-03 -8.45045104246665000D-07  0.00000000000000000D+00  2.87177768976776300D-07 -5.71938338624979400D-07
13 22  2.84760569748864400D-07 -5.93688362104094600D-04  0.00000000000000000D+00  0.00000000000000000D+00  1.60329755539853800D-07
13 23 -1.52563085759133900D-07 -7.76666978755044900D-09 -2.56469101468617600D-03  0.00000000000000000D+00  0.00000000000000000D+00
13 24 -4.01649550639966500D-07  7.65801342389606500D-06  5.11351679015043500D-06 -1.93160227850908300D-06 -2.98213473918824800D-03
13 25  9.60283143574594100D-06  0.00000000000000000D+00 -5.19948950309130600D-06  4.13528317398548700D-06  0.00000000000000000D+00
13 26  2.53175564113421400D-03 -9.04651749948032600D-07  0.00000000000000000D+00 -4.05846027802583600D-07  8.05881110093167700D-07
13 27 -4.00035082186317700D-07  5.93699218760277500D-04  0.00000000000000000D+00  0.00000000000000000D+00 -2.16179312471941400D-07
13 28  2.33701570166370300D-07 -1.75222576942256400D-08  2.56468236306018000D-03  0.00000000000000000D+00  0.00000000000000000D+00
13 29  1.01842264126230900D-01  1.40876431850410300D-02 -1.04102556098398500D-02 -9.72354678807622000D-03  0.00000000000000000D+00
13 30  1.01855855789629600D-01  1.40911028015318400D-02 -1.04119335224508800D-02  9.72412373299389600D-03  0.00000000000000000D+00
13 31 -1.01835774089881400D-01 -1.40853615585121500D-02 -1.04097746435904200D-02 -9.72341452984945900D-03  0.00000000000000000D+00
13 32 -1.01862784274797400D-01 -1.40931047072573600D-02 -1.04124620358718800D-02  9.72458746674345800D-03  0.00000000000000000D+00
14  1 -4.59843936095112000D-03  2.00774663987094500D-01  1.52203153159394700D-01 -1.68950776349312500D-06  4.38754363198349000D-02
14  2  0.00000000000000000D+00  1.29208108627599300D-07 -4.59705734861153800D-02  0.00000000000000000D+00  3.00000331140978900D-05
14  3  7.87966535987884600D-03 -7.90966539299293700D-03  3.38614779644725400D-07  0.00000000000000000D+00  0.00000000000000000D+00
14  4  7.76035058245348200D-03 -1.04692298431934800D-01 -8.56780032251233500D-02 -7.68115988394091900D-02  1.89264833953358600D-01
14  5  0.00000000000000000D+00 -5.22747362096367400D-03  6.39035374707687400D-02  0.00000000000000000D+00  1.27720294634751800D-02
14  6 -1.46733949016026800D-02  1.90136543812752500D-03 -5.86345286512052500D-03  0.00000000000000000D+00  0.00000000000000000D+00
14  7  7.75870044007712700D-03 -1.04662646424927400D-01 -8.56457607942918400D-02 -7.68150233817233300D-02 -1.89284561322181900D-01
14  8  0.00000000000000000D+00 -5.23457632608388500D-03 -6.39062246107012900D-02  0.00000000000000000D+00  1.27745158193139700D-02
14  9 -1.46747670129120100D-02  1.90025119359814000D-03  5.86477459977058700D-03  0.00000000000000000D+00  0.00000000000000000D+00
14 10 -4.60009528378988200D-03  2.00811670790023800D-01  1.52213350148907400D-01  6.38232145949816500D-07 -4.38669889368937100D-02
14 11  0.00000000000000000D+00 -5.07212037470842700D-07  4.59682655207893900D-02  0.00000000000000000D+00  3.33548351621859200D-05
14 12  7.87900246558894500D-03 -7.91235730075115500D-03 -3.44622665842758900D-08  0.00000000000000000D+00  0.00000000000000000D+00
14 13  7.75798167917070500D-03 -1.04654448220699900D-01 -8.56371808893169600D-02  7.68054556393862300D-02 -1.89286317349303200D-01
14 14  0.00000000000000000D+00  5.23241765432163600D-03 -6.39050339227677500D-02  0.00000000000000000D+00  1.27746863997883600D-02
14 15 -1.46746795906927500D-02  1.89999319090443700D-03 -5.86400167433133300D-03  0.00000000000000000D+00  0.00000000000000000D+00
14 16  7.76043324532470600D-03 -1.04690629177837100D-01 -8.56806284601099700D-02  7.68177439041935800D-02  1.89260847431740600D-01
14 17  0.00000000000000000D+00  5.22842200076608200D-03  6.39033574762744900D-02  0.00000000000000000D+00  1.27715490242151800D-02
14 18 -1.46728157346243400D-02  1.90126671040916400D-03  5.86429741843403900D-03  0.00000000000000000D+00  0.00000000000000000D+00
14 19 -4.98404704856414400D-03  9.84450394094175400D-02  7.58673905943693500D-02 -7.96057806158223900D-03 -1.55298396805270100D-06
14 20 -1.16431451201000500D-01  0.00000000000000000D+00 -1.11063770198522000D-06 -5.14188979159560800D-02  0.00000000000000000D+00
14 21 -1.22265160769326800D-07  3.49909060252795200D-03  0.00000000000000000D+00 -5.00690163372243100D-03  9.93732718244813200D-03
14 22 -4.93042554872573600D-03  1.79747457619626000D-07  0.00000000000000000D+00  0.00000000000000000D+00 -2.16523183205411400D-03
14 23  2.56753259682949200D-03 -4.02300764775417900D-04  1.42211595671876000D-07  0.00000000000000000D+00  0.00000000000000000D+00
14 24 -4.98450889052481400D-03  9.84523971242256400D-02  7.58705009612401400D-02 -7.96494225987069900D-03  1.31712669557503100D-06
14 25  1.16441877557319500D-01  0.00000000000000000D+00  9.89047752490724900D-07  5.14234202450200600D-02  0.00000000000000000D+00
14 26  5.05330804452068800D-08 -3.50138938226593300D-03  0.00000000000000000D+00 -5.00739714099361500D-03  9.93830170641937300D-03
14 27 -4.93090456542579500D-03  1.25567927198001000D-07  0.00000000000000000D+00  0.00000000000000000D+00 -2.16578259689907600D-03
14 28  2.56827643243993000D-03 -4.02493835540792300D-04  6.81832976255863100D-08  0.00000000000000000D+00  0.00000000000000000D+00
14 29 -2.56337780975188000D-02  5.89542497438462100D-05  2.05520287617317400D-03  6.48374404072892400D-03  0.00000000000000000D+00
14 30 -2.56123369577681700D-02  6.54213015063164100D-05  2.05294693924399100D-03 -6.48291572847408500D-03  0.00000000000000000D+00
14 31 -2.55993724823328000D-02  6.92291234634600200D-05 -2.05203113717275600D-03 -6.48221586889994200D-03  0.00000000000000000D+00
14 32 -2.56402426768226000D-02  5.61863702272600400D-05 -2.05548507801891200D-03  6.48395991291732800D-03  0.00000000000000000D+00
15  1  0.00000000000000000D+00  0.00000000000000000D+00  0.00000000000000000D+00  0.00000000000000000D+00  0.00000000000000000D+00
15  2 -2.35306570377592800D-01  0.00000000000000000D+00  0.00000000000000000D+00 -1.15466121252663300D-01  0.00000000000000000D+00
15  3  0.00000000000000000D+00  0.00000000000000000D+00  0.00000000000000000D+00  6.82395352377002200D-08 -1.72715286249638900D-02
15  4  0.00000000000000000D+00  0.00000000000000000D+00  0.00000000000000000D+00  0.00000000000000000D+00  0.00000000000000000D+00
15  5 -1.05962123418223100D-01  0.00000000000000000D+00  0.00000000000000000D+00 -5.15641877954416300D-02  0.00000000000000000D+00
15  6  0.00000000000000000D+00  0.00000000000000000D+00  0.00000000000000000D+00  1.04959039364824200D-02  2.60195846020074500D-03
15  7  0.00000000000000000D+00  0.00000000000000000D+00  0.00000000000000000D+00  0.00000000000000000D+00  0.00000000000000000D+00
15  8 -1.05918944466619500D-01  0.00000000000000000D+00  0.00000000000000000D+00 -5.15395521685191700D-02  0.00000000000000000D+00
15  9  0.00000000000000000D+00  0.00000000000000000D+00  0.00000000000000000D+00  1.04860504013393600D-02 -2.61051449465075100D-03
15 10  0.00000000000000000D+00  0.00000000000000000D+00  0.00000000000000000D+00  0.00000000000000000D+00  0.00000000000000000D+00
15 11 -2.35053985685150900D-01  0.00000000000000000D+00  0.00000000000000000D+00 -1.15337658603375000D-01  0.00000000000000000D+00
15 12  0.00000000000000000D+00  0.00000000000000000D+00  0.00000000000000000D+00 -6.07658764268307300D-08  1.72445034371008700D-02
15 13  0.00000000000000000D+00  0.00000000000000000D+00  0.00000000000000000D+00  0.00000000000000000D+00  0.00000000000000000D+00
15 14 -1.05917571281006000D-01  0.00000000000000000D+00  0.00000000000000000D+00 -5.15390568003730200D-02  0.00000000000000000D+00
15 15  0.00000000000000000D+00  0.00000000000000000D+00  0.00000000000000000D+00 -1.04858320134249400D-02 -2.61075576189699200D-03
15 16  0.00000000000000000D+00  0.00000000000000000D+00  0.00000000000000000D+00  0.00000000000000000D+00  0.00000000000000000D+00
15 17 -1.05964128526034000D-01  0.00000000000000000D+00  0.00000000000000000D+00 -5.15647861452243900D-02  0.00000000000000000D+00
15 18  0.00000000000000000D+00  0.00000000000000000D+00  0.00000000000000000D+00 -1.04961842345520300D-02  2.60172836622767100D-03
15 19  0.00000000000000000D+00  0.00000000000000000D+00  0.00000000000000000D+00  0.00000000000000000D+00  0.00000000000000000D+00
15 20  0.00000000000000000D+00 -2.89695743726734600D-01  0.00000000000000000D+00  0.00000000000000000D+00 -2.06017017120787800D-01
15 21  0.00000000000000000D+00  0.00000000000000000D+00 -2.12795551463518800D-02  0.00000000000000000D+00  0.00000000000000000D+00
15 22  0.00000000000000000D+00  0.00000000000000000D+00  1.03494883803487500D-07  1.55873562074308700D-02  0.00000000000000000D+00
15 23  0.00000000000000000D+00  0.00000000000000000D+00  0.00000000000000000D+00  8.21853082852311900D-08  1.93096043656891500D-02
15 24  0.00000000000000000D+00  0.00000000000000000D+00  0.00000000000000000D+00  0.00000000000000000D+00  0.00000000000000000D+00
15 25  0.00000000000000000D+00 -2.89348532327040600D-01  0.00000000000000000D+00  0.00000000000000000D+00 -2.05767765484108400D-01
15 26  0.00000000000000000D+00  0.00000000000000000D+00 -2.12495677095690300D-02  0.00000000000000000D+00  0.00000000000000000D+00
15 27  0.00000000000000000D+00  0.00000000000000000D+00 -7.31106539111245800D-08 -1.55696524776382200D-02  0.00000000000000000D+00
15 28  0.00000000000000000D+00  0.00000000000000000D+00  0.00000000000000000D+00 -4.47957594283336800D-08 -1.92864833908922300D-02
15 29  0.00000000000000000D+00  0.00000000000000000D+00  0.00000000000000000D+00  0.00000000000000000D+00 -3.63857598428038400D-03
15 30  0.00000000000000000D+00  0.00000000000000000D+00  0.00000000000000000D+00  0.00000000000000000D+00 -3.63673842144704100D-03
15 31  0.00000000000000000D+00  0.00000000000000000D+00  0.00000000000000000D+00  0.00000000000000000D+00 -3.63667770755236900D-03
15 32  0.00000000000000000D+00  0.00000000000000000D+00  0.00000000000000000D+00  0.00000000000000000D+00 -3.63865579014522500D-03
16  1  0.00000000000000000D+00  0.00000000000000000D+00  0.00000000000000000D+00  0.00000000000000000D+00  0.00000000000000000D+00
16  2 -2.40413404228652200D-01  0.00000000000000000D+00  0.00000000000000000D+00 -1.22635347903996200D-01  0.00000000000000000D+00
16  3  0.00000000000000000D+00  0.00000000000000000D+00  0.00000000000000000D+00 -1.80565992720799400D-07 -2.57548776155005200D-02
16  4  0.00000000000000000D+00  0.00000000000000000D+00  0.00000000000000000D+00  0.00000000000000000D+00  0.00000000000000000D+00
16  5 -4.25908632490718000D-02  0.00000000000000000D+00  0.00000000000000000D+00 -2.39179682195991400D-02  0.00000000000000000D+00
16  6  0.00000000000000000D+00  0.00000000000000000D+00  0.00000000000000000D+00  9.62306059830157900D-03 -8.35308268275495300D-03
16  7  0.00000000000000000D+00  0.00000000000000000D+00  0.00000000000000000D+00  0.00000000000000000D+00  0.00000000000000000D+00
16  8  4.27081536067986800D-02  0.00000000000000000D+00  0.00000000000000000D+00  2.39757741652617500D-02  0.00000000000000000D+00
16  9  0.00000000000000000D+00  0.00000000000000000D+00  0.00000000000000000D+00 -9.63448736505902400D-03 -8.34987429136036500D-03
16 10  0.00000000000000000D+00  0.00000000000000000D+00  0.00000000000000000D+00  0.00000000000000000D+00  0.00000000000000000D+00
16 11  2.40659403939952700D-01  0.00000000000000000D+00  0.00000000000000000D+00  1.22755960470347300D-01  0.00000000000000000D+00
16 12  0.00000000000000000D+00  0.00000000000000000D+00  0.00000000000000000D+00 -1.56391389520441000D-07 -2.57717599412918700D-02
16 13  0.00000000000000000D+00  0.00000000000000000D+00  0.00000000000000000D+00  0.00000000000000000D+00  0.00000000000000000D+00
16 14  4.27095033947117600D-02  0.00000000000000000D+00  0.00000000000000000D+00  2.39779921480137000D-02  0.00000000000000000D+00
16 15  0.00000000000000000D+00  0.00000000000000000D+00  0.00000000000000000D+00  9.63426169853594100D-03 -8.34965295775825900D-03
16 16  0.00000000000000000D+00  0.00000000000000000D+00  0.00000000000000000D+00  0.00000000000000000D+00  0.00000000000000000D+00
16 17 -4.25897558439525500D-02  0.00000000000000000D+00  0.00000000000000000D+00 -2.39159078223433600D-02  0.00000000000000000D+00
16 18  0.00000000000000000D+00  0.00000000000000000D+00  0.00000000000000000D+00 -9.62335304830763500D-03 -8.35338714857969600D-03
16 19  0.00000000000000000D+00  0.00000000000000000D+00  0.00000000000000000D+00  0.00000000000000000D+00  0.00000000000000000D+00
16 20  0.00000000000000000D+00 -3.30986789014879800D-01  0.00000000000000000D+00  0.00000000000000000D+00 -2.37727743057091000D-01
16 21  0.00000000000000000D+00  0.00000000000000000D+00 -2.87358167545204100D-02  0.00000000000000000D+00  0.00000000000000000D+00
16 22  0.00000000000000000D+00  0.00000000000000000D+00  1.06451453333523700D-07  1.68322585117616900D-02  0.00000000000000000D+00
16 23  0.00000000000000000D+00  0.00000000000000000D+00  0.00000000000000000D+00  1.07563867504834000D-07  2.20584812583931800D-02
16 24  0.00000000000000000D+00  0.00000000000000000D+00  0.00000000000000000D+00  0.00000000000000000D+00  0.00000000000000000D+00
16 25  0.00000000000000000D+00  3.31283050646599400D-01  0.00000000000000000D+00  0.00000000000000000D+00  2.37937849840890200D-01
16 26  0.00000000000000000D+00  0.00000000000000000D+00  2.87570078875554900D-02  0.00000000000000000D+00  0.00000000000000000D+00
16 27  0.00000000000000000D+00  0.00000000000000000D+00  7.36456262372693000D-08  1.68483517220113300D-02  0.00000000000000000D+00
16 28  0.00000000000000000D+00  0.00000000000000000D+00  0.00000000000000000D+00  6.00259805416315600D-08  2.20782829262485600D-02
16 29  0.00000000000000000D+00  0.00000000000000000D+00  0.00000000000000000D+00  0.00000000000000000D+00 -1.85010064801744600D-03
16 30  0.00000000000000000D+00  0.00000000000000000D+00  0.00000000000000000D+00  0.00000000000000000D+00  1.85412079401324700D-03
16 31  0.00000000000000000D+00  0.00000000000000000D+00  0.00000000000000000D+00  0.00000000000000000D+00  1.85416181346247800D-03
16 32  0.00000000000000000D+00  0.00000000000000000D+00  0.00000000000000000D+00  0.00000000000000000D+00 -1.85007034482624200D-03
17  1 -2.34359359323636000D-03  4.84085254457235100D-02  5.54960295740224900D-02  2.62455271528582500D-06  2.51252369265393500D-01
17  2  0.00000000000000000D+00 -5.30738766485759700D-07 -1.27369529578178900D-02  0.00000000000000000D+00 -3.23750573872603800D-02
17  3  3.68529271734950500D-02 -4.47786978623461500D-03  1.55058928351065600D-07  0.00000000000000000D+00  0.00000000000000000D+00
17  4  7.20627194046800400D-03 -1.02081596919226200D-01 -1.68858760096606800D-01 -3.03489764412101700D-03 -6.38075653046729400D-02
17  5  0.00000000000000000D+00  4.29906113319058500D-02  1.15911941228040900D-02  0.00000000000000000D+00 -1.36118326404596400D-02
17  6  1.05779308865214600D-02  3.03390175393815900D-03 -8.71883872726077400D-03  0.00000000000000000D+00  0.00000000000000000D+00
17  7 -7.20175862324189200D-03  1.02071960410840000D-01  1.68817569758739200D-01  2.98239905284457800D-03 -6.33789779527911300D-02
17  8  0.00000000000000000D+00 -4.30040679980618500D-02  1.17329409293918600D-02  0.00000000000000000D+00  1.35821251888836500D-02
17  9 -1.05510520921571600D-02 -3.03107309672660700D-03 -8.71625773573855500D-03  0.00000000000000000D+00  0.00000000000000000D+00
17 10  2.34201201117779500D-03 -4.83977288037358500D-02 -5.55674743075087500D-02  1.77770697275244200D-06  2.50873631266926200D-01
17 11  0.00000000000000000D+00 -6.92292817722835500D-07 -1.27809545731316200D-02  0.00000000000000000D+00  3.23107356535183400D-02
17 12 -3.67777438363788600D-02  4.46700818286046900D-03 -1.85992378132191100D-07  0.00000000000000000D+00  0.00000000000000000D+00
17 13 -7.20192770851277600D-03  1.02076409749720200D-01  1.68819920713717700D-01 -2.98594560867334200D-03 -6.33774002812722400D-02
17 14  0.00000000000000000D+00  4.30028272249444000D-02  1.17340494472823000D-02  0.00000000000000000D+00  1.35818304462438900D-02
17 15 -1.05506370118400200D-02 -3.03119343440383800D-03  8.71626220014433100D-03  0.00000000000000000D+00  0.00000000000000000D+00
17 16  7.20621109821323800D-03 -1.02077949923704100D-01 -1.68857970028281200D-01  3.03108983238667400D-03 -6.38099526545440300D-02
17 17  0.00000000000000000D+00 -4.29920775377528100D-02  1.15906295266917000D-02  0.00000000000000000D+00 -1.36122400006981200D-02
17 18  1.05784397718567500D-02  3.03380022884139800D-03  8.71880504527846300D-03  0.00000000000000000D+00  0.00000000000000000D+00
17 19 -6.26964952063784000D-03  1.89002234524768600D-01  1.65895500993619400D-01 -3.47682506975768200D-04 -2.40621591783905100D-06
17 20 -2.01100942416514500D-01  0.00000000000000000D+00 -1.35577204597960300D-06 -9.60810952159160400D-02  0.00000000000000000D+00
17 21 -1.48114001404910600D-07 -9.32241819771421700D-03  0.00000000000000000D+00 -7.28281988813275600D-03  1.46647761642018700D-02
17 22 -7.38195627606910000D-03  1.83834448971888200D-07  0.00000000000000000D+00  0.00000000000000000D+00  1.66078943233597000D-03
17 23 -3.42606715275439800D-03  1.76527772041847300D-03 -3.06021146933926800D-08  0.00000000000000000D+00  0.00000000000000000D+00
17 24  6.26133388559843700D-03 -1.88717385470173500D-01 -1.65630346671960100D-01  3.36136717471465200D-04 -1.74981925333657800D-06
17 25 -2.00798397334890800D-01 -1.00043348448123100D-11 -9.51994179897787900D-07 -9.59301582754978500D-02  0.00000000000000000D+00
17 26 -9.22180271826945800D-08 -9.30926533714948400D-03  0.00000000000000000D+00  7.27231806725908200D-03 -1.46440016518923300D-02
17 27  7.37168358463317600D-03 -1.34294045400489600D-07  0.00000000000000000D+00  0.00000000000000000D+00 -1.65767784161179100D-03
17 28  3.41646738801483300D-03 -1.75878954640307700D-03  2.61585944814380400D-08  0.00000000000000000D+00  0.00000000000000000D+00
17 29 -8.84506611096045900D-02 -3.62508627636083400D-02  6.20664077088902700D-03  2.09979156913269200D-03  0.00000000000000000D+00
17 30  8.82162818017165600D-02  3.61685815948395900D-02 -6.18837729499463000D-03  2.09978865380831100D-03  0.00000000000000000D+00
17 31  8.82201069072224600D-02  3.61691181482791700D-02  6.18870827617792500D-03  2.10012973099715000D-03  0.00000000000000000D+00
17 32 -8.84475045922598600D-02 -3.62505983418026600D-02 -6.20639176696784300D-03  2.09946424413661800D-03  0.00000000000000000D+00
18  1 -9.99597896759056000D-04  1.67022301133622000D-02 -2.99602600745460500D-02  3.82112582963777700D-06  1.94009820109707500D-01
18  2  0.00000000000000000D+00 -7.64289906741317200D-08  2.00849266923762700D-02  0.00000000000000000D+00 -3.39259674773346300D-02
18  3  4.00639947645652200D-02 -6.13802728723052900D-03  1.05050098888077500D-07  0.00000000000000000D+00  0.00000000000000000D+00
18  4  2.62653640358298500D-03 -6.43751132247456000D-03 -2.44183670829589600D-02 -3.73365708039635300D-02 -2.24928631142749200D-01
18  5  0.00000000000000000D+00 -9.53387712423974300D-03 -7.43093273253162500D-02  0.00000000000000000D+00 -1.52122117689056800D-02
18  6  1.38832120453793900D-02  1.32899972352624300D-03 -1.59102705966326800D-03  0.00000000000000000D+00  0.00000000000000000D+00
18  7  2.64011997805117200D-03 -6.62882864411074300D-03 -2.47359599235183200D-02 -3.73468760175956900D-02  2.25047988743952700D-01
18  8  0.00000000000000000D+00 -9.45323643801145900D-03  7.42884877235419200D-02  0.00000000000000000D+00 -1.52373766054700300D-02
18  9  1.39029048448033500D-02  1.33447176066676200D-03  1.60792880006457800D-03  0.00000000000000000D+00  0.00000000000000000D+00
18 10 -1.00397960437747800D-03  1.67994329473573600D-02 -2.98469823891832700D-02 -2.74792793845399900D-06 -1.94467637601829000D-01
18 11  0.00000000000000000D+00  6.32892601292743800D-07 -2.00558924961340700D-02  0.00000000000000000D+00 -3.39866091993797400D-02
18 12  4.01329062850006500D-02 -6.14629708562096000D-03  2.36253611919899100D-08  0.00000000000000000D+00  0.00000000000000000D+00
18 13  2.64027433375354200D-03 -6.63260337992881900D-03 -2.47400341832855100D-02  3.73558160330704400D-02  2.25052838990640200D-01
18 14  0.00000000000000000D+00  9.45693201863765300D-03  7.42883918148847400D-02  0.00000000000000000D+00 -1.52373462403949100D-02
18 15  1.39028148926925800D-02  1.33453134770225300D-03 -1.60869159647862000D-03  0.00000000000000000D+00  0.00000000000000000D+00
18 16  2.62639180436343800D-03 -6.43411083706562800D-03 -2.44140274308262200D-02  3.73293118970598100D-02 -2.24927910162146400D-01
18 17  0.00000000000000000D+00  9.53111482149027500D-03 -7.43100005289341300D-02  0.00000000000000000D+00 -1.52124532198852900D-02
18 18  1.38834657855074400D-02  1.32898743437793500D-03  1.59014277540595700D-03  0.00000000000000000D+00  0.00000000000000000D+00
18 19 -4.53772095126858500D-03  1.50642380148749400D-01  1.40540057652122600D-01 -6.66042315238123800D-03 -1.73812293968379300D-06
18 20 -1.61516380709722700D-01  0.00000000000000000D+00 -1.01297159256465200D-06 -8.06550068384115600D-02  0.00000000000000000D+00
18 21 -2.12050280515954300D-07 -6.41195313384533300D-03  0.00000000000000000D+00 -5.62164147014681700D-03  1.11153724551206500D-02
18 22 -5.49373098497380700D-03  9.03956420275549300D-08  0.00000000000000000D+00  0.00000000000000000D+00  1.42497221903980000D-03
18 23 -4.92812015140440600D-03  3.50314793236449200D-03 -2.65946128419160000D-08  0.00000000000000000D+00  0.00000000000000000D+00
18 24 -4.54941685484874200D-03  1.50992129152269800D-01  1.40848220687436400D-01 -6.66026361309755000D-03  1.20835249673553000D-06
18 25  1.61887438588600100D-01  0.00000000000000000D+00  5.52857174658141000D-07  8.08321939123252100D-02  0.00000000000000000D+00
18 26  1.33400064491398600D-07  6.42912467014166100D-03  0.00000000000000000D+00 -5.63509642199996400D-03  1.11424440081573300D-02
18 27 -5.50734758615745300D-03  5.40239427170576100D-08  0.00000000000000000D+00  0.00000000000000000D+00  1.42798275435462200D-03
18 28 -4.93450153806030300D-03  3.50651878370566500D-03 -5.34770724482925200D-08  0.00000000000000000D+00  0.00000000000000000D+00
18 29 -1.30171704308793400D-01 -4.47641590841812800D-02  1.00858141785711900D-02  3.73215521596134900D-04  0.00000000000000000D+00
18 30 -1.30340532796585800D-01 -4.48331941268628300D-02  1.00975997343680100D-02 -3.77210905858833500D-04  0.00000000000000000D+00
18 31 -1.30351522793056700D-01 -4.48361571849841400D-02 -1.00982779599127700D-02 -3.77875677455361100D-04  0.00000000000000000D+00
18 32 -1.30163779702446400D-01 -4.47619955797992300D-02 -1.00853876948825700D-02  3.72619536412832900D-04  0.00000000000000000D+00
19  1  2.52490861455028200D-05 -8.70818649289621100D-02 -7.02119139262585000D-02  2.09024852478207400D-06  2.11140535139563900D-01
19  2  0.00000000000000000D+00 -6.16676747854108600D-07  4.20089199420063700D-02  0.00000000000000000D+00 -9.30616562866484100D-03
19  3  7.23061333384005100D-03  2.07555229482483300D-03 -2.11178711397062500D-07  0.00000000000000000D+00  0.00000000000000000D+00
19  4  1.58847321318416300D-03 -1.99544262589987600D-02  5.56807156725687400D-03  1.83458697828030700D-01  4.67202490443565000D-02
19  5  0.00000000000000000D+00  6.80413796529020800D-02  1.56187707232631500D-02  0.00000000000000000D+00 -7.89717975260504800D-03
19  6  2.91230635586125700D-03  4.98487339674366500D-03 -2.78038177233441900D-05  0.00000000000000000D+00  0.00000000000000000D+00
19  7  1.58912588008409700D-03 -1.99668938404790300D-02  5.55374718978010600D-03  1.83459812949086600D-01 -4.67126467222266200D-02
19  8  0.00000000000000000D+00  6.80424438149142000D-02 -1.56176248463050300D-02  0.00000000000000000D+00 -7.89846955321561900D-03
19  9  2.91339319019182700D-03  4.98507636302394000D-03  2.83063331519778700D-05  0.00000000000000000D+00  0.00000000000000000D+00
19 10  2.51757906757311600D-05 -8.70795137567671000D-02 -7.02106871212296200D-02 -1.85361226870198800D-06 -2.11159825536811900D-01
19 11  0.00000000000000000D+00  1.51127673327280500D-07 -4.20096346426626200D-02  0.00000000000000000D+00 -9.30906706944364300D-03
19 12  7.23365137272132700D-03  2.07541569672215300D-03 -1.38503969558824400D-07  0.00000000000000000D+00  0.00000000000000000D+00
19 13  1.58896234937494100D-03 -1.99641524517295600D-02  5.55513311651748700D-03 -1.83458438661804600D-01 -4.67140177375780400D-02
19 14  0.00000000000000000D+00 -6.80429028034838700D-02 -1.56179959639503200D-02  0.00000000000000000D+00 -7.89832205125743000D-03
19 15  2.91324324738080800D-03  4.98507880387664500D-03 -2.86298999777915800D-05  0.00000000000000000D+00  0.00000000000000000D+00
19 16  1.58860853750204700D-03 -1.99568251849226000D-02  5.56658715593989100D-03 -1.83462487435202300D-01  4.67197385762909100D-02
19 17  0.00000000000000000D+00 -6.80418298503334500D-02  1.56184218281793800D-02  0.00000000000000000D+00 -7.89732376431987300D-03
19 18  2.91246300085510300D-03  4.98486076346466900D-03  2.75029150668638600D-05  0.00000000000000000D+00  0.00000000000000000D+00
19 19 -1.65691750616488400D-03  1.09979123869272700D-01  8.86614825690777600D-02  7.41005709462198800D-03 -9.48539504982808100D-07
19 20 -8.80437560745333000D-02  0.00000000000000000D+00 -3.22586928252200700D-07 -4.19868690183273200D-02  0.00000000000000000D+00
19 21  2.40676948677316700D-08 -1.20793343455737800D-02  0.00000000000000000D+00 -3.22670515667575600D-03  6.58395265486806800D-03
19 22 -3.35724749819240300D-03  7.71595687783580000D-08  0.00000000000000000D+00  0.00000000000000000D+00  2.58140247303786600D-03
19 23 -6.51473956503253000D-04 -1.92992851653474400D-03 -1.03939318092122300D-07  0.00000000000000000D+00  0.00000000000000000D+00
19 24 -1.65738686132922100D-03  1.09994737888758100D-01  8.86756590391514500D-02  7.41014957098941700D-03  5.90326140890471400D-07
19 25  8.80583832909621700D-02  0.00000000000000000D+00  2.33456029811070500D-07  4.19940865263303300D-02  0.00000000000000000D+00
19 26 -1.73888514904239800D-08  1.20801301897685800D-02  0.00000000000000000D+00 -3.22723502405534400D-03  6.58501414726845100D-03
19 27 -3.35777912321321200D-03  4.75513045450386100D-08  0.00000000000000000D+00  0.00000000000000000D+00  2.58149871234733800D-03
19 28 -6.51636456151627500D-04 -1.92986225619569100D-03 -6.91240527132333500D-08  0.00000000000000000D+00  0.00000000000000000D+00
19 29  1.22452409051577900D-01  2.02774447053826200D-02 -8.15005697072546100D-03 -6.48571528397662700D-03  0.00000000000000000D+00
19 30  1.22443508817223500D-01  2.02748086977750500D-02 -8.14927660274989600D-03  6.48538498443723500D-03  0.00000000000000000D+00
19 31  1.22444012640647800D-01  2.02743981251187000D-02  8.14940321690196500D-03  6.48548075496640500D-03  0.00000000000000000D+00
19 32  1.22453971572838700D-01  2.02782703313024400D-02  8.15006770699989100D-03 -6.48571926618373900D-03  0.00000000000000000D+00
20  1 -1.80936070116170200D-08  2.64789638801174900D-07  2.19175949455688400D-06  1.67573224552346000D-04 -2.19534151431067200D-06
20  2  0.00000000000000000D+00 -5.31295698767308800D-02 -1.57662472010459800D-06  0.00000000000000000D+00  3.14350466628340700D-07
20  3 -3.53469093139941000D-07  3.91186265054000100D-08 -1.65125743735293700D-02  0.00000000000000000D+00  0.00000000000000000D+00
20  4 -1.55965051670507200D-03  3.31415405427773000D-02  5.30586845599959300D-02 -1.49879313466898300D-01 -2.30391591186110000D-01
20  5  0.00000000000000000D+00 -7.83673497896205400D-02 -6.25301232422800600D-02  0.00000000000000000D+00 -9.89457191605232200D-03
20  6  1.13298546530148000D-02 -1.43528273696235900D-03  1.78165655621192200D-03  0.00000000000000000D+00  0.00000000000000000D+00
20  7 -1.55924670960454200D-03  3.31325822695550700D-02  5.30530611367538700D-02 -1.49882282105293800D-01  2.30397039527764700D-01
20  8  0.00000000000000000D+00 -7.83674530698347800D-02  6.25298219775875700D-02  0.00000000000000000D+00 -9.89511940986350000D-03
20  9  1.13301999840121800D-02 -1.43508057414877500D-03 -1.78136793763574800D-03  0.00000000000000000D+00  0.00000000000000000D+00
20 10  2.76176738102860300D-08 -7.43410043034210700D-07 -2.66499761157519500D-06  1.65721346402753000D-04 -2.61748795258011600D-06
20 11  0.00000000000000000D+00 -5.31302911881121000D-02 -1.69758195462994800D-06  0.00000000000000000D+00 -4.57654571870815200D-07
20 12  5.00302609883498100D-07 -4.26480379277661600D-08  1.65123128122067100D-02  0.00000000000000000D+00  0.00000000000000000D+00
20 13  1.55912444426736200D-03 -3.31318567324621900D-02 -5.30504990844317800D-02 -1.49886227307932800D-01 -2.30394760673699200D-01
20 14  0.00000000000000000D+00 -7.83685173569419100D-02 -6.25288537681417100D-02  0.00000000000000000D+00  9.89476425212603600D-03
20 15 -1.13298956394213900D-02  1.43513138729539000D-03 -1.78107025944510300D-03  0.00000000000000000D+00  0.00000000000000000D+00
20 16  1.55977085604431400D-03 -3.31415063701006500D-02 -5.30610490656956500D-02 -1.49874094736397500D-01  2.30388366316607000D-01
20 17  0.00000000000000000D+00 -7.83655278720977500D-02  6.25286353557807100D-02  0.00000000000000000D+00  9.89464200696052300D-03
20 18 -1.13298215835849400D-02  1.43517957662449400D-03  1.78197409402791600D-03  0.00000000000000000D+00  0.00000000000000000D+00
20 19  3.81143160735430500D-08 -1.05710776062031700D-06 -3.08713486582937100D-07  4.47682376442541000D-07 -6.16643492444353300D-03
20 20  2.22202899116223400D-06  0.00000000000000000D+00  1.29862317504634100D-02  1.14807119095023300D-06  0.00000000000000000D+00
20 21  4.26983906085752100D-03  4.25708922720231800D-08  0.00000000000000000D+00  4.98094515752089100D-08 -9.94191747350289000D-08
20 22  4.96097231504856900D-08 -2.81177473398244400D-04  0.00000000000000000D+00  0.00000000000000000D+00 -6.42650679949929500D-08
20 23 -3.14254383365486200D-08  9.56905066914424900D-08 -3.67307273990735200D-03  0.00000000000000000D+00  0.00000000000000000D+00
20 24 -3.33218575347294100D-08  1.27070708299113600D-06  7.26430679440087400D-07 -4.37036980201369000D-07 -6.16641732687643700D-03
20 25  2.37733586960673500D-06  0.00000000000000000D+00  1.29864974709027000D-02  1.27986711378849600D-06  0.00000000000000000D+00
20 26  4.26990527433048500D-03  7.00069666111729800D-08  0.00000000000000000D+00 -5.81937499641501600D-08  1.12670937617417100D-07
20 27 -5.44771876103698100D-08  2.81172231781881000D-04  0.00000000000000000D+00  0.00000000000000000D+00  5.22005482813659100D-08
20 28 -6.97493108557639000D-09 -4.52256171957895200D-08  3.67302097768972600D-03  0.00000000000000000D+00  0.00000000000000000D+00
20 29 -1.82828191716689700D-01 -5.16376754676856400D-02  1.28289156075309800D-02  4.11650450466714000D-03  0.00000000000000000D+00
20 30 -1.82837958890350100D-01 -5.16404193031761300D-02  1.28297401844953600D-02 -4.11680145436154800D-03  0.00000000000000000D+00
20 31  1.82840143895819200D-01  5.16408911080188000D-02  1.28297970879787200D-02  4.11717128795405400D-03  0.00000000000000000D+00
20 32  1.82823083378709300D-01  5.16362100489780700D-02  1.28286300522363200D-02 -4.11613055304796600D-03  0.00000000000000000D+00
21  1  0.00000000000000000D+00  0.00000000000000000D+00  0.00000000000000000D+00  0.00000000000000000D+00  0.00000000000000000D+00
21  2  1.11609230644115000D-02  0.00000000000000000D+00  0.00000000000000000D+00  1.86089471161286500D-02  0.00000000000000000D+00
21  3  0.00000000000000000D+00  0.00000000000000000D+00  0.00000000000000000D+00  5.37727645287547400D-07  3.64190464463337600D-02
21  4  0.00000000000000000D+00  0.00000000000000000D+00  0.00000000000000000D+00  0.00000000000000000D+00  0.00000000000000000D+00
21  5 -2.28830055807123100D-01  0.00000000000000000D+00  0.00000000000000000D+00 -1.79853871078085700D-01  0.00000000000000000D+00
21  6  0.00000000000000000D+00  0.00000000000000000D+00  0.00000000000000000D+00  6.01413558864743400D-03  2.19783355460364700D-02
21  7  0.00000000000000000D+00  0.00000000000000000D+00  0.00000000000000000D+00  0.00000000000000000D+00  0.00000000000000000D+00
21  8 -2.28829638230729100D-01  0.00000000000000000D+00  0.00000000000000000D+00 -1.79853929598115000D-01  0.00000000000000000D+00
21  9  0.00000000000000000D+00  0.00000000000000000D+00  0.00000000000000000D+00  6.01383628884129200D-03 -2.19784480690871900D-02
21 10  0.00000000000000000D+00  0.00000000000000000D+00  0.00000000000000000D+00  0.00000000000000000D+00  0.00000000000000000D+00
21 11  1.11688525341885300D-02  0.00000000000000000D+00  0.00000000000000000D+00  1.86125874191220700D-02  0.00000000000000000D+00
21 12  0.00000000000000000D+00  0.00000000000000000D+00  0.00000000000000000D+00 -2.38459703536254800D-07 -3.64197601346187500D-02
21 13  0.00000000000000000D+00  0.00000000000000000D+00  0.00000000000000000D+00  0.00000000000000000D+00  0.00000000000000000D+00
21 14 -2.28831512294274900D-01  0.00000000000000000D+00  0.00000000000000000D+00 -1.79854599348433600D-01  0.00000000000000000D+00
21 15  0.00000000000000000D+00  0.00000000000000000D+00  0.00000000000000000D+00 -6.01389720424986500D-03 -2.19788459011013600D-02
21 16  0.00000000000000000D+00  0.00000000000000000D+00  0.00000000000000000D+00  0.00000000000000000D+00  0.00000000000000000D+00
21 17 -2.28834121688642500D-01  0.00000000000000000D+00  0.00000000000000000D+00 -1.79857153518037100D-01  0.00000000000000000D+00
21 18  0.00000000000000000D+00  0.00000000000000000D+00  0.00000000000000000D+00 -6.01418480708156700D-03  2.19784443783644700D-02
21 19  0.00000000000000000D+00  0.00000000000000000D+00  0.00000000000000000D+00  0.00000000000000000D+00  0.00000000000000000D+00
21 20  0.00000000000000000D+00  2.29169769155127500D-01  0.00000000000000000D+00  0.00000000000000000D+00  1.85406981871047600D-01
21 21  0.00000000000000000D+00  0.00000000000000000D+00  3.95850938783216800D-02  0.00000000000000000D+00  0.00000000000000000D+00
21 22  0.00000000000000000D+00  0.00000000000000000D+00 -3.82481601176967300D-08 -6.17292976993765400D-03  0.00000000000000000D+00
21 23  0.00000000000000000D+00  0.00000000000000000D+00  0.00000000000000000D+00 -1.01035177268155100D-07 -1.45204143681948600D-02
21 24  0.00000000000000000D+00  0.00000000000000000D+00  0.00000000000000000D+00  0.00000000000000000D+00  0.00000000000000000D+00
21 25  0.00000000000000000D+00  2.29180330583737000D-01  0.00000000000000000D+00  0.00000000000000000D+00  1.85414702605466200D-01
21 26  0.00000000000000000D+00  0.00000000000000000D+00  3.95861147109633600D-02  0.00000000000000000D+00  0.00000000000000000D+00
21 27  0.00000000000000000D+00  0.00000000000000000D+00  3.29266704069664200D-08  6.17345082428028500D-03  0.00000000000000000D+00
21 28  0.00000000000000000D+00  0.00000000000000000D+00  0.00000000000000000D+00  4.60881294001784700D-08  1.45212125521314000D-02
21 29  0.00000000000000000D+00  0.00000000000000000D+00  0.00000000000000000D+00  0.00000000000000000D+00 -7.03334360133971700D-03
21 30  0.00000000000000000D+00  0.00000000000000000D+00  0.00000000000000000D+00  0.00000000000000000D+00 -7.03339694609835800D-03
21 31  0.00000000000000000D+00  0.00000000000000000D+00  0.00000000000000000D+00  0.00000000000000000D+00 -7.03345868183716700D-03
21 32  0.00000000000000000D+00  0.00000000000000000D+00  0.00000000000000000D+00  0.00000000000000000D+00 -7.03347518266361400D-03
22  1  7.81212806833479800D-08 -2.71396611711187100D-06  5.62007872698763600D-07  1.82165923077386000D-01  1.41055623643428500D-06
22  2  0.00000000000000000D+00  2.29374038739906700D-02 -3.82789743123651900D-07  0.00000000000000000D+00 -4.22087360068749700D-07
22  3  4.74543766062425300D-07 -5.24564060587110100D-08 -1.25725394169727600D-02  0.00000000000000000D+00  0.00000000000000000D+00
22  4 -8.32423598359349400D-03  1.65637723371252400D-01  1.83569909389606000D-01  1.47319106737928600D-02  1.14644224764713800D-01
22  5  0.00000000000000000D+00 -3.00275324407817100D-02  1.39895009781281600D-02  0.00000000000000000D+00  7.32400727127492000D-03
22  6 -2.40178311673564900D-03 -4.92222415453921200D-03 -2.69947192509792000D-03  0.00000000000000000D+00  0.00000000000000000D+00
22  7  8.32469747842653300D-03 -1.65637694515177400D-01 -1.83569284405712800D-01 -1.47382022424997000D-02  1.14629489147114800D-01
22  8  0.00000000000000000D+00  3.00259851327542300D-02  1.39841121152805500D-02  0.00000000000000000D+00 -7.32335789602939600D-03
22  9  2.40127135112425300D-03  4.92208654490510500D-03 -2.69917948994696100D-03  0.00000000000000000D+00  0.00000000000000000D+00
22 10  6.75890477034849300D-08 -2.75964528309107600D-06  3.06163425501080000D-07 -1.82143789275521900D-01 -2.01239535014449900D-06
22 11  0.00000000000000000D+00 -2.29302841081893800D-02  2.11268163390835000D-07  0.00000000000000000D+00 -5.13035966441537800D-07
22 12  5.65730669083909000D-07 -5.26947026646854800D-08 -1.25728220059781300D-02  0.00000000000000000D+00  0.00000000000000000D+00
22 13 -8.32461373069912400D-03  1.65640851275665700D-01  1.83570211873589100D-01 -1.47378555422954100D-02 -1.14618357791034100D-01
22 14  0.00000000000000000D+00  3.00260027415116500D-02 -1.39808632624299900D-02  0.00000000000000000D+00  7.32271800687466600D-03
22 15 -2.40056086856749500D-03 -4.92215713830702400D-03 -2.69890010850863200D-03  0.00000000000000000D+00  0.00000000000000000D+00
22 16  8.32431078910535900D-03 -1.65633499708297400D-01 -1.83567525936683100D-01  1.47325336436930000D-02 -1.14655078441065500D-01
22 17  0.00000000000000000D+00 -3.00270093783214100D-02 -1.39928367743078100D-02  0.00000000000000000D+00 -7.32445087638107900D-03
22 18  2.40234333342353700D-03  4.92210754295744500D-03 -2.69980911875871300D-03  0.00000000000000000D+00  0.00000000000000000D+00
22 19  2.23237453901376900D-08 -2.56182779244197400D-07 -4.55075539252617300D-07 -3.34985095139615300D-07  6.46553913842988100D-02
22 20 -1.48614438220943600D-06  0.00000000000000000D+00  3.74200529257591900D-02 -6.08973670196636000D-07  0.00000000000000000D+00
22 21 -2.51887800687859500D-03  5.40424317021181100D-08  0.00000000000000000D+00 -6.74365623940264200D-08  7.82079464567597900D-08
22 22 -1.07713840512578500D-08 -4.81853167755431700D-03  0.00000000000000000D+00  0.00000000000000000D+00  2.98746196341301200D-08
22 23 -1.49852074607335700D-07  1.19977454894881800D-07 -6.89581193811059500D-03  0.00000000000000000D+00  0.00000000000000000D+00
22 24  1.39471252035380700D-08  8.88376373026873000D-08 -7.50289660853217900D-08 -2.91760154744787100D-07 -6.46441557151445900D-02
22 25  1.64927486690464100D-06  0.00000000000000000D+00 -3.74143782602890300D-02  7.21739953395988400D-07  0.00000000000000000D+00
22 26  2.51808176879289600D-03 -4.77224094275670500D-10  0.00000000000000000D+00 -6.17267339216359200D-08  8.12589528781560300D-08
22 27 -1.95322189946996500D-08 -4.81781708367401200D-03  0.00000000000000000D+00  0.00000000000000000D+00  4.71636587045709500D-08
22 28 -1.65044401278066800D-07  1.17880742573516300D-07 -6.89536521921605600D-03  0.00000000000000000D+00  0.00000000000000000D+00
22 29  1.47387783586257500D-01  3.92655657275569600D-02 -1.40038839907868600D-02 -7.14337237410928100D-03  0.00000000000000000D+00
22 30 -1.47386546115664600D-01 -3.92649456655729800D-02  1.40037195982158900D-02 -7.14348623817269500D-03  0.00000000000000000D+00
22 31  1.47383284704495900D-01  3.92635617862187900D-02  1.40034094520868800D-02  7.14373692949816000D-03  0.00000000000000000D+00
22 32 -1.47390575901314800D-01 -3.92666394817409900D-02 -1.40041676607655000D-02  7.14314052433106200D-03  0.00000000000000000D+00
23  1  0.00000000000000000D+00  0.00000000000000000D+00  0.00000000000000000D+00  0.00000000000000000D+00  0.00000000000000000D+00
23  2 -3.24743573679321100D-06  0.00000000000000000D+00  0.00000000000000000D+00 -8.49837215603691400D-07  0.00000000000000000D+00
23  3  0.00000000000000000D+00  0.00000000000000000D+00  0.00000000000000000D+00  2.47031328962976200D-02  3.51692075265956200D-07
23  4  0.00000000000000000D+00  0.00000000000000000D+00  0.00000000000000000D+00  0.00000000000000000D+00  0.00000000000000000D+00
23  5  2.82078234722282700D-01  0.00000000000000000D+00  0.00000000000000000D+00  2.13720074657423500D-01  0.00000000000000000D+00
23  6  0.00000000000000000D+00  0.00000000000000000D+00  0.00000000000000000D+00 -3.93592918139478300D-03 -2.31340546115763200D-02
23  7  0.00000000000000000D+00  0.00000000000000000D+00  0.00000000000000000D+00  0.00000000000000000D+00  0.00000000000000000D+00
23  8  2.82080578657782800D-01  0.00000000000000000D+00  0.00000000000000000D+00  2.13722167649051900D-01  0.00000000000000000D+00
23  9  0.00000000000000000D+00  0.00000000000000000D+00  0.00000000000000000D+00 -3.93630067186464400D-03  2.31337521057270000D-02
23 10  0.00000000000000000D+00  0.00000000000000000D+00  0.00000000000000000D+00  0.00000000000000000D+00  0.00000000000000000D+00
23 11  3.12154187604989900D-06  0.00000000000000000D+00  0.00000000000000000D+00  9.24808231383064200D-07  0.00000000000000000D+00
23 12  0.00000000000000000D+00  0.00000000000000000D+00  0.00000000000000000D+00  2.47030988607234500D-02  6.34602289366682900D-07
23 13  0.00000000000000000D+00  0.00000000000000000D+00  0.00000000000000000D+00  0.00000000000000000D+00  0.00000000000000000D+00
23 14 -2.82076017952381200D-01  0.00000000000000000D+00  0.00000000000000000D+00 -2.13717992930736500D-01  0.00000000000000000D+00
23 15  0.00000000000000000D+00  0.00000000000000000D+00  0.00000000000000000D+00 -3.93596412774469300D-03 -2.31338346511864900D-02
23 16  0.00000000000000000D+00  0.00000000000000000D+00  0.00000000000000000D+00  0.00000000000000000D+00  0.00000000000000000D+00
23 17 -2.82078135058157000D-01  0.00000000000000000D+00  0.00000000000000000D+00 -2.13719973591341500D-01  0.00000000000000000D+00
23 18  0.00000000000000000D+00  0.00000000000000000D+00  0.00000000000000000D+00 -3.93614526672608600D-03  2.31335430703633100D-02
23 19  0.00000000000000000D+00  0.00000000000000000D+00  0.00000000000000000D+00  0.00000000000000000D+00  0.00000000000000000D+00
23 20  0.00000000000000000D+00  2.34997832828560200D-07  0.00000000000000000D+00  0.00000000000000000D+00  3.14092133955822500D-07
23 21  0.00000000000000000D+00  0.00000000000000000D+00  3.86364921394945000D-07  0.00000000000000000D+00  0.00000000000000000D+00
23 22  0.00000000000000000D+00  0.00000000000000000D+00  1.08908927037345900D-03  7.45605304936410000D-08  0.00000000000000000D+00
23 23  0.00000000000000000D+00  0.00000000000000000D+00  0.00000000000000000D+00 -2.38668295083169100D-03  1.29459355477383100D-07
23 24  0.00000000000000000D+00  0.00000000000000000D+00  0.00000000000000000D+00  0.00000000000000000D+00  0.00000000000000000D+00
23 25  0.00000000000000000D+00 -2.23428115286934700D-06  0.00000000000000000D+00  0.00000000000000000D+00 -2.05159629746757100D-06
23 26  0.00000000000000000D+00  0.00000000000000000D+00 -7.48016832140659500D-07  0.00000000000000000D+00  0.00000000000000000D+00
23 27  0.00000000000000000D+00  0.00000000000000000D+00  1.08908968904141900D-03  2.70132986300017500D-08  0.00000000000000000D+00
23 28  0.00000000000000000D+00  0.00000000000000000D+00  0.00000000000000000D+00 -2.38666685619523200D-03 -4.05559248437495300D-08
23 29  0.00000000000000000D+00  0.00000000000000000D+00  0.00000000000000000D+00  0.00000000000000000D+00  9.74235333284266000D-03
23 30  0.00000000000000000D+00  0.00000000000000000D+00  0.00000000000000000D+00  0.00000000000000000D+00  9.74252171121017800D-03
23 31  0.00000000000000000D+00  0.00000000000000000D+00  0.00000000000000000D+00  0.00000000000000000D+00 -9.74236647539334300D-03
23 32  0.00000000000000000D+00  0.00000000000000000D+00  0.00000000000000000D+00  0.00000000000000000D+00 -9.74236372546752000D-03
24  1  5.37463175492956100D-08  3.39949189620119200D-06  5.71910954166262600D-07 -3.02581454991731700D-01 -3.35235441030254000D-06
24  2  0.00000000000000000D+00 -7.25681413280982600D-02 -5.71128457179322400D-07  0.00000000000000000D+00 -3.36776431783427000D-07
24  3  1.75392296871545300D-07  1.61384134932974600D-07  1.34764838974464000D-02  0.00000000000000000D+00  0.00000000000000000D+00
24  4  2.17978302658094700D-03 -5.58917203202763400D-02 -5.45850781149765000D-02  1.63941819200386000D-01 -1.36266079637782500D-01
24  5  0.00000000000000000D+00  7.46388470488262000D-02 -4.63898498289785600D-02  0.00000000000000000D+00 -5.79615048923982000D-03
24  6  1.55390594753042600D-03  4.24224454170938600D-03  6.32910308869556800D-03  0.00000000000000000D+00  0.00000000000000000D+00
24  7  2.18025654967589800D-03 -5.59015487327182800D-02 -5.45908739739728900D-02  1.63939104328164700D-01  1.36272204910850000D-01
24  8  0.00000000000000000D+00  7.46341943915374000D-02  4.63876440577910300D-02  0.00000000000000000D+00 -5.79664577673172700D-03
24  9  1.55416820395903300D-03  4.24247757277262400D-03 -6.32906389874309200D-03  0.00000000000000000D+00  0.00000000000000000D+00
24 10 -2.66053729834509500D-08 -3.60648844982005400D-06 -1.71531353909705000D-06 -3.02581447329939500D-01 -3.88630833824670600D-06
24 11  0.00000000000000000D+00 -7.25711161832834400D-02 -1.23805425983616500D-06  0.00000000000000000D+00  1.68617418826312800D-07
24 12 -4.27932238904605600D-08 -1.25824194833861000D-07 -1.34771206810566900D-02  0.00000000000000000D+00  0.00000000000000000D+00
24 13 -2.18044857487434700D-03  5.59043203317874500D-02  5.45978041158582500D-02  1.63930046077595000D-01 -1.36273958765585700D-01
24 14  0.00000000000000000D+00  7.46332227086948200D-02 -4.63881046584875000D-02  0.00000000000000000D+00  5.79666547974955900D-03
24 15 -1.55417479051506200D-03 -4.24249068923469000D-03 -6.32787867958430200D-03  0.00000000000000000D+00  0.00000000000000000D+00
24 16 -2.17959400600015300D-03  5.58889560682521500D-02  5.45784931184468300D-02  1.63950445524561800D-01  1.36262827891997200D-01
24 17  0.00000000000000000D+00  7.46397592432624200D-02  4.63885873440769000D-02  0.00000000000000000D+00  5.79590483039951500D-03
24 18 -1.55367993464568900D-03 -4.24222489575369000D-03  6.33030534746062700D-03  0.00000000000000000D+00  0.00000000000000000D+00
24 19 -4.33123518704162100D-08 -5.29881407662683400D-07  6.33768765774353600D-07  5.91630217719091200D-07 -1.46314873691177600D-01
24 20  2.50004447993141400D-06  0.00000000000000000D+00 -8.55705392636778000D-02  9.16947843181849600D-07  0.00000000000000000D+00
24 21  6.93141778337363800D-03 -1.47101607822153700D-07  0.00000000000000000D+00  1.48708811281642400D-07 -1.94816886429947700D-07
24 22  4.61080750568867300D-08  9.76250740348151000D-03  0.00000000000000000D+00  0.00000000000000000D+00  1.74988317595572500D-08
24 23  2.70303092648053700D-08 -4.45291411730406400D-08  9.32487676193432600D-03  0.00000000000000000D+00  0.00000000000000000D+00
24 24  3.82126636034152500D-08  7.51641419575595000D-07 -2.85702476851297000D-07 -5.77591764749819800D-07 -1.46309017396751500D-01
24 25  2.40503564810490500D-06  0.00000000000000000D+00 -8.55656964745653800D-02  9.78371160941342000D-07  0.00000000000000000D+00
24 26  6.93191032690133200D-03 -8.44576238760132100D-08  0.00000000000000000D+00 -1.21596870932209300D-07  1.69635814565403400D-07
24 27 -4.80389433943206400D-08 -9.76228504387445700D-03  0.00000000000000000D+00  0.00000000000000000D+00  6.32386588406545200D-09
24 28 -3.80186206617497700D-08  3.16947547776572100D-08 -9.32460778145523300D-03  0.00000000000000000D+00  0.00000000000000000D+00
24 29  2.78123139010703400D-02  6.02946750434490300D-03  1.52251748780623100D-03 -3.67316516982377300D-03  0.00000000000000000D+00
24 30  2.78022575120398500D-02  6.02648457086623000D-03  1.52344226812094100D-03  3.67273849227455800D-03  0.00000000000000000D+00
24 31 -2.77924357518273300D-02 -6.02329706515335600D-03  1.52392898593275100D-03 -3.67220573130792300D-03  0.00000000000000000D+00
24 32 -2.78226028796599100D-02 -6.03299511901325300D-03  1.52201314509606900D-03  3.67367113891245500D-03  0.00000000000000000D+00
25  1  1.26582480100806200D-03 -1.48449693361459000D-01 -1.77970183678023100D-01 -7.62072598860386800D-06  1.85295274468631300D-01
25  2  0.00000000000000000D+00 -3.52160909660097900D-06  8.61231219582082300D-02  0.00000000000000000D+00  7.74044789751268200D-04
25  3 -2.20824173912224200D-03  1.43419694937096900D-03 -1.49881506162733200D-07  0.00000000000000000D+00  0.00000000000000000D+00
25  4 -2.15734379720326600D-03  3.38740080571535600D-02  7.31299121742316900D-02  1.95456630941378300D-01  3.33659900108114200D-02
25  5  0.00000000000000000D+00  6.18971586889239900D-02  1.44216104670940700D-02  0.00000000000000000D+00 -7.87860039426254700D-03
25  6  4.67350437402017700D-03  3.20509602024242100D-03  2.45622554888879600D-02  0.00000000000000000D+00  0.00000000000000000D+00
25  7  2.15744418147100000D-03 -3.38761384608084600D-02 -7.31312598076234300D-02 -1.95455632705625800D-01  3.33546708217453200D-02
25  8  0.00000000000000000D+00 -6.18938384237423700D-02  1.44168048439269400D-02  0.00000000000000000D+00  7.87974090700432900D-03
25  9 -4.67467300253496700D-03 -3.20506790446942900D-03  2.45619367591019400D-02  0.00000000000000000D+00  0.00000000000000000D+00
25 10 -1.26596468263463400D-03  1.48458000496463000D-01  1.77979424922496300D-01 -6.63506480667434400D-06  1.85308661626551900D-01
25 11  0.00000000000000000D+00 -3.30850604670482900D-06  8.61283182954988800D-02  0.00000000000000000D+00 -7.71572672861441700D-04
25 12  2.20566763135023600D-03 -1.43409495848891900D-03  9.97025874156361800D-08  0.00000000000000000D+00  0.00000000000000000D+00
25 13  2.15758520647553600D-03 -3.38787269236987000D-02 -7.31322809829183800D-02  1.95458908828969900D-01  3.33427445251548900D-02
25 14  0.00000000000000000D+00  6.18962572007614200D-02  1.44129197389613400D-02  0.00000000000000000D+00  7.88023913521777900D-03
25 15 -4.67512456161775200D-03 -3.20511457360005900D-03 -2.45623768917327200D-02  0.00000000000000000D+00  0.00000000000000000D+00
25 16 -2.15720999674599300D-03  3.38707857755066700D-02  7.31292087192095100D-02 -1.95452377284740700D-01  3.33776499564111000D-02
25 17  0.00000000000000000D+00 -6.18936580215873300D-02  1.44254761503735400D-02  0.00000000000000000D+00 -7.87809570127962600D-03
25 18  4.67308655077528100D-03  3.20500915050444900D-03 -2.45617838328565300D-02  0.00000000000000000D+00  0.00000000000000000D+00
25 19  5.11071278412783700D-04  3.62217499073410800D-02  1.99217029980082500D-02 -8.72127888983389000D-03 -5.34546722900454000D-06
25 20 -6.14253063914719100D-02  0.00000000000000000D+00 -2.72261761691204500D-06 -3.72219568479519900D-02  0.00000000000000000D+00
25 21  3.80843102327739600D-07 -6.27084014580722300D-03  0.00000000000000000D+00 -1.37084389184002200D-03  3.29196951357177000D-03
25 22 -1.92112562173168400D-03  3.51103419208821400D-07  0.00000000000000000D+00  0.00000000000000000D+00  9.78922356996808300D-04
25 23  7.59562469191255400D-04 -1.73848482618809600D-03  1.57177863908842600D-07  0.00000000000000000D+00  0.00000000000000000D+00
25 24 -5.11032215086505300D-04 -3.62256148049973200D-02 -1.99246250559800300D-02  8.72227215086325000D-03 -3.98976038729268900D-06
25 25 -6.14342477097554500D-02  0.00000000000000000D+00 -1.84327093545132400D-06 -3.72269277975044900D-02  0.00000000000000000D+00
25 26  4.03487957143386000D-07 -6.27152043406575600D-03  0.00000000000000000D+00  1.37106589232665800D-03 -3.29238089386110900D-03
25 27  1.92131500153436500D-03 -2.77845712513353800D-07  0.00000000000000000D+00  0.00000000000000000D+00 -9.79088388756823500D-04
25 28 -7.59219854098205000D-04  1.73830824285502500D-03 -1.02830245718319200D-07  0.00000000000000000D+00  0.00000000000000000D+00
25 29  1.81642416705219600D-01  5.87328501110675700D-02 -8.90983375479707800D-03 -1.00424184062793800D-02  0.00000000000000000D+00
25 30 -1.81637454726686400D-01 -5.87307312442506300D-02  8.90958994107225700D-03 -1.00425091412738000D-02  0.00000000000000000D+00
25 31 -1.81635951898762000D-01 -5.87297096543402400D-02 -8.90930774667484900D-03 -1.00427939551222200D-02  0.00000000000000000D+00
25 32  1.81642742291415400D-01  5.87335847676827400D-02  8.91001807024843800D-03 -1.00420625448675800D-02  0.00000000000000000D+00
26  1  6.70287361592844300D-08 -2.16647190762243400D-06 -7.39949794680262800D-06 -2.38804450548946200D-01  2.52312505323831400D-06
26  2  0.00000000000000000D+00 -2.74296656351877200D-04  3.16377064158356000D-06  0.00000000000000000D+00 -8.82832984940306000D-07
26  3  7.11839437910962000D-07  1.70993547014659300D-07 -1.76843300455170900D-04  0.00000000000000000D+00  0.00000000000000000D+00
26  4 -7.74688914857302700D-04  1.51453400381759800D-02 -1.40005051050600100D-02  1.81864447279697100D-01  2.08151508360132500D-03
26  5  0.00000000000000000D+00  1.29444075219887500D-01 -2.97180333438640800D-02  0.00000000000000000D+00 -9.46202942356699100D-04
26  6 -1.97210808184242300D-03  2.91831102419878000D-03  2.53300108369850100D-02  0.00000000000000000D+00  0.00000000000000000D+00
26  7  7.74795268068903400D-04 -1.51431585892649600D-02  1.40048331888984500D-02 -1.81869881025353600D-01  2.07592803925662200D-03
26  8  0.00000000000000000D+00 -1.29446780016047500D-01 -2.97195005131550900D-02  0.00000000000000000D+00  9.46051538441479300D-04
26  9  1.97233866363541800D-03 -2.91839020207696100D-03  2.53303324800651600D-02  0.00000000000000000D+00  0.00000000000000000D+00
26 10  6.85681618267494600D-08 -2.82111574685922200D-06 -7.03607586181309900D-06  2.38821677997278000D-01 -3.41039783119932500D-06
26 11  0.00000000000000000D+00  2.81464605390896700D-04 -2.94686541419913400D-06  0.00000000000000000D+00 -7.50641704359981500D-07
26 12  6.25424363771204300D-07  1.25217340491068200D-07 -1.76012043449458500D-04  0.00000000000000000D+00  0.00000000000000000D+00
26 13 -7.74864400356046400D-04  1.51467198338031000D-02 -1.39995845642674100D-02 -1.81872289544553400D-01 -2.06416429195068500D-03
26 14  0.00000000000000000D+00 -1.29446736733393700D-01  2.97241964368378600D-02  0.00000000000000000D+00 -9.46978350080491200D-04
26 15 -1.97144175399217600D-03  2.91842010407273800D-03  2.53305939705575900D-02  0.00000000000000000D+00  0.00000000000000000D+00
26 16  7.74665171402768900D-04 -1.51421235280243000D-02  1.40051170341376700D-02  1.81863720005909100D-01 -2.09352857666394600D-03
26 17  0.00000000000000000D+00  1.29445203134914500D-01  2.97138538885462800D-02  0.00000000000000000D+00  9.45288777990206300D-04
26 18  1.97301790476432400D-03 -2.91830668275445300D-03  2.53301406352302400D-02  0.00000000000000000D+00  0.00000000000000000D+00
26 19 -1.93617829974752300D-08  6.93712297968417900D-07  1.15767571846144000D-06 -1.56976148026704600D-07 -2.25760563966342300D-01
26 20  5.91043034971457200D-07  0.00000000000000000D+00 -1.59216508538852400D-01 -4.55169393121266000D-08  0.00000000000000000D+00
26 21 -1.00233604571079700D-02 -1.34744012435382400D-07  0.00000000000000000D+00  1.10372696370972100D-07 -1.02586520291191000D-07
26 22 -7.78617609801964900D-09  1.06608651893853200D-02  0.00000000000000000D+00  0.00000000000000000D+00  1.10668541959121300D-07
26 23 -4.97363937622066700D-08 -6.09321481931109500D-08  1.38433991882286000D-02  0.00000000000000000D+00  0.00000000000000000D+00
26 24 -1.17103531532409100D-08  8.20147243669950400D-07  1.14286904838373200D-06 -2.00616972530799100D-07  2.25761282377660400D-01
26 25  3.34338784277931800D-07  0.00000000000000000D+00  1.59215087013565900D-01  5.07793145779465200D-07  0.00000000000000000D+00
26 26  1.00217118554925100D-02  1.77678352293748700D-07  0.00000000000000000D+00  6.00737235783925400D-08 -3.48069694722668400D-08
26 27 -2.52667541567180200D-08  1.06612048645452200D-02  0.00000000000000000D+00  0.00000000000000000D+00  8.34069058084587500D-08
26 28 -5.30079822041193800D-08 -3.03989236043427300D-08  1.38434978786155900D-02  0.00000000000000000D+00  0.00000000000000000D+00
26 29  1.62374781873016300D-01  5.92662820931818700D-02 -6.65955629412037700D-03 -8.68245658464164700D-03  0.00000000000000000D+00
26 30 -1.62376069709837000D-01 -5.92663879437225800D-02  6.65956064168369000D-03 -8.68247646588285100D-03  0.00000000000000000D+00
26 31  1.62373483710828100D-01  5.92648776387486700D-02  6.65927745407930800D-03  8.68277471451607200D-03  0.00000000000000000D+00
26 32 -1.62379101445326700D-01 -5.92684298156367400D-02 -6.65987146618434300D-03  8.68225210943170500D-03  0.00000000000000000D+00
27  1  1.03850958364763500D-07  6.41643731691295700D-07  2.33178099053267200D-08 -7.24987810694136800D-02  1.37363681342347200D-06
27  2  0.00000000000000000D+00 -7.54746644989434100D-02  5.95375288114271000D-07  0.00000000000000000D+00  5.68012080828972000D-08
27  3 -2.49267127849772400D-08 -3.18744952711202700D-08  4.87777153668118700D-02  0.00000000000000000D+00  0.00000000000000000D+00
27  4  2.39636805925135000D-03 -3.59579350284190100D-02 -3.04125247248116500D-02  8.45510263219324000D-02 -1.03218588722130900D-01
27  5  0.00000000000000000D+00  4.28838824471008000D-02 -2.93970549192652000D-02  0.00000000000000000D+00 -8.03068328687878100D-04
27  6  1.27738991265212300D-03 -4.74321583964074100D-04 -6.80521355029769100D-04  0.00000000000000000D+00  0.00000000000000000D+00
27  7  2.39628766339750800D-03 -3.59509087251299200D-02 -3.03956737099451500D-02  8.45329736616777200D-02  1.03214466986726200D-01
27  8  0.00000000000000000D+00  4.28712622041220600D-02  2.94001895549894100D-02  0.00000000000000000D+00 -8.02806822414773600D-04
27  9  1.27722885876490500D-03 -4.74422036350167600D-04  6.82813195280917800D-04  0.00000000000000000D+00  0.00000000000000000D+00
27 10 -7.16903758210196400D-08 -5.58068296093321000D-07 -3.79058644770345000D-08 -7.24816546581762300D-02  9.37743480981622800D-07
27 11  0.00000000000000000D+00 -7.54655520753404100D-02  3.38955339883072600D-07  0.00000000000000000D+00 -8.42234115152394200D-08
27 12  7.66145956328993500D-08  7.60881568011094600D-09 -4.87723908720416000D-02  0.00000000000000000D+00  0.00000000000000000D+00
27 13 -2.39622070993332400D-03  3.59519088863400600D-02  3.03986152082718700D-02  8.45345808500835000D-02 -1.03214811870985300D-01
27 14  0.00000000000000000D+00  4.28735654735776400D-02 -2.94007183799359200D-02  0.00000000000000000D+00  8.03183946348555800D-04
27 15 -1.27757408555968500D-03  4.74390139210935500D-04  6.82693737031898500D-04  0.00000000000000000D+00  0.00000000000000000D+00
27 16 -2.39645495172681900D-03  3.59568413916142000D-02  3.04093000692576900D-02  8.45489173566529600D-02  1.03217370552186500D-01
27 17  0.00000000000000000D+00  4.28811349597869500D-02  2.93958038420545700D-02  0.00000000000000000D+00  8.02523814858381600D-04
27 18 -1.27688784241326400D-03  4.74364027555103200D-04 -6.80641779184415400D-04  0.00000000000000000D+00  0.00000000000000000D+00
27 19 -1.89101488802266300D-08 -1.25260790882631200D-09 -8.02034297902501000D-08 -4.20083861087971300D-07  4.27267161001985000D-01
27 20 -4.79834857973378500D-06  0.00000000000000000D+00  3.23136824623795300D-01 -3.21172101784286300D-06  0.00000000000000000D+00
27 21  6.12168965500020700D-02 -3.92099443839209200D-07  0.00000000000000000D+00 -1.51748119704957000D-07  1.86893036437796000D-07
27 22 -3.51449168446388200D-08 -8.44308492192365900D-03  0.00000000000000000D+00  0.00000000000000000D+00 -1.05364045932536800D-07
27 23  9.48597194085123500D-08  1.05043264733600400D-08 -1.35879601098497800D-02  0.00000000000000000D+00  0.00000000000000000D+00
27 24  2.50740726287296600D-08  1.00184876525406500D-07  1.38920132164458300D-07  1.54545321154500300D-07  4.27235041078222000D-01
27 25 -3.32555333846781800D-06  0.00000000000000000D+00  3.23112575576497900D-01 -2.28474024977798800D-06  0.00000000000000000D+00
27 26  6.12118075987805500D-02 -3.20472490370407500D-07  0.00000000000000000D+00  1.04011317272497700D-07 -1.30071721342090700D-07
27 27  2.60604040332663000D-08  8.44269075413304700D-03  0.00000000000000000D+00  0.00000000000000000D+00  6.43953333048967900D-08
27 28 -8.19180197173946200D-08  1.75226864125029100D-08  1.35875094773564800D-02  0.00000000000000000D+00  0.00000000000000000D+00
27 29 -1.02293535942820100D-02 -1.27257869484706000D-02  1.34360076723081000D-03  7.90958843660356800D-04  0.00000000000000000D+00
27 30 -1.02389293499581300D-02 -1.27299822155452400D-02  1.34372692736838900D-03 -7.91264180980045000D-04  0.00000000000000000D+00
27 31  1.02384259083092100D-02  1.27294466331189500D-02  1.34368121909746500D-03  7.91244813938666800D-04  0.00000000000000000D+00
27 32  1.02296014697791800D-02  1.27259271329466800D-02  1.34361761350181000D-03 -7.91007095540759800D-04  0.00000000000000000D+00
28  1  8.18429621959592300D-08  3.31057132603881500D-07 -6.64370297300281400D-07 -1.41121474786369300D-01  1.90423400409916800D-06
28  2  0.00000000000000000D+00 -1.04689754534236100D-01  2.13149354655621100D-06  0.00000000000000000D+00 -3.36638116244355500D-07
28  3  3.47196544307277600D-07 -1.05584279117588900D-08  5.43161170755233100D-02  0.00000000000000000D+00  0.00000000000000000D+00
28  4  1.63596561308020300D-03 -6.44803689896351500D-02 -1.39434603017287400D-01  1.38487439906635800D-01 -3.73822371090171100D-02
28  5  0.00000000000000000D+00  8.28027100257572300D-02  5.07952413453231100D-02  0.00000000000000000D+00  1.53276954764463200D-03
28  6 -1.68389843060691400D-03  1.51128882962340800D-04  1.93147779645436400D-02  0.00000000000000000D+00  0.00000000000000000D+00
28  7 -1.63624726465395200D-03  6.44834190006502700D-02  1.39435710173052400D-01 -1.38493050715039000D-01 -3.73884357486545200D-02
28  8  0.00000000000000000D+00 -8.28049048888437300D-02  5.07949774182550300D-02  0.00000000000000000D+00 -1.53321232015906100D-03
28  9  1.68423690780085200D-03 -1.51024587641892600D-04  1.93150052779157400D-02  0.00000000000000000D+00  0.00000000000000000D+00
28 10  7.73913815957300600D-08  2.48350696801475000D-07 -8.35270288398734700D-07  1.41129663069369500D-01 -1.50655644676760000D-06
28 11  0.00000000000000000D+00  1.04697377965502600D-01 -1.83253981450707700D-06  0.00000000000000000D+00 -2.90055753595629900D-07
28 12  2.82528940200707100D-07  7.52681359224483000D-09  5.43203996192343800D-02  0.00000000000000000D+00  0.00000000000000000D+00
28 13  1.63612533551112700D-03 -6.44824752563143100D-02 -1.39436450063805100D-01 -1.38494872000308900D-01  3.73943950638729700D-02
28 14  0.00000000000000000D+00 -8.28063652849191500D-02 -5.07914896164843700D-02  0.00000000000000000D+00  1.53265281012612400D-03
28 15 -1.68373432018689600D-03  1.51081510060622100D-04  1.93147445618246600D-02  0.00000000000000000D+00  0.00000000000000000D+00
28 16 -1.63609596480012800D-03  6.44807874928071100D-02  1.39433543972375900D-01  1.38484998203295800D-01  3.73763047971928400D-02
28 17  0.00000000000000000D+00  8.28006002663296300D-02 -5.07992080375132300D-02  0.00000000000000000D+00 -1.53348991514604700D-03
28 18  1.68454652490002900D-03 -1.51056609753881300D-04  1.93150607561656800D-02  0.00000000000000000D+00  0.00000000000000000D+00
28 19 -8.08156695654832800D-09  2.84225488198398800D-07 -6.56645594005003000D-08 -1.06047848125390500D-06  3.83296729877102200D-01
28 20 -5.07979004746278800D-06  0.00000000000000000D+00  2.89685550813180900D-01 -3.30939214916921800D-06  0.00000000000000000D+00
28 21  5.76634172234475400D-02 -2.35307020128244200D-07  0.00000000000000000D+00 -1.24441392795053200D-07  1.61348967205499700D-07
28 22 -3.69075743922090800D-08 -5.80036743135971200D-03  0.00000000000000000D+00  0.00000000000000000D+00 -8.84976313504551600D-08
28 23  7.61035654080768200D-08  1.23940659591809900D-08 -8.38455558860879000D-03  0.00000000000000000D+00  0.00000000000000000D+00
28 24 -1.09557354939448700D-08  2.09775286067206800D-07 -7.55582641547371400D-08 -8.07406244198466500D-07 -3.83336266220052500D-01
28 25  3.73344077355496700D-06  0.00000000000000000D+00 -2.89715789842653200D-01  2.43597859082990300D-06  0.00000000000000000D+00
28 26 -5.76693203405666400D-02  1.53676242865711900D-07  0.00000000000000000D+00 -9.02247903889557500D-08  1.21587857997660800D-07
28 27 -3.13630676328492400D-08 -5.80110292576032400D-03  0.00000000000000000D+00  0.00000000000000000D+00 -5.30166631614439000D-08
28 28  4.78694699197418200D-08  5.14719324171198700D-09 -8.38587135613996600D-03  0.00000000000000000D+00  0.00000000000000000D+00
28 29  6.76150844989632000D-02  3.04524733357532500D-02  4.52934719371670300D-04 -1.51264755696632500D-03  0.00000000000000000D+00
28 30 -6.76145960939246000D-02 -3.04516726125283600D-02 -4.53060221800691300D-04 -1.51243084542648200D-03  0.00000000000000000D+00
28 31  6.76129859411157100D-02  3.04504998974835000D-02 -4.53131888704338900D-04  1.51259632243304900D-03  0.00000000000000000D+00
28 32 -6.76166936916654100D-02 -3.04538442145083600D-02  4.52867003570817800D-04  1.51246616800520000D-03  0.00000000000000000D+00
29  1  0.00000000000000000D+00  0.00000000000000000D+00  0.00000000000000000D+00  0.00000000000000000D+00  0.00000000000000000D+00
29  2 -2.77427143589577300D-01  0.00000000000000000D+00  0.00000000000000000D+00 -2.52331886221961100D-01  0.00000000000000000D+00
29  3  0.00000000000000000D+00  0.00000000000000000D+00  0.00000000000000000D+00  9.35402702239427000D-08  3.17462843042689000D-02
29  4  0.00000000000000000D+00  0.00000000000000000D+00  0.00000000000000000D+00  0.00000000000000000D+00  0.00000000000000000D+00
29  5 -1.45808094602465200D-01  0.00000000000000000D+00  0.00000000000000000D+00 -1.39981571968613500D-01  0.00000000000000000D+00
29  6  0.00000000000000000D+00  0.00000000000000000D+00  0.00000000000000000D+00  1.47942712917824900D-02 -1.72826442261578400D-02
29  7  0.00000000000000000D+00  0.00000000000000000D+00  0.00000000000000000D+00  0.00000000000000000D+00  0.00000000000000000D+00
29  8  1.45796802957509000D-01  0.00000000000000000D+00  0.00000000000000000D+00  1.39963933120488100D-01  0.00000000000000000D+00
29  9  0.00000000000000000D+00  0.00000000000000000D+00  0.00000000000000000D+00 -1.47956558099999200D-02 -1.72851754343628600D-02
29 10  0.00000000000000000D+00  0.00000000000000000D+00  0.00000000000000000D+00  0.00000000000000000D+00  0.00000000000000000D+00
29 11  2.77455224385763100D-01  0.00000000000000000D+00  0.00000000000000000D+00  2.52363231209004400D-01  0.00000000000000000D+00
29 12  0.00000000000000000D+00  0.00000000000000000D+00  0.00000000000000000D+00 -1.88103242480034500D-08  3.17461492031551000D-02
29 13  0.00000000000000000D+00  0.00000000000000000D+00  0.00000000000000000D+00  0.00000000000000000D+00  0.00000000000000000D+00
29 14  1.45801325003394300D-01  0.00000000000000000D+00  0.00000000000000000D+00  1.39969854254965700D-01  0.00000000000000000D+00
29 15  0.00000000000000000D+00  0.00000000000000000D+00  0.00000000000000000D+00  1.47953977043611400D-02 -1.72847149860280500D-02
29 16  0.00000000000000000D+00  0.00000000000000000D+00  0.00000000000000000D+00  0.00000000000000000D+00  0.00000000000000000D+00
29 17 -1.45804483098512900D-01  0.00000000000000000D+00  0.00000000000000000D+00 -1.39976748012257800D-01  0.00000000000000000D+00
29 18  0.00000000000000000D+00  0.00000000000000000D+00  0.00000000000000000D+00 -1.47946057958397100D-02 -1.72833139449815900D-02
29 19  0.00000000000000000D+00  0.00000000000000000D+00  0.00000000000000000D+00  0.00000000000000000D+00  0.00000000000000000D+00
29 20  0.00000000000000000D+00  3.05901018334703000D-01  0.00000000000000000D+00  0.00000000000000000D+00  2.50585264799627200D-01
29 21  0.00000000000000000D+00  0.00000000000000000D+00  4.01793040017811500D-02  0.00000000000000000D+00  0.00000000000000000D+00
29 22  0.00000000000000000D+00  0.00000000000000000D+00  1.08262777298375600D-08  2.82202538930579100D-03  0.00000000000000000D+00
29 23  0.00000000000000000D+00  0.00000000000000000D+00  0.00000000000000000D+00 -4.92757571520489600D-09  3.77530230208938100D-03
29 24  0.00000000000000000D+00  0.00000000000000000D+00  0.00000000000000000D+00  0.00000000000000000D+00  0.00000000000000000D+00
29 25  0.00000000000000000D+00 -3.05923712397616600D-01  0.00000000000000000D+00  0.00000000000000000D+00 -2.50600700934544800D-01
29 26  0.00000000000000000D+00  0.00000000000000000D+00 -4.01790587787973400D-02  0.00000000000000000D+00  0.00000000000000000D+00
29 27  0.00000000000000000D+00  0.00000000000000000D+00  6.66647757535689600D-09  2.82267689008894600D-03  0.00000000000000000D+00
29 28  0.00000000000000000D+00  0.00000000000000000D+00  0.00000000000000000D+00 -1.46088355956885200D-08  3.77695469717981600D-03
29 29  0.00000000000000000D+00  0.00000000000000000D+00  0.00000000000000000D+00  0.00000000000000000D+00 -5.13115951308487800D-03
29 30  0.00000000000000000D+00  0.00000000000000000D+00  0.00000000000000000D+00  0.00000000000000000D+00  5.13075796705176000D-03
29 31  0.00000000000000000D+00  0.00000000000000000D+00  0.00000000000000000D+00  0.00000000000000000D+00  5.13094971638533800D-03
29 32  0.00000000000000000D+00  0.00000000000000000D+00  0.00000000000000000D+00  0.00000000000000000D+00 -5.13099270540474200D-03
30  1  0.00000000000000000D+00  0.00000000000000000D+00  0.00000000000000000D+00  0.00000000000000000D+00  0.00000000000000000D+00
30  2 -3.99039125025389300D-01  0.00000000000000000D+00  0.00000000000000000D+00 -4.40569532958831600D-01  0.00000000000000000D+00
30  3  0.00000000000000000D+00  0.00000000000000000D+00  0.00000000000000000D+00 -6.69610117573096900D-08 -9.73693200241513800D-04
30  4  0.00000000000000000D+00  0.00000000000000000D+00  0.00000000000000000D+00  0.00000000000000000D+00  0.00000000000000000D+00
30  5  1.04011556163743200D-01  0.00000000000000000D+00  0.00000000000000000D+00  1.78396542996808500D-01  0.00000000000000000D+00
30  6  0.00000000000000000D+00  0.00000000000000000D+00  0.00000000000000000D+00  1.57291969651005200D-02 -2.90385704025072300D-02
30  7  0.00000000000000000D+00  0.00000000000000000D+00  0.00000000000000000D+00  0.00000000000000000D+00  0.00000000000000000D+00
30  8  1.04022946233410300D-01  0.00000000000000000D+00  0.00000000000000000D+00  1.78411686583308000D-01  0.00000000000000000D+00
30  9  0.00000000000000000D+00  0.00000000000000000D+00  0.00000000000000000D+00  1.57284274105178900D-02  2.90374405919598700D-02
30 10  0.00000000000000000D+00  0.00000000000000000D+00  0.00000000000000000D+00  0.00000000000000000D+00  0.00000000000000000D+00
30 11 -3.99021118945273600D-01  0.00000000000000000D+00  0.00000000000000000D+00 -4.40553341897203300D-01  0.00000000000000000D+00
30 12  0.00000000000000000D+00  0.00000000000000000D+00  0.00000000000000000D+00  9.69376609450793900D-08  9.77007511104245700D-04
30 13  0.00000000000000000D+00  0.00000000000000000D+00  0.00000000000000000D+00  0.00000000000000000D+00  0.00000000000000000D+00
30 14  1.04024119478282800D-01  0.00000000000000000D+00  0.00000000000000000D+00  1.78408850186111200D-01  0.00000000000000000D+00
30 15  0.00000000000000000D+00  0.00000000000000000D+00  0.00000000000000000D+00 -1.57281617473353900D-02  2.90372913234019500D-02
30 16  0.00000000000000000D+00  0.00000000000000000D+00  0.00000000000000000D+00  0.00000000000000000D+00  0.00000000000000000D+00
30 17  1.04010802044357000D-01  0.00000000000000000D+00  0.00000000000000000D+00  1.78399927668288400D-01  0.00000000000000000D+00
30 18  0.00000000000000000D+00  0.00000000000000000D+00  0.00000000000000000D+00 -1.57294930602300800D-02 -2.90389148955455100D-02
30 19  0.00000000000000000D+00  0.00000000000000000D+00  0.00000000000000000D+00  0.00000000000000000D+00  0.00000000000000000D+00
30 20  0.00000000000000000D+00  3.26836592155730100D-01  0.00000000000000000D+00  0.00000000000000000D+00  2.17689593371626600D-01
30 21  0.00000000000000000D+00  0.00000000000000000D+00 -3.86800775629779500D-03  0.00000000000000000D+00  0.00000000000000000D+00
30 22  0.00000000000000000D+00  0.00000000000000000D+00  7.00975275827982500D-08  9.27623988167534200D-03  0.00000000000000000D+00
30 23  0.00000000000000000D+00  0.00000000000000000D+00  0.00000000000000000D+00  9.11316416214866700D-08  2.57416903410020200D-02
30 24  0.00000000000000000D+00  0.00000000000000000D+00  0.00000000000000000D+00  0.00000000000000000D+00  0.00000000000000000D+00
30 25  0.00000000000000000D+00  3.26817737029586400D-01  0.00000000000000000D+00  0.00000000000000000D+00  2.17671577329588900D-01
30 26  0.00000000000000000D+00  0.00000000000000000D+00 -3.87284166008653600D-03  0.00000000000000000D+00  0.00000000000000000D+00
30 27  0.00000000000000000D+00  0.00000000000000000D+00 -5.33144758225891600D-08 -9.27613190364363200D-03  0.00000000000000000D+00
30 28  0.00000000000000000D+00  0.00000000000000000D+00  0.00000000000000000D+00 -4.02644307288204500D-08 -2.57422694954805800D-02
30 29  0.00000000000000000D+00  0.00000000000000000D+00  0.00000000000000000D+00  0.00000000000000000D+00  3.85429484847161400D-03
30 30  0.00000000000000000D+00  0.00000000000000000D+00  0.00000000000000000D+00  0.00000000000000000D+00  3.85476275421598300D-03
30 31  0.00000000000000000D+00  0.00000000000000000D+00  0.00000000000000000D+00  0.00000000000000000D+00  3.85476667556188500D-03
30 32  0.00000000000000000D+00  0.00000000000000000D+00  0.00000000000000000D+00  0.00000000000000000D+00  3.85429396761974000D-03
31  1  0.00000000000000000D+00  0.00000000000000000D+00  0.00000000000000000D+00  0.00000000000000000D+00  0.00000000000000000D+00
31  2  1.90348497053444900D-01  0.00000000000000000D+00  0.00000000000000000D+00  2.83015102022956500D-01  0.00000000000000000D+00
31  3  0.00000000000000000D+00  0.00000000000000000D+00  0.00000000000000000D+00  6.19812725600976900D-07  1.28648975742585200D-01
31  4  0.00000000000000000D+00  0.00000000000000000D+00  0.00000000000000000D+00  0.00000000000000000D+00  0.00000000000000000D+00
31  5 -2.88980802908276400D-01  0.00000000000000000D+00  0.00000000000000000D+00 -3.83196714764244200D-01  0.00000000000000000D+00
31  6  0.00000000000000000D+00  0.00000000000000000D+00  0.00000000000000000D+00 -1.57349872772660600D-03 -6.51368677875318700D-03
31  7  0.00000000000000000D+00  0.00000000000000000D+00  0.00000000000000000D+00  0.00000000000000000D+00  0.00000000000000000D+00
31  8  2.88978294538083400D-01  0.00000000000000000D+00  0.00000000000000000D+00  3.83195176518963700D-01  0.00000000000000000D+00
31  9  0.00000000000000000D+00  0.00000000000000000D+00  0.00000000000000000D+00  1.57203895953630600D-03 -6.51419651807961600D-03
31 10  0.00000000000000000D+00  0.00000000000000000D+00  0.00000000000000000D+00  0.00000000000000000D+00  0.00000000000000000D+00
31 11 -1.90336030976755600D-01  0.00000000000000000D+00  0.00000000000000000D+00 -2.82997712419256000D-01  0.00000000000000000D+00
31 12  0.00000000000000000D+00  0.00000000000000000D+00  0.00000000000000000D+00  2.35271452705783400D-07  1.28659025333244300D-01
31 13  0.00000000000000000D+00  0.00000000000000000D+00  0.00000000000000000D+00  0.00000000000000000D+00  0.00000000000000000D+00
31 14  2.88981556211509300D-01  0.00000000000000000D+00  0.00000000000000000D+00  3.83194547866870700D-01  0.00000000000000000D+00
31 15  0.00000000000000000D+00  0.00000000000000000D+00  0.00000000000000000D+00 -1.57120461484084500D-03 -6.51439544405685300D-03
31 16  0.00000000000000000D+00  0.00000000000000000D+00  0.00000000000000000D+00  0.00000000000000000D+00  0.00000000000000000D+00
31 17 -2.88981452047975100D-01  0.00000000000000000D+00  0.00000000000000000D+00 -3.83202555655747900D-01  0.00000000000000000D+00
31 18  0.00000000000000000D+00  0.00000000000000000D+00  0.00000000000000000D+00  1.57423699313702100D-03 -6.51403642445610700D-03
31 19  0.00000000000000000D+00  0.00000000000000000D+00  0.00000000000000000D+00  0.00000000000000000D+00  0.00000000000000000D+00
31 20  0.00000000000000000D+00 -3.47805252241313900D-01  0.00000000000000000D+00  0.00000000000000000D+00  3.18426005845844200D-02
31 21  0.00000000000000000D+00  0.00000000000000000D+00  1.84357808412020400D-01  0.00000000000000000D+00  0.00000000000000000D+00
31 22  0.00000000000000000D+00  0.00000000000000000D+00 -8.12639345625682800D-08 -1.57306297769739700D-02  0.00000000000000000D+00
31 23  0.00000000000000000D+00  0.00000000000000000D+00  0.00000000000000000D+00 -1.11311738663872000D-07 -1.04760021056685200D-01
31 24  0.00000000000000000D+00  0.00000000000000000D+00  0.00000000000000000D+00  0.00000000000000000D+00  0.00000000000000000D+00
31 25  0.00000000000000000D+00  3.47821190269017900D-01  0.00000000000000000D+00  0.00000000000000000D+00 -3.18596535862706000D-02
31 26  0.00000000000000000D+00  0.00000000000000000D+00 -1.84374375145094700D-01  0.00000000000000000D+00  0.00000000000000000D+00
31 27  0.00000000000000000D+00  0.00000000000000000D+00 -5.54927436043626700D-08 -1.57310311090434800D-02  0.00000000000000000D+00
31 28  0.00000000000000000D+00  0.00000000000000000D+00  0.00000000000000000D+00  5.56084639301539200D-08 -1.04769404349523800D-01
31 29  0.00000000000000000D+00  0.00000000000000000D+00  0.00000000000000000D+00  0.00000000000000000D+00 -1.08326007404028500D-02
31 30  0.00000000000000000D+00  0.00000000000000000D+00  0.00000000000000000D+00  0.00000000000000000D+00  1.08325613617619000D-02
31 31  0.00000000000000000D+00  0.00000000000000000D+00  0.00000000000000000D+00  0.00000000000000000D+00  1.08326661893860400D-02
31 32  0.00000000000000000D+00  0.00000000000000000D+00  0.00000000000000000D+00  0.00000000000000000D+00 -1.08325981938340400D-02
32  1  0.00000000000000000D+00  0.00000000000000000D+00  0.00000000000000000D+00  0.00000000000000000D+00  0.00000000000000000D+00
32  2 -4.36018616988104500D-06  0.00000000000000000D+00  0.00000000000000000D+00 -7.90347881951962900D-06  0.00000000000000000D+00
32  3  0.00000000000000000D+00  0.00000000000000000D+00  0.00000000000000000D+00 -5.71485498615257600D-02  2.99966635286203400D-06
32  4  0.00000000000000000D+00  0.00000000000000000D+00  0.00000000000000000D+00  0.00000000000000000D+00  0.00000000000000000D+00
32  5 -3.44032156089499200D-01  0.00000000000000000D+00  0.00000000000000000D+00 -3.60918864266606900D-01  0.00000000000000000D+00
32  6  0.00000000000000000D+00  0.00000000000000000D+00  0.00000000000000000D+00 -7.07666428204650800D-03 -4.29045427782517000D-02
32  7  0.00000000000000000D+00  0.00000000000000000D+00  0.00000000000000000D+00  0.00000000000000000D+00  0.00000000000000000D+00
32  8  3.44030699271390900D-01  0.00000000000000000D+00  0.00000000000000000D+00  3.60921640464401900D-01  0.00000000000000000D+00
32  9  0.00000000000000000D+00  0.00000000000000000D+00  0.00000000000000000D+00  7.07550969415075600D-03 -4.29047411007548200D-02
32 10  0.00000000000000000D+00  0.00000000000000000D+00  0.00000000000000000D+00  0.00000000000000000D+00  0.00000000000000000D+00
32 11 -4.64278304536248300D-06  0.00000000000000000D+00  0.00000000000000000D+00 -8.07780279332004500D-06  0.00000000000000000D+00
32 12  0.00000000000000000D+00  0.00000000000000000D+00  0.00000000000000000D+00  5.71525109916415200D-02 -2.18481690313598800D-06
32 13  0.00000000000000000D+00  0.00000000000000000D+00  0.00000000000000000D+00  0.00000000000000000D+00  0.00000000000000000D+00
32 14 -3.44030567972493300D-01  0.00000000000000000D+00  0.00000000000000000D+00 -3.60915623197238900D-01  0.00000000000000000D+00
32 15  0.00000000000000000D+00  0.00000000000000000D+00  0.00000000000000000D+00  7.07436852369779700D-03  4.29050246582689000D-02
32 16  0.00000000000000000D+00  0.00000000000000000D+00  0.00000000000000000D+00  0.00000000000000000D+00  0.00000000000000000D+00
32 17  3.44028954699711300D-01  0.00000000000000000D+00  0.00000000000000000D+00  3.60920946749554800D-01  0.00000000000000000D+00
32 18  0.00000000000000000D+00  0.00000000000000000D+00  0.00000000000000000D+00 -7.07794200009985400D-03  4.29044974235244700D-02
32 19  0.00000000000000000D+00  0.00000000000000000D+00  0.00000000000000000D+00  0.00000000000000000D+00  0.00000000000000000D+00
32 20  0.00000000000000000D+00 -5.79469891307011700D-06  0.00000000000000000D+00  0.00000000000000000D+00  6.04255243002036500D-06
32 21  0.00000000000000000D+00  0.00000000000000000D+00  5.15077984142357800D-06  0.00000000000000000D+00  0.00000000000000000D+00
32 22  0.00000000000000000D+00  0.00000000000000000D+00  3.63808341608669600D-03 -2.19385339628044400D-07  0.00000000000000000D+00
32 23  0.00000000000000000D+00  0.00000000000000000D+00  0.00000000000000000D+00  1.33057530023826300D-02 -3.32798726907811300D-06
32 24  0.00000000000000000D+00  0.00000000000000000D+00  0.00000000000000000D+00  0.00000000000000000D+00  0.00000000000000000D+00
32 25  0.00000000000000000D+00 -4.07632231064104900D-06  0.00000000000000000D+00  0.00000000000000000D+00  5.09256858280315900D-06
32 26  0.00000000000000000D+00  0.00000000000000000D+00  3.77177834408455200D-06  0.00000000000000000D+00  0.00000000000000000D+00
32 27  0.00000000000000000D+00  0.00000000000000000D+00 -3.63843588830617800D-03  1.35996000728307400D-07  0.00000000000000000D+00
32 28  0.00000000000000000D+00  0.00000000000000000D+00  0.00000000000000000D+00 -1.33060944482186100D-02  2.56329816226597300D-06
32 29  0.00000000000000000D+00  0.00000000000000000D+00  0.00000000000000000D+00  0.00000000000000000D+00 -1.24624990350747100D-02
32 30  0.00000000000000000D+00  0.00000000000000000D+00  0.00000000000000000D+00  0.00000000000000000D+00  1.24624590532184200D-02
32 31  0.00000000000000000D+00  0.00000000000000000D+00  0.00000000000000000D+00  0.00000000000000000D+00 -1.24624647182839200D-02
32 32  0.00000000000000000D+00  0.00000000000000000D+00  0.00000000000000000D+00  0.00000000000000000D+00  1.24623483857844200D-02
33  1  0.00000000000000000D+00  0.00000000000000000D+00  0.00000000000000000D+00  0.00000000000000000D+00  0.00000000000000000D+00
33  2 -2.75892307789928400D-01  0.00000000000000000D+00  0.00000000000000000D+00 -1.85013768598238800D-01  0.00000000000000000D+00
33  3  0.00000000000000000D+00  0.00000000000000000D+00  0.00000000000000000D+00  1.89736492172414900D-06  2.82059433884359200D-01
33  4  0.00000000000000000D+00  0.00000000000000000D+00  0.00000000000000000D+00  0.00000000000000000D+00  0.00000000000000000D+00
33  5 -4.07165737099172600D-02  0.00000000000000000D+00  0.00000000000000000D+00  8.73711084768965300D-02  0.00000000000000000D+00
33  6  0.00000000000000000D+00  0.00000000000000000D+00  0.00000000000000000D+00  2.23791021616865700D-02 -4.75916981697544500D-02
33  7  0.00000000000000000D+00  0.00000000000000000D+00  0.00000000000000000D+00  0.00000000000000000D+00  0.00000000000000000D+00
33  8 -4.07048224878819900D-02  0.00000000000000000D+00  0.00000000000000000D+00  8.74046353607938200D-02  0.00000000000000000D+00
33  9  0.00000000000000000D+00  0.00000000000000000D+00  0.00000000000000000D+00  2.23828585210840100D-02  4.75876503561018400D-02
33 10  0.00000000000000000D+00  0.00000000000000000D+00  0.00000000000000000D+00  0.00000000000000000D+00  0.00000000000000000D+00
33 11 -2.75928876417427200D-01  0.00000000000000000D+00  0.00000000000000000D+00 -1.85043774532730100D-01  0.00000000000000000D+00
33 12  0.00000000000000000D+00  0.00000000000000000D+00  0.00000000000000000D+00 -1.96922022857588400D-06 -2.82074188974199200D-01
33 13  0.00000000000000000D+00  0.00000000000000000D+00  0.00000000000000000D+00  0.00000000000000000D+00  0.00000000000000000D+00
33 14 -4.07014556742588000D-02  0.00000000000000000D+00  0.00000000000000000D+00  8.74119212403605100D-02  0.00000000000000000D+00
33 15  0.00000000000000000D+00  0.00000000000000000D+00  0.00000000000000000D+00 -2.23841850956463600D-02  4.75855032026060400D-02
33 16  0.00000000000000000D+00  0.00000000000000000D+00  0.00000000000000000D+00  0.00000000000000000D+00  0.00000000000000000D+00
33 17 -4.07196172902197600D-02  0.00000000000000000D+00  0.00000000000000000D+00  8.73644103588662000D-02  0.00000000000000000D+00
33 18  0.00000000000000000D+00  0.00000000000000000D+00  0.00000000000000000D+00 -2.23778430295287700D-02 -4.75944852057411400D-02
33 19  0.00000000000000000D+00  0.00000000000000000D+00  0.00000000000000000D+00  0.00000000000000000D+00  0.00000000000000000D+00
33 20  0.00000000000000000D+00 -4.45308135440677300D-01  0.00000000000000000D+00  0.00000000000000000D+00  3.27638654447906200D-01
33 21  0.00000000000000000D+00  0.00000000000000000D+00  3.38908824875308200D-01  0.00000000000000000D+00  0.00000000000000000D+00
33 22  0.00000000000000000D+00  0.00000000000000000D+00 -2.14666187877135700D-07 -2.07262423944096500D-02  0.00000000000000000D+00
33 23  0.00000000000000000D+00  0.00000000000000000D+00  0.00000000000000000D+00 -5.70452563532020200D-07 -2.23234318679540300D-01
33 24  0.00000000000000000D+00  0.00000000000000000D+00  0.00000000000000000D+00  0.00000000000000000D+00  0.00000000000000000D+00
33 25  0.00000000000000000D+00 -4.45315138329412300D-01  0.00000000000000000D+00  0.00000000000000000D+00  3.27656611136338800D-01
33 26  0.00000000000000000D+00  0.00000000000000000D+00  3.38916456424251100D-01  0.00000000000000000D+00  0.00000000000000000D+00
33 27  0.00000000000000000D+00  0.00000000000000000D+00  2.35105477891029800D-07  2.07263706787081800D-02  0.00000000000000000D+00
33 28  0.00000000000000000D+00  0.00000000000000000D+00  0.00000000000000000D+00  4.25368597362716100D-07  2.23243894296931900D-01
33 29  0.00000000000000000D+00  0.00000000000000000D+00  0.00000000000000000D+00  0.00000000000000000D+00  1.55372439810659900D-03
33 30  0.00000000000000000D+00  0.00000000000000000D+00  0.00000000000000000D+00  0.00000000000000000D+00  1.55484029968755800D-03
33 31  0.00000000000000000D+00  0.00000000000000000D+00  0.00000000000000000D+00  0.00000000000000000D+00  1.55496204719226100D-03
33 32  0.00000000000000000D+00  0.00000000000000000D+00  0.00000000000000000D+00  0.00000000000000000D+00  1.55358573927251000D-03
34  1 -1.63706985770945400D-02  1.89677883915603500D-01  1.69697437928839800D+00  1.22404633528039000D-05 -1.70910343807816600D-01
34  2  0.00000000000000000D+00  1.25426516883621200D-05 -7.00427024533975400D-01  0.00000000000000000D+00 -7.30741473993412000D-02
34  3  3.11606203067849900D-02  4.19135270925567000D-02 -8.02235328410283700D-07  0.00000000000000000D+00  0.00000000000000000D+00
34  4  3.38847216475974800D-02 -4.15524847765898300D-02 -8.20699520178468700D-01  1.89890940036905300D-01 -1.63673683476192600D-01
34  5  0.00000000000000000D+00  4.73897532387955200D-01 -1.34145440557953000D-01  0.00000000000000000D+00  8.69539278000297400D-02
34  6  4.37929528383701000D-02 -1.30746880638399600D-01 -1.17852757004883700D-02  0.00000000000000000D+00  0.00000000000000000D+00
34  7  3.38844978626765700D-02 -4.15562482547800100D-02 -8.20770804690933600D-01  1.89893095813086400D-01  1.63677677465441200D-01
34  8  0.00000000000000000D+00  4.73927703566117000D-01  1.34134811806312000D-01  0.00000000000000000D+00  8.69556651432548500D-02
34  9  4.37933206532993300D-02 -1.30748985796554400D-01  1.17842336635419100D-02  0.00000000000000000D+00  0.00000000000000000D+00
34 10 -1.63715386810950400D-02  1.89686760646545400D-01  1.69707905050672600D+00 -7.67331669389778800D-06  1.70917704803850400D-01
34 11  0.00000000000000000D+00 -6.48895340703823300D-06  7.00478821043840400D-01  0.00000000000000000D+00 -7.30760841370861300D-02
34 12  3.11604278439033300D-02  4.19156562931827500D-02 -3.12695837855198700D-07  0.00000000000000000D+00  0.00000000000000000D+00
34 13  3.38861399287620600D-02 -4.15584855002133700D-02 -8.20797629076995500D-01 -1.89897773548828200D-01  1.63675932582331100D-01
34 14  0.00000000000000000D+00 -4.73938714328681300D-01  1.34128195894395600D-01  0.00000000000000000D+00  8.69549357371887400D-02
34 15  4.37953072259365800D-02 -1.30750242963124900D-01 -1.17849245497593200D-02  0.00000000000000000D+00  0.00000000000000000D+00
34 16  3.38805480923025000D-02 -4.15545961223809900D-02 -8.20664488713511600D-01 -1.89884902912166000D-01 -1.63672482883068100D-01
34 17  0.00000000000000000D+00 -4.73877353559551600D-01 -1.34152695230606100D-01  0.00000000000000000D+00  8.69529708066574300D-02
34 18  4.37895305793300500D-02 -1.30742501385987500D-01  1.17845577454977300D-02  0.00000000000000000D+00  0.00000000000000000D+00
34 19  9.14723439227005900D-04 -6.81720983795254800D-03  2.06638853800362100D-02 -7.21375856583029900D-02 -2.97124920759815800D-06
34 20  4.18138555944547500D-02  0.00000000000000000D+00 -2.91323078994406000D-06  1.24204793650498700D-01  0.00000000000000000D+00
34 21 -2.93201777574483900D-06  1.05007693425254600D-01  0.00000000000000000D+00 -3.76264223790718400D-03  3.04677843694077400D-03
34 22  7.15863800967006900D-04 -2.54697185678306200D-07  0.00000000000000000D+00  0.00000000000000000D+00  3.78689615444120000D-02
34 23 -5.28545289560860400D-02  1.49855674116744800D-02 -1.17066174239138000D-06  0.00000000000000000D+00  0.00000000000000000D+00
34 24  9.14824276928933100D-04 -6.81809852332506700D-03  2.06654912936200000D-02 -7.21318966241465800D-02  3.07925141787199200D-06
34 25 -4.18163658978716300D-02  0.00000000000000000D+00  2.31418844214548800D-06 -1.24210624320871300D-01  0.00000000000000000D+00
34 26 -6.22852188074938200D-07 -1.05007749558377800D-01  0.00000000000000000D+00 -3.76287621777041800D-03  3.04696553003430000D-03
34 27  7.15910687736436300D-04 -1.48831071387256800D-07  0.00000000000000000D+00  0.00000000000000000D+00  3.78708678163376500D-02
34 28 -5.28567566873112700D-02  1.49858888709735900D-02 -6.50029068030942800D-07  0.00000000000000000D+00  0.00000000000000000D+00
34 29  4.03471494316018500D-02 -3.09660272051032600D-03  1.01456176940806300D-02 -1.03273808991350700D-03  0.00000000000000000D+00
34 30  4.03514017336101500D-02 -3.09729275218209300D-03  1.01456503041525800D-02  1.03329363107436600D-03  0.00000000000000000D+00
34 31  4.03541990196808300D-02 -3.09560904556288300D-03 -1.01451668668630600D-02  1.03295126023076200D-03  0.00000000000000000D+00
34 32  4.03441349240437500D-02 -3.09404804883121400D-03 -1.01456950285025200D-02 -1.03313150232412000D-03  0.00000000000000000D+00
35  1  0.00000000000000000D+00  0.00000000000000000D+00  0.00000000000000000D+00  0.00000000000000000D+00  0.00000000000000000D+00
35  2 -4.02024771346773300D-01  0.00000000000000000D+00  0.00000000000000000D+00 -2.31486113116818000D-01  0.00000000000000000D+00
35  3  0.00000000000000000D+00  0.00000000000000000D+00  0.00000000000000000D+00  9.22835400646263800D-09  3.01925300617258500D-01
35  4  0.00000000000000000D+00  0.00000000000000000D+00  0.00000000000000000D+00  0.00000000000000000D+00  0.00000000000000000D+00
35  5  9.05030119439848000D-02  0.00000000000000000D+00  0.00000000000000000D+00  2.91394957049028700D-01  0.00000000000000000D+00
35  6  0.00000000000000000D+00  0.00000000000000000D+00  0.00000000000000000D+00  7.83405769567471100D-02  7.82740333681226100D-02
35  7  0.00000000000000000D+00  0.00000000000000000D+00  0.00000000000000000D+00  0.00000000000000000D+00  0.00000000000000000D+00
35  8 -9.05061813759916600D-02  0.00000000000000000D+00  0.00000000000000000D+00 -2.91386832680509400D-01  0.00000000000000000D+00
35  9  0.00000000000000000D+00  0.00000000000000000D+00  0.00000000000000000D+00 -7.83333124097145000D-02  7.82722313148311400D-02
35 10  0.00000000000000000D+00  0.00000000000000000D+00  0.00000000000000000D+00  0.00000000000000000D+00  0.00000000000000000D+00
35 11  4.02015112452944600D-01  0.00000000000000000D+00  0.00000000000000000D+00  2.31451234228866300D-01  0.00000000000000000D+00
35 12  0.00000000000000000D+00  0.00000000000000000D+00  0.00000000000000000D+00  5.26883764525305300D-07  3.01909216446205700D-01
35 13  0.00000000000000000D+00  0.00000000000000000D+00  0.00000000000000000D+00  0.00000000000000000D+00  0.00000000000000000D+00
35 14 -9.04986698571254700D-02  0.00000000000000000D+00  0.00000000000000000D+00 -2.91388487335900200D-01  0.00000000000000000D+00
35 15  0.00000000000000000D+00  0.00000000000000000D+00  0.00000000000000000D+00  7.83316025135322600D-02  7.82683312815257700D-02
35 16  0.00000000000000000D+00  0.00000000000000000D+00  0.00000000000000000D+00  0.00000000000000000D+00  0.00000000000000000D+00
35 17  9.05102733586662800D-02  0.00000000000000000D+00  0.00000000000000000D+00  2.91394873958192000D-01  0.00000000000000000D+00
35 18  0.00000000000000000D+00  0.00000000000000000D+00  0.00000000000000000D+00 -7.83424779509442200D-02  7.82780412494370600D-02
35 19  0.00000000000000000D+00  0.00000000000000000D+00  0.00000000000000000D+00  0.00000000000000000D+00  0.00000000000000000D+00
35 20  0.00000000000000000D+00 -2.96678611476496800D-01  0.00000000000000000D+00  0.00000000000000000D+00  2.56875923186375900D-01
35 21  0.00000000000000000D+00  0.00000000000000000D+00  2.22663198668305700D-01  0.00000000000000000D+00  0.00000000000000000D+00
35 22  0.00000000000000000D+00  0.00000000000000000D+00  2.49073563701481800D-07 -1.37428082935076400D-02  0.00000000000000000D+00
35 23  0.00000000000000000D+00  0.00000000000000000D+00  0.00000000000000000D+00 -3.01356023836186100D-07 -1.96273227161981200D-01
35 24  0.00000000000000000D+00  0.00000000000000000D+00  0.00000000000000000D+00  0.00000000000000000D+00  0.00000000000000000D+00
35 25  0.00000000000000000D+00  2.96644378544423000D-01  0.00000000000000000D+00  0.00000000000000000D+00 -2.56845728846390100D-01
35 26  0.00000000000000000D+00  0.00000000000000000D+00 -2.22631711436981700D-01  0.00000000000000000D+00  0.00000000000000000D+00
35 27  0.00000000000000000D+00  0.00000000000000000D+00  1.68159795950693600D-07 -1.37423317269063200D-02  0.00000000000000000D+00
35 28  0.00000000000000000D+00  0.00000000000000000D+00  0.00000000000000000D+00 -2.22527448501472300D-07 -1.96254354114860300D-01
35 29  0.00000000000000000D+00  0.00000000000000000D+00  0.00000000000000000D+00  0.00000000000000000D+00  1.47870220325574900D-02
35 30  0.00000000000000000D+00  0.00000000000000000D+00  0.00000000000000000D+00  0.00000000000000000D+00 -1.47864317031209700D-02
35 31  0.00000000000000000D+00  0.00000000000000000D+00  0.00000000000000000D+00  0.00000000000000000D+00 -1.47864581949815700D-02
35 32  0.00000000000000000D+00  0.00000000000000000D+00  0.00000000000000000D+00  0.00000000000000000D+00  1.47868858717247100D-02
36  1 -1.51554928201751200D-06 -1.06947406809663400D-06  4.40484918378072000D-06  3.49994137892291200D-01 -2.93632731300520700D-06
36  2  0.00000000000000000D+00  9.46363392908834800D-01  1.56374611384102100D-05  0.00000000000000000D+00  1.37617339599808800D-06
36  3 -1.35625243400569800D-06 -1.99209620406719900D-08 -3.72605476557360700D-02  0.00000000000000000D+00  0.00000000000000000D+00
36  4  8.57280904333130700D-02  1.36796553216292500D-01 -7.47342970450236200D-01  9.30478816446630400D-02 -1.36754087330653900D-01
36  5  0.00000000000000000D+00  5.07654495317877500D-01 -1.29238601829904700D-01  0.00000000000000000D+00  1.02472732549228100D-01
36  6  6.32507795791444900D-02 -1.65723512128372800D-01  1.03297096018206300D-04  0.00000000000000000D+00  0.00000000000000000D+00
36  7  8.57264056950298300D-02  1.36792120958094600D-01 -7.47373097553424800D-01  9.30495373976186300D-02  1.36753216361525000D-01
36  8  0.00000000000000000D+00  5.07703077905432100D-01  1.29340895048355500D-01  0.00000000000000000D+00  1.02473806207562300D-01
36  9  6.32520510741827600D-02 -1.65725857281744800D-01 -1.04424556159180200D-04  0.00000000000000000D+00  0.00000000000000000D+00
36 10  1.34853391305799000D-06 -1.70732788226890400D-06 -2.25986197827656000D-05  3.50008935049741800D-01 -4.45604430910575800D-06
36 11  0.00000000000000000D+00  9.46535216346981100D-01 -5.98974423278808500D-07  0.00000000000000000D+00 -3.51087470339273100D-07
36 12  9.74893837222275200D-07 -6.23806366556580100D-07  3.72630093613156100D-02  0.00000000000000000D+00  0.00000000000000000D+00
36 13 -8.57292262421381800D-02 -1.36790171679852100D-01  7.47416896641203600D-01  9.30570831195718400D-02 -1.36756343060706000D-01
36 14  0.00000000000000000D+00  5.07727700467119800D-01 -1.29331246140753800D-01  0.00000000000000000D+00 -1.02476590626307000D-01
36 15 -6.32546169603088700D-02  1.65731207586615600D-01 -1.04876127924735900D-04  0.00000000000000000D+00  0.00000000000000000D+00
36 16 -8.57247044259952700D-02 -1.36794680056733300D-01  7.47321325751677000D-01  9.30457114667494600D-02  1.36754319822835300D-01
36 17  0.00000000000000000D+00  5.07643455519915300D-01  1.29251147427907900D-01  0.00000000000000000D+00 -1.02471607967262500D-01
36 18 -6.32495677095972900D-02  1.65721175676859200D-01  1.02387890205306300D-04  0.00000000000000000D+00  0.00000000000000000D+00
36 19  3.35369230813853000D-07 -1.58196884601369600D-06 -1.55495937604005000D-05  2.11658426955806900D-06  6.40043968531735400D-02
36 20  1.61170723409136100D-06  0.00000000000000000D+00 -1.68345593805343400D-01  3.52768185016135400D-06  0.00000000000000000D+00
36 21 -4.36279579353854100D-01  3.54463841942552800D-06  0.00000000000000000D+00  9.05623559044025600D-08 -3.42031364847778600D-08
36 22 -5.63592196530636000D-08 -9.63588927963672300D-03  0.00000000000000000D+00  0.00000000000000000D+00 -1.06408385894011900D-06
36 23  2.16039813290971100D-06 -1.09631427407262200D-06 -3.12720663491014600D-02  0.00000000000000000D+00  0.00000000000000000D+00
36 24 -1.82737196155051800D-07  1.65821950889851000D-06  1.08234105263700300D-05 -5.46776401747170100D-06  6.40139428422171300D-02
36 25  2.12863956048213000D-06  0.00000000000000000D+00 -1.68372158854416800D-01  3.52343938904645100D-06  0.00000000000000000D+00
36 26 -4.36316209970129400D-01  1.00409800418357200D-06  0.00000000000000000D+00 -6.82696091849081500D-08 -1.24718812029273700D-08
36 27  8.07414904277257000D-08  9.63662142017656000D-03  0.00000000000000000D+00  0.00000000000000000D+00  3.89687879705525000D-07
36 28 -1.25225147143407700D-06  8.62563591728533300D-07  3.12729632010910500D-02  0.00000000000000000D+00  0.00000000000000000D+00
36 29 -6.04825945015029100D-03 -1.69777570912554800D-01  2.01761745635500500D-02  5.33571773210658600D-03  0.00000000000000000D+00
36 30 -6.04235410422460600D-03 -1.69767819700477400D-01  2.01756701060700400D-02 -5.33655080543758100D-03  0.00000000000000000D+00
36 31  6.03875145185052000D-03  1.69767695218341300D-01  2.01756939213110300D-02  5.33735517113757700D-03  0.00000000000000000D+00
36 32  6.05191718796771900D-03  1.69781849606183300D-01  2.01762731978473000D-02 -5.33481612390284900D-03  0.00000000000000000D+00
37  1  0.00000000000000000D+00  0.00000000000000000D+00  0.00000000000000000D+00  0.00000000000000000D+00  0.00000000000000000D+00
37  2 -1.37693812163950600D-01  0.00000000000000000D+00  0.00000000000000000D+00  3.11555655926977800D-01  0.00000000000000000D+00
37  3  0.00000000000000000D+00  0.00000000000000000D+00  0.00000000000000000D+00 -1.78365975335140700D-06  3.96276441998738800D-02
37  4  0.00000000000000000D+00  0.00000000000000000D+00  0.00000000000000000D+00  0.00000000000000000D+00  0.00000000000000000D+00
37  5 -2.75539115258824500D-01  0.00000000000000000D+00  0.00000000000000000D+00  7.32220349324651100D-02  0.00000000000000000D+00
37  6  0.00000000000000000D+00  0.00000000000000000D+00  0.00000000000000000D+00 -1.97201582358588100D-01 -3.05537470645492700D-01
37  7  0.00000000000000000D+00  0.00000000000000000D+00  0.00000000000000000D+00  0.00000000000000000D+00  0.00000000000000000D+00
37  8 -2.75537405328299500D-01  0.00000000000000000D+00  0.00000000000000000D+00  7.31986766070795900D-02  0.00000000000000000D+00
37  9  0.00000000000000000D+00  0.00000000000000000D+00  0.00000000000000000D+00 -1.97206049273943000D-01  3.05545196486706400D-01
37 10  0.00000000000000000D+00  0.00000000000000000D+00  0.00000000000000000D+00  0.00000000000000000D+00  0.00000000000000000D+00
37 11 -1.37686718745544500D-01  0.00000000000000000D+00  0.00000000000000000D+00  3.11579091043143900D-01  0.00000000000000000D+00
37 12  0.00000000000000000D+00  0.00000000000000000D+00  0.00000000000000000D+00  2.32397806661527500D-06 -3.96200394684301200D-02
37 13  0.00000000000000000D+00  0.00000000000000000D+00  0.00000000000000000D+00  0.00000000000000000D+00  0.00000000000000000D+00
37 14 -2.75525185386649500D-01  0.00000000000000000D+00  0.00000000000000000D+00  7.31855058122089900D-02  0.00000000000000000D+00
37 15  0.00000000000000000D+00  0.00000000000000000D+00  0.00000000000000000D+00  1.97209260687051400D-01  3.05549848046251500D-01
37 16  0.00000000000000000D+00  0.00000000000000000D+00  0.00000000000000000D+00  0.00000000000000000D+00  0.00000000000000000D+00
37 17 -2.75548811500354600D-01  0.00000000000000000D+00  0.00000000000000000D+00  7.32337355553653300D-02  0.00000000000000000D+00
37 18  0.00000000000000000D+00  0.00000000000000000D+00  0.00000000000000000D+00  1.97193384079548200D-01 -3.05528477312998100D-01
37 19  0.00000000000000000D+00  0.00000000000000000D+00  0.00000000000000000D+00  0.00000000000000000D+00  0.00000000000000000D+00
37 20  0.00000000000000000D+00  7.76530505571625000D-02  0.00000000000000000D+00  0.00000000000000000D+00 -1.46416055636480300D-01
37 21  0.00000000000000000D+00  0.00000000000000000D+00 -8.87103482326347400D-02  0.00000000000000000D+00  0.00000000000000000D+00
37 22  0.00000000000000000D+00  0.00000000000000000D+00  3.78365697290686300D-07 -1.85908501231658900D-02  0.00000000000000000D+00
37 23  0.00000000000000000D+00  0.00000000000000000D+00  0.00000000000000000D+00 -9.35464944692079000D-07  8.77090258892805300D-02
37 24  0.00000000000000000D+00  0.00000000000000000D+00  0.00000000000000000D+00  0.00000000000000000D+00  0.00000000000000000D+00
37 25  0.00000000000000000D+00  7.76561565607985600D-02  0.00000000000000000D+00  0.00000000000000000D+00 -1.46424884843403900D-01
37 26  0.00000000000000000D+00  0.00000000000000000D+00 -8.87050471631238700D-02  0.00000000000000000D+00  0.00000000000000000D+00
37 27  0.00000000000000000D+00  0.00000000000000000D+00 -2.45492997177943200D-07  1.85909846415378500D-02  0.00000000000000000D+00
37 28  0.00000000000000000D+00  0.00000000000000000D+00  0.00000000000000000D+00  6.00638009000529100D-07 -8.77162899702886900D-02
37 29  0.00000000000000000D+00  0.00000000000000000D+00  0.00000000000000000D+00  0.00000000000000000D+00 -3.07797259537565300D-02
37 30  0.00000000000000000D+00  0.00000000000000000D+00  0.00000000000000000D+00  0.00000000000000000D+00 -3.07807403789865500D-02
37 31  0.00000000000000000D+00  0.00000000000000000D+00  0.00000000000000000D+00  0.00000000000000000D+00 -3.07810147903534600D-02
37 32  0.00000000000000000D+00  0.00000000000000000D+00  0.00000000000000000D+00  0.00000000000000000D+00 -3.07790549962443200D-02
38  1  0.00000000000000000D+00  0.00000000000000000D+00  0.00000000000000000D+00  0.00000000000000000D+00  0.00000000000000000D+00
38  2 -1.32874834411828600D-06  0.00000000000000000D+00  0.00000000000000000D+00  4.97732289790516600D-06  0.00000000000000000D+00
38  3  0.00000000000000000D+00  0.00000000000000000D+00  0.00000000000000000D+00 -3.41891561238600500D-01 -2.90168142782766300D-06
38  4  0.00000000000000000D+00  0.00000000000000000D+00  0.00000000000000000D+00  0.00000000000000000D+00  0.00000000000000000D+00
38  5 -2.10423540774753100D-01  0.00000000000000000D+00  0.00000000000000000D+00  1.86797525539579700D-01  0.00000000000000000D+00
38  6  0.00000000000000000D+00  0.00000000000000000D+00  0.00000000000000000D+00 -8.66202955036416400D-02 -3.03741730114794400D-01
38  7  0.00000000000000000D+00  0.00000000000000000D+00  1.42276641394609700D-11  0.00000000000000000D+00  0.00000000000000000D+00
38  8 -2.10406567616477300D-01  0.00000000000000000D+00  0.00000000000000000D+00  1.86811265882720900D-01  0.00000000000000000D+00
38  9  0.00000000000000000D+00  0.00000000000000000D+00  0.00000000000000000D+00 -8.66184651396267200D-02  3.03739042545269500D-01
38 10  0.00000000000000000D+00  0.00000000000000000D+00  0.00000000000000000D+00  0.00000000000000000D+00  0.00000000000000000D+00
38 11 -6.93167481045754300D-07 -1.19890538892635800D-11  0.00000000000000000D+00 -2.82218835817400700D-06  0.00000000000000000D+00
38 12  0.00000000000000000D+00  0.00000000000000000D+00  0.00000000000000000D+00 -3.41944672482797300D-01 -3.17012499346128500D-06
38 13  0.00000000000000000D+00  0.00000000000000000D+00 -1.29743878902386500D-11  0.00000000000000000D+00  0.00000000000000000D+00
38 14  2.10411179773282200D-01  0.00000000000000000D+00  0.00000000000000000D+00 -1.86807192409618700D-01  0.00000000000000000D+00
38 15  0.00000000000000000D+00  0.00000000000000000D+00  0.00000000000000000D+00 -8.66179972543308100D-02 -3.03743019996942600D-01
38 16  0.00000000000000000D+00  0.00000000000000000D+00  0.00000000000000000D+00  0.00000000000000000D+00  0.00000000000000000D+00
38 17  2.10422169008660900D-01  0.00000000000000000D+00  0.00000000000000000D+00 -1.86804320807870000D-01  0.00000000000000000D+00
38 18  0.00000000000000000D+00  0.00000000000000000D+00  0.00000000000000000D+00 -8.66216809578128500D-02  3.03741126935546900D-01
38 19  0.00000000000000000D+00  0.00000000000000000D+00  0.00000000000000000D+00  0.00000000000000000D+00  0.00000000000000000D+00
38 20  0.00000000000000000D+00  2.39476209332659100D-06  0.00000000000000000D+00  0.00000000000000000D+00 -1.16640662608989900D-06
38 21  0.00000000000000000D+00  0.00000000000000000D+00 -1.11053048671753900D-06  0.00000000000000000D+00  0.00000000000000000D+00
38 22  0.00000000000000000D+00  0.00000000000000000D+00  5.49189662509696900D-02 -9.90847585036507600D-07  0.00000000000000000D+00
38 23  0.00000000000000000D+00  0.00000000000000000D+00  0.00000000000000000D+00  4.36070107090692300D-03 -3.21134627493243600D-07
38 24  0.00000000000000000D+00  0.00000000000000000D+00  0.00000000000000000D+00  0.00000000000000000D+00  0.00000000000000000D+00
38 25  0.00000000000000000D+00 -2.53163687192748000D-06  0.00000000000000000D+00  0.00000000000000000D+00  1.13429658659927200D-06
38 26  0.00000000000000000D+00  0.00000000000000000D+00  1.33594598036215200D-06  0.00000000000000000D+00  0.00000000000000000D+00
38 27  0.00000000000000000D+00  0.00000000000000000D+00  5.49255231158687100D-02 -7.54870572121838100D-07  0.00000000000000000D+00
38 28  0.00000000000000000D+00  0.00000000000000000D+00  0.00000000000000000D+00  4.36200924666154600D-03 -9.52567374677434500D-08
38 29  0.00000000000000000D+00  0.00000000000000000D+00  0.00000000000000000D+00  0.00000000000000000D+00 -3.86089016250289400D-03
38 30  0.00000000000000000D+00  0.00000000000000000D+00  0.00000000000000000D+00  0.00000000000000000D+00 -3.85607129217988600D-03
38 31  0.00000000000000000D+00  0.00000000000000000D+00  0.00000000000000000D+00  0.00000000000000000D+00  3.85722653127435600D-03
38 32  0.00000000000000000D+00  0.00000000000000000D+00  0.00000000000000000D+00  0.00000000000000000D+00  3.86031178384939400D-03
39  1  0.00000000000000000D+00  0.00000000000000000D+00  0.00000000000000000D+00  0.00000000000000000D+00  0.00000000000000000D+00
39  2  2.14797194177805400D-06  1.65360533899768000D-11  0.00000000000000000D+00 -9.46476242480864000D-06  0.00000000000000000D+00
39  3  0.00000000000000000D+00  0.00000000000000000D+00  0.00000000000000000D+00 -5.16694062719414400D-01 -5.19640180647245600D-06
39  4  0.00000000000000000D+00  0.00000000000000000D+00 -1.54003905153195600D-11  0.00000000000000000D+00  0.00000000000000000D+00
39  5  1.53612217336557000D-01  0.00000000000000000D+00  0.00000000000000000D+00 -2.08283798769820300D-03  0.00000000000000000D+00
39  6  0.00000000000000000D+00  0.00000000000000000D+00  0.00000000000000000D+00  2.21131678881632200D-01  1.85486449408424300D-01
39  7  0.00000000000000000D+00  0.00000000000000000D+00  0.00000000000000000D+00  0.00000000000000000D+00  0.00000000000000000D+00
39  8  1.53882302617414600D-01  0.00000000000000000D+00  0.00000000000000000D+00 -1.91290215062777600D-03  0.00000000000000000D+00
39  9  0.00000000000000000D+00  0.00000000000000000D+00  0.00000000000000000D+00  2.21228109155058400D-01 -1.85604528806301800D-01
39 10  0.00000000000000000D+00  0.00000000000000000D+00  0.00000000000000000D+00  0.00000000000000000D+00  0.00000000000000000D+00
39 11 -1.93474184303322100D-06  0.00000000000000000D+00  0.00000000000000000D+00  7.64297199585136400D-06  0.00000000000000000D+00
39 12  0.00000000000000000D+00  0.00000000000000000D+00  0.00000000000000000D+00 -5.18032001573833400D-01 -3.33193441033009800D-06
39 13  0.00000000000000000D+00  0.00000000000000000D+00  0.00000000000000000D+00  0.00000000000000000D+00  0.00000000000000000D+00
39 14 -1.53865528357526400D-01  0.00000000000000000D+00  0.00000000000000000D+00  1.89628861148486100D-03  0.00000000000000000D+00
39 15  0.00000000000000000D+00  0.00000000000000000D+00  0.00000000000000000D+00  2.21243967673525100D-01  1.85619597032437600D-01
39 16  0.00000000000000000D+00  0.00000000000000000D+00  1.22762739093115800D-11  0.00000000000000000D+00  0.00000000000000000D+00
39 17 -1.53632927786608200D-01  0.00000000000000000D+00  0.00000000000000000D+00  2.10069416776345300D-03  0.00000000000000000D+00
39 18  0.00000000000000000D+00  0.00000000000000000D+00  0.00000000000000000D+00  2.21118590829968800D-01 -1.85476231367727000D-01
39 19  0.00000000000000000D+00  0.00000000000000000D+00  0.00000000000000000D+00  0.00000000000000000D+00  0.00000000000000000D+00
39 20  0.00000000000000000D+00  3.40812232120573200D-06  0.00000000000000000D+00  0.00000000000000000D+00  2.33148670508159600D-07
39 21  0.00000000000000000D+00  0.00000000000000000D+00  3.57402158454813300D-06  0.00000000000000000D+00  0.00000000000000000D+00
39 22  0.00000000000000000D+00  0.00000000000000000D+00  4.65182628751944400D-02 -1.42809088737431400D-06  0.00000000000000000D+00
39 23  0.00000000000000000D+00  0.00000000000000000D+00  0.00000000000000000D+00  2.29749579738141000D-02 -4.50001873270469000D-06
39 24  0.00000000000000000D+00  0.00000000000000000D+00  0.00000000000000000D+00  0.00000000000000000D+00  0.00000000000000000D+00
39 25  0.00000000000000000D+00 -2.96434524873927500D-06  0.00000000000000000D+00  0.00000000000000000D+00  7.45260735686349800D-08
39 26  0.00000000000000000D+00  0.00000000000000000D+00 -9.78654065065912000D-07  0.00000000000000000D+00  0.00000000000000000D+00
39 27  0.00000000000000000D+00  0.00000000000000000D+00  4.66630122504030300D-02 -1.13179500055003700D-06  0.00000000000000000D+00
39 28  0.00000000000000000D+00  0.00000000000000000D+00  0.00000000000000000D+00  2.29872651046716500D-02 -4.11150472442292300D-06
39 29  0.00000000000000000D+00  0.00000000000000000D+00  0.00000000000000000D+00  0.00000000000000000D+00  3.86179294965244600D-02
39 30  0.00000000000000000D+00  0.00000000000000000D+00  0.00000000000000000D+00  0.00000000000000000D+00  3.87221303898065500D-02
39 31  0.00000000000000000D+00  0.00000000000000000D+00  0.00000000000000000D+00  0.00000000000000000D+00 -3.87231822043934900D-02
39 32  0.00000000000000000D+00  0.00000000000000000D+00  0.00000000000000000D+00  0.00000000000000000D+00 -3.86171785074954400D-02
40  1  0.00000000000000000D+00  0.00000000000000000D+00  0.00000000000000000D+00  0.00000000000000000D+00  0.00000000000000000D+00
40  2  7.25891334455335800D-06 -1.24032983590172200D-11  0.00000000000000000D+00 -1.03494164099932800D-05  0.00000000000000000D+00
40  3  0.00000000000000000D+00  0.00000000000000000D+00  0.00000000000000000D+00  7.19364298687723400D-01  4.91718007959621800D-06
40  4  0.00000000000000000D+00  0.00000000000000000D+00  0.00000000000000000D+00  0.00000000000000000D+00  0.00000000000000000D+00
40  5 -1.42268800011684400D-01  0.00000000000000000D+00  1.11019344360289400D-11 -9.50750425724396400D-02  0.00000000000000000D+00
40  6  0.00000000000000000D+00  0.00000000000000000D+00  0.00000000000000000D+00 -5.28809813379730000D-02 -5.89471887747779200D-02
40  7  0.00000000000000000D+00  0.00000000000000000D+00  0.00000000000000000D+00  0.00000000000000000D+00  0.00000000000000000D+00
40  8  1.42022669542675700D-01  0.00000000000000000D+00  1.26729019858593300D-11  9.50563170309873300D-02  0.00000000000000000D+00
40  9  0.00000000000000000D+00  0.00000000000000000D+00  0.00000000000000000D+00  5.24534480975729300D-02 -5.86256558632778900D-02
40 10  0.00000000000000000D+00  0.00000000000000000D+00  0.00000000000000000D+00  0.00000000000000000D+00  0.00000000000000000D+00
40 11  6.63924877994896100D-06  2.36757653864202100D-11  0.00000000000000000D+00 -9.13418999718862200D-06  0.00000000000000000D+00
40 12  0.00000000000000000D+00  0.00000000000000000D+00  0.00000000000000000D+00 -7.18395285764478300D-01 -2.85413784283122000D-06
40 13  0.00000000000000000D+00  0.00000000000000000D+00  0.00000000000000000D+00  0.00000000000000000D+00  0.00000000000000000D+00
40 14 -1.42018654122082200D-01  0.00000000000000000D+00 -1.22649131964758900D-11 -9.50520960972427400D-02  0.00000000000000000D+00
40 15  0.00000000000000000D+00  0.00000000000000000D+00  0.00000000000000000D+00  5.24555305521285000D-02  5.86269749527592400D-02
40 16  0.00000000000000000D+00  0.00000000000000000D+00  0.00000000000000000D+00  0.00000000000000000D+00  0.00000000000000000D+00
40 17  1.42273578599698400D-01  0.00000000000000000D+00  0.00000000000000000D+00  9.50824327286675000D-02  0.00000000000000000D+00
40 18  0.00000000000000000D+00  0.00000000000000000D+00  0.00000000000000000D+00 -5.28788965778198200D-02  5.89473129328539100D-02
40 19  0.00000000000000000D+00  0.00000000000000000D+00  0.00000000000000000D+00  0.00000000000000000D+00  0.00000000000000000D+00
40 20  0.00000000000000000D+00 -2.54083732858119700D-06  0.00000000000000000D+00  0.00000000000000000D+00  1.70120644825635900D-06
40 21  0.00000000000000000D+00  0.00000000000000000D+00 -2.53830485319527900D-06  0.00000000000000000D+00  0.00000000000000000D+00
40 22  0.00000000000000000D+00  0.00000000000000000D+00 -7.88484969882204000D-02  2.87571821241254300D-06  0.00000000000000000D+00
40 23  0.00000000000000000D+00  0.00000000000000000D+00  0.00000000000000000D+00 -6.61053104831372400D-03  4.22072599486193200D-06
40 24  0.00000000000000000D+00  0.00000000000000000D+00  0.00000000000000000D+00  0.00000000000000000D+00  0.00000000000000000D+00
40 25  0.00000000000000000D+00 -1.90183645452961800D-06  0.00000000000000000D+00  0.00000000000000000D+00  1.70181610982792700D-06
40 26  0.00000000000000000D+00  0.00000000000000000D+00 -1.10866462178302300D-06  0.00000000000000000D+00  0.00000000000000000D+00
40 27  0.00000000000000000D+00  0.00000000000000000D+00  7.87606505537140100D-02 -2.42023168467959300D-06  0.00000000000000000D+00
40 28  0.00000000000000000D+00  0.00000000000000000D+00  0.00000000000000000D+00  6.56027949486825100D-03 -3.31783283769401400D-06
40 29  0.00000000000000000D+00  0.00000000000000000D+00  0.00000000000000000D+00  0.00000000000000000D+00 -5.60690194099205600D-02
40 30  0.00000000000000000D+00  0.00000000000000000D+00  0.00000000000000000D+00  0.00000000000000000D+00  5.59978791799069400D-02
40 31  0.00000000000000000D+00  0.00000000000000000D+00  0.00000000000000000D+00  0.00000000000000000D+00 -5.59988237456034600D-02
40 32  0.00000000000000000D+00  0.00000000000000000D+00  0.00000000000000000D+00  0.00000000000000000D+00  5.60680807176509900D-02
41  1 -5.38779498034219100D-06 -9.31417222884175300D-06 -9.48236677137373000D-05 -7.92858142073975400D-02 -1.08856665342723600D-06
41  2  0.00000000000000000D+00  4.28223217695387000D+00  3.34965556631848600D-05  0.00000000000000000D+00 -5.02562954750457800D-06
41  3 -4.35258185850216700D-06  9.37821140362093300D-06 -5.54896804867950100D-02  0.00000000000000000D+00  0.00000000000000000D+00
41  4 -7.12959754322072800D-02 -1.40193663527163200D-01  1.00233385210437000D-01  1.56779584227382300D-01 -7.12764989238639200D-02
41  5  0.00000000000000000D+00  1.12946472360272800D+00 -3.07758176550261200D+00  0.00000000000000000D+00  1.92128134559657300D-04
41  6 -9.66282945699364300D-02  9.64361664353776100D-02  7.04819376803890300D-02  0.00000000000000000D+00  0.00000000000000000D+00
41  7  7.13725868233596600D-02  1.40380918897073400D-01 -9.87240955407193600D-02 -1.56897261105384900D-01 -7.12242153242616200D-02
41  8  0.00000000000000000D+00 -1.12948029295257600D+00 -3.07850949592555900D+00  0.00000000000000000D+00 -1.06037801210036100D-04
41  9  9.67656679171173000D-02 -9.66596301159057300D-02  7.04955958610432000D-02  0.00000000000000000D+00  0.00000000000000000D+00
41 10 -4.03424336171877600D-06 -7.25527075028265900D-06 -8.04755809985265800D-05  7.95126583960681800D-02 -7.64562128059331700D-08
41 11  0.00000000000000000D+00 -4.28451348756002500D+00 -2.51511822775972800D-05  0.00000000000000000D+00 -3.94270477194070400D-06
41 12 -3.89028837079636400D-06  7.83299314085740500D-06 -5.55190601867116200D-02  0.00000000000000000D+00  0.00000000000000000D+00
41 13 -7.13725071389780100D-02 -1.40381324878793000D-01  9.88281778021946700D-02 -1.56899693957524800D-01  7.12257905000320500D-02
41 14  0.00000000000000000D+00 -1.12945242409766800D+00  3.07849661753561100D+00  0.00000000000000000D+00  1.01525608473687400D-04
41 15 -9.67654566725761600D-02  9.66639310641033600D-02  7.04954378103407100D-02  0.00000000000000000D+00  0.00000000000000000D+00
41 16  7.12967885629350300D-02  1.40192935438917200D-01 -1.00150621830703300D-01  1.56775116045828800D-01  7.12735085448938400D-02
41 17  0.00000000000000000D+00  1.12949422171672100D+00  3.07761817081210200D+00  0.00000000000000000D+00 -1.97054728651684900D-04
41 18  9.66283976505918400D-02 -9.64313429219393800D-02  7.04815375333505400D-02  0.00000000000000000D+00  0.00000000000000000D+00
41 19 -1.21565786563197200D-07 -5.02464560783084800D-06 -2.69643888978205400D-05  3.11640307384349600D-05  3.33570486830534600D-01
41 20  1.79534662466732900D-06  0.00000000000000000D+00 -6.75998505749524500D-01  1.01439497008419900D-06  0.00000000000000000D+00
41 21 -7.09341909791593600D-01 -1.06767194238503100D-05  0.00000000000000000D+00  1.66560013708234300D-07 -9.90485276500733600D-08
41 22 -6.75114867201631900D-08 -2.40494601933802700D-02  0.00000000000000000D+00  0.00000000000000000D+00 -3.15265859543870400D-06
41 23  5.84175957096537100D-06 -2.68910097549494000D-06  9.10575509489652300D-03  0.00000000000000000D+00  0.00000000000000000D+00
41 24 -1.66898522996971200D-07 -4.15145776374880100D-06 -1.93789843020439600D-05  2.48738895396057900D-05 -3.33891358250398200D-01
41 25 -1.98266319568351200D-06  0.00000000000000000D+00  6.76485038824779900D-01 -4.09818584929424900D-07  0.00000000000000000D+00
41 26  7.10001845383502500D-01  9.65244998366062200D-06  0.00000000000000000D+00  3.09249398277025000D-07 -2.47121057646933800D-08
41 27 -2.84537292668581200D-07 -2.40726127228258300D-02  0.00000000000000000D+00  0.00000000000000000D+00 -2.72033169968794600D-06
41 28  4.75003388629313600D-06 -2.02970218660519900D-06  9.09544088930582700D-03  0.00000000000000000D+00  0.00000000000000000D+00
41 29  1.05237708659286100D-01  4.11626500108051300D-01 -1.57159518700935300D-02  3.61917011292711400D-02  0.00000000000000000D+00
41 30 -1.05399264467158600D-01 -4.12048422843150800D-01  1.57348916786412000D-02  3.61822165259943000D-02  0.00000000000000000D+00
41 31  1.05395863052737600D-01  4.12040185237305400D-01  1.57349051930857200D-02 -3.61822248751952700D-02  0.00000000000000000D+00
41 32 -1.05240689100333500D-01 -4.11635620704434900D-01 -1.57155023874479000D-02 -3.61915975248852900D-02  0.00000000000000000D+00
42  1  6.13878128366301400D-06  8.15254891714210500D-06 -1.58154468055634800D-05  1.99078769079103000D-01  2.31995015053800100D-06
42  2  0.00000000000000000D+00 -2.22474496661555600D+00 -2.64003395630434200D-06  0.00000000000000000D+00  4.92403487601534500D-06
42  3  4.13044033661542900D-06 -9.05447521297815300D-06  2.95071095624402800D-02  0.00000000000000000D+00  0.00000000000000000D+00
42  4  7.06390926669904200D-02  1.76989611267629000D-01  1.39551975776096200D+00 -1.18379138533115700D-01 -4.38193630557833400D-02
42  5  0.00000000000000000D+00 -1.10359324161684500D-02  8.84125924719435400D-01  0.00000000000000000D+00  8.27990524331102100D-02
42  6  1.29625039016568700D-01 -2.12424091449678000D-01 -1.33325726424129900D-02  0.00000000000000000D+00  0.00000000000000000D+00
42  7  7.05655980349730900D-02  1.76833241955120800D-01  1.39560993476628200D+00 -1.18204247622564100D-01  4.38977457732213600D-02
42  8  0.00000000000000000D+00 -9.82192460979595600D-03 -8.80881420196758600D-01  0.00000000000000000D+00  8.27993311370442400D-02
42  9  1.29526965278481700D-01 -2.12326296415526800D-01  1.32550881315598000D-02  0.00000000000000000D+00  0.00000000000000000D+00
42 10 -4.65387702390251000D-06 -5.45347014602925900D-06  2.50914439535270800D-05  1.99008050937907600D-01  1.51863866559528400D-06
42 11  0.00000000000000000D+00 -2.22025068247793400D+00  4.26258406448045300D-07  0.00000000000000000D+00 -3.96290412633713500D-06
42 12 -3.39172018750911700D-06  7.35462431261084100D-06 -2.94485153985294400D-02  0.00000000000000000D+00  0.00000000000000000D+00
42 13 -7.05635283575883200D-02 -1.76835866940065300D-01 -1.39561552725851700D+00 -1.18212229124703400D-01 -4.38951409172508700D-02
42 14  0.00000000000000000D+00 -9.85738705411458000D-03  8.80893263700517700D-01  0.00000000000000000D+00 -8.28017896583747900D-02
42 15 -1.29525548296610700D-01  2.12327337954986600D-01  1.32600992192561200D-02  0.00000000000000000D+00  0.00000000000000000D+00
42 16 -7.06400723444823200D-02 -1.76983344060979800D-01 -1.39551911166163200D+00 -1.18368784494160300D-01  4.38224937670403000D-02
42 17  0.00000000000000000D+00 -1.10017634419018600D-02 -8.84115685826136200D-01  0.00000000000000000D+00 -8.27956122096558900D-02
42 18 -1.29626264856092300D-01  2.12421877065748800D-01 -1.33272195995653400D-02  0.00000000000000000D+00  0.00000000000000000D+00
42 19  1.44441410197922600D-07  4.51144469047982900D-06  2.17054863279841600D-05 -2.83620624765607300D-05 -3.08204255893038300D-01
42 20 -9.57082481958796200D-07  0.00000000000000000D+00  4.70100810269992700D-01 -2.52267428459390600D-06  0.00000000000000000D+00
42 21  6.50283652786661800D-01  7.86580957170978800D-06  0.00000000000000000D+00 -4.64567638510382400D-09 -1.25343710484509300D-07
42 22  1.29989388160498100D-07  2.24978692232462400D-02  0.00000000000000000D+00  0.00000000000000000D+00  2.46790199768550300D-06
42 23 -3.75650084402727100D-06  1.28859884593001300D-06  1.01283243332779700D-02  0.00000000000000000D+00  0.00000000000000000D+00
42 24 -5.07173528640341300D-08 -3.50284175830338900D-06 -1.70588319575556600D-05  1.78889102896609100D-05 -3.07856599129894600D-01
42 25 -1.31874443989681500D-06  0.00000000000000000D+00  4.69390371072576700D-01 -3.54526037406372600D-06  0.00000000000000000D+00
42 26  6.49537354411408300D-01  3.87165558179588300D-06  0.00000000000000000D+00  8.91147905899352900D-08  2.08227957826581300D-07
42 27 -2.97342748543802800D-07 -2.24726109290031100D-02  0.00000000000000000D+00  0.00000000000000000D+00 -1.55744806471688800D-06
42 28  2.25337371236376200D-06 -6.95925647646870100D-07 -1.01373496020737300D-02  0.00000000000000000D+00  0.00000000000000000D+00
42 29 -1.54436649050781600D-01 -3.93823491446606300D-01  1.80829847440975700D-02  9.09488250280767900D-03  0.00000000000000000D+00
42 30 -1.54320289383703500D-01 -3.93389742022111100D-01  1.80664831033888100D-02 -9.13218021183779600D-03  0.00000000000000000D+00
42 31  1.54320277035167400D-01  3.93384007403008000D-01  1.80656302815342200D-02  9.13300009368140700D-03  0.00000000000000000D+00
42 32  1.54436152314466100D-01  3.93828720546938400D-01  1.80831730861203200D-02 -9.09425764718993700D-03  0.00000000000000000D+00
43  1  0.00000000000000000D+00  0.00000000000000000D+00 -2.79981940948559400D-11  0.00000000000000000D+00  0.00000000000000000D+00
43  2  1.62228516806216900D-05  5.45062306441753300D-11  1.76074738424316200D-11 -4.04876701180536700D-05  0.00000000000000000D+00
43  3  0.00000000000000000D+00  0.00000000000000000D+00  0.00000000000000000D+00  4.03257349654015100D-01  6.43093341200490900D-07
43  4  0.00000000000000000D+00  0.00000000000000000D+00 -1.24265386706837800D-11  0.00000000000000000D+00  0.00000000000000000D+00
43  5 -3.71244374404729200D-01  2.05491476432858200D-11 -2.84560622584460500D-11  2.44228460634270800D-01  0.00000000000000000D+00
43  6  0.00000000000000000D+00  0.00000000000000000D+00  0.00000000000000000D+00  3.41478940092978700D-01 -7.16964825807738200D-02
43  7  0.00000000000000000D+00  0.00000000000000000D+00  0.00000000000000000D+00  0.00000000000000000D+00  0.00000000000000000D+00
43  8 -3.71298188255292500D-01 -2.01731765954067200D-11  0.00000000000000000D+00  2.44276599747121100D-01  0.00000000000000000D+00
43  9  0.00000000000000000D+00  0.00000000000000000D+00  0.00000000000000000D+00  3.41543409516610800D-01  7.16799647615191900D-02
43 10  0.00000000000000000D+00  1.12651981836595000D-11 -3.16143606631893700D-11  0.00000000000000000D+00  0.00000000000000000D+00
43 11 -3.06811765970457400D-06  0.00000000000000000D+00  0.00000000000000000D+00  1.11108113408913000D-05  0.00000000000000000D+00
43 12  0.00000000000000000D+00  0.00000000000000000D+00  0.00000000000000000D+00  4.03242342059261800D-01  7.61664329204078100D-06
43 13  0.00000000000000000D+00  0.00000000000000000D+00  2.92475027477636200D-11  0.00000000000000000D+00  0.00000000000000000D+00
43 14  3.71323521271070300D-01  0.00000000000000000D+00  0.00000000000000000D+00 -2.44324572659931900D-01  0.00000000000000000D+00
43 15  0.00000000000000000D+00  0.00000000000000000D+00  0.00000000000000000D+00  3.41557447465147800D-01 -7.16465585026464900D-02
43 16  0.00000000000000000D+00  0.00000000000000000D+00  3.59338102665386400D-11  0.00000000000000000D+00  0.00000000000000000D+00
43 17  3.71205813306649200D-01  3.49664187628130300D-11  3.47940795174392400D-11 -2.44158411004954000D-01  0.00000000000000000D+00
43 18  0.00000000000000000D+00  0.00000000000000000D+00  0.00000000000000000D+00  3.41458562247333500D-01  7.17263709194425500D-02
43 19  0.00000000000000000D+00  0.00000000000000000D+00  0.00000000000000000D+00  0.00000000000000000D+00  0.00000000000000000D+00
43 20  0.00000000000000000D+00  2.05405778214396900D-06 -1.24308602394702700D-11  0.00000000000000000D+00  5.27752339046431400D-06
43 21  0.00000000000000000D+00  0.00000000000000000D+00 -4.42075015440447500D-06  0.00000000000000000D+00  0.00000000000000000D+00
43 22  0.00000000000000000D+00  0.00000000000000000D+00 -5.39921729990276900D-02  3.52842526989597700D-06  0.00000000000000000D+00
43 23  0.00000000000000000D+00  0.00000000000000000D+00  0.00000000000000000D+00  1.26646573535767100D-01  1.33014750806430100D-06
43 24  0.00000000000000000D+00  0.00000000000000000D+00  0.00000000000000000D+00  0.00000000000000000D+00  0.00000000000000000D+00
43 25  0.00000000000000000D+00 -5.66143243922275500D-06  0.00000000000000000D+00  0.00000000000000000D+00  4.87590218404582400D-06
43 26  0.00000000000000000D+00  0.00000000000000000D+00  1.26434016984332600D-05  0.00000000000000000D+00  0.00000000000000000D+00
43 27  0.00000000000000000D+00  0.00000000000000000D+00 -5.40024594676788800D-02  2.46831692854702500D-06  0.00000000000000000D+00
43 28  0.00000000000000000D+00  0.00000000000000000D+00  0.00000000000000000D+00  1.26688380388348900D-01  2.09411533963932800D-06
43 29  0.00000000000000000D+00  0.00000000000000000D+00  0.00000000000000000D+00  0.00000000000000000D+00 -3.49555463797129700D-02
43 30  0.00000000000000000D+00  0.00000000000000000D+00  0.00000000000000000D+00  0.00000000000000000D+00 -3.49459224609594300D-02
43 31  0.00000000000000000D+00  0.00000000000000000D+00  0.00000000000000000D+00  0.00000000000000000D+00  3.49430145881910300D-02
43 32  0.00000000000000000D+00  0.00000000000000000D+00  0.00000000000000000D+00  0.00000000000000000D+00  3.49545260903048900D-02
44  1  0.00000000000000000D+00  0.00000000000000000D+00  1.85982546930729700D-11  0.00000000000000000D+00  0.00000000000000000D+00
44  2  4.45016614404725300D-01  4.05177206779300200D-11 -2.01239672041011400D-11 -9.69746532225895700D-01 -1.28673330000861400D-11
44  3  0.00000000000000000D+00  0.00000000000000000D+00  0.00000000000000000D+00 -6.03135097190830300D-07 -3.42418305459737100D-01
44  4  0.00000000000000000D+00  1.25921333006843900D-11 -2.58419018380222000D-11  0.00000000000000000D+00  0.00000000000000000D+00
44  5 -3.02450589511173900D-01  2.00297792465646800D-11 -1.37946889633153000D-11  4.28520474740655200D-01  0.00000000000000000D+00
44  6  0.00000000000000000D+00  0.00000000000000000D+00  0.00000000000000000D+00  2.11207550786589600D-01 -4.24582066339886000D-02
44  7  1.27851658543027000D-11  2.65708293274609300D-11 -7.32712984762334700D-11  0.00000000000000000D+00  0.00000000000000000D+00
44  8 -3.02432001898763100D-01  2.03218617588546400D-11  0.00000000000000000D+00  4.28522310360149300D-01  0.00000000000000000D+00
44  9  0.00000000000000000D+00  0.00000000000000000D+00  0.00000000000000000D+00  2.11165090520304200D-01  4.24595051791051400D-02
44 10  0.00000000000000000D+00  0.00000000000000000D+00  2.65043890926157300D-11  0.00000000000000000D+00  0.00000000000000000D+00
44 11  4.45017128916007600D-01  3.28237077028978500D-11  3.50752554594667200D-11 -9.69778676612721400D-01 -1.12586899502263400D-11
44 12  0.00000000000000000D+00  0.00000000000000000D+00  0.00000000000000000D+00 -9.87972296801905400D-06  3.42419167799750100D-01
44 13  0.00000000000000000D+00  0.00000000000000000D+00  4.27741898880850100D-11  1.08619097376267000D-11  0.00000000000000000D+00
44 14 -3.02506819944486100D-01  0.00000000000000000D+00  0.00000000000000000D+00  4.28602249925364100D-01  0.00000000000000000D+00
44 15  0.00000000000000000D+00  0.00000000000000000D+00  0.00000000000000000D+00 -2.11231560645931900D-01  4.24296820171872300D-02
44 16  0.00000000000000000D+00  0.00000000000000000D+00  0.00000000000000000D+00  0.00000000000000000D+00  0.00000000000000000D+00
44 17 -3.02393666815501800D-01 -1.04359056092079600D-11  2.84690105370990200D-11  4.28453376269979400D-01  0.00000000000000000D+00
44 18  0.00000000000000000D+00  0.00000000000000000D+00  0.00000000000000000D+00 -2.11160246959468700D-01 -4.24894503819003800D-02
44 19  0.00000000000000000D+00  0.00000000000000000D+00  0.00000000000000000D+00  0.00000000000000000D+00  0.00000000000000000D+00
44 20  0.00000000000000000D+00 -7.70389021944769500D-02  0.00000000000000000D+00  0.00000000000000000D+00  3.39675063471766500D-01
44 21  0.00000000000000000D+00  0.00000000000000000D+00  2.58234021551250500D-01  0.00000000000000000D+00  0.00000000000000000D+00
44 22  0.00000000000000000D+00  0.00000000000000000D+00 -3.52193206341041500D-06  2.40249937819398600D-02  0.00000000000000000D+00
44 23  0.00000000000000000D+00  0.00000000000000000D+00  0.00000000000000000D+00  1.36467256911953800D-05 -6.49774466968603000D-02
44 24  0.00000000000000000D+00  0.00000000000000000D+00  0.00000000000000000D+00  0.00000000000000000D+00  0.00000000000000000D+00
44 25  0.00000000000000000D+00 -7.70260330126736100D-02 -1.61803243048819200D-11  0.00000000000000000D+00  3.39668674624503600D-01
44 26  1.18913226401186500D-11  0.00000000000000000D+00  2.58219432368610100D-01  0.00000000000000000D+00  0.00000000000000000D+00
44 27  0.00000000000000000D+00  0.00000000000000000D+00  5.12051451517431100D-06 -2.40271883872310500D-02  0.00000000000000000D+00
44 28 -1.29831100960586800D-11  0.00000000000000000D+00  0.00000000000000000D+00 -1.69162187445951000D-05  6.49775942735115500D-02
44 29  1.27308022567506000D-11 -1.37084282385893500D-11  0.00000000000000000D+00  0.00000000000000000D+00 -8.18526955411713300D-02
44 30  1.19457103043881000D-11 -1.32769318041480600D-11  0.00000000000000000D+00  0.00000000000000000D+00 -8.18588907520043400D-02
44 31  0.00000000000000000D+00  0.00000000000000000D+00  0.00000000000000000D+00  0.00000000000000000D+00 -8.18539636465013800D-02
44 32  0.00000000000000000D+00 -1.53258981804552200D-11  0.00000000000000000D+00  0.00000000000000000D+00 -8.18596056487722500D-02
45  1  0.00000000000000000D+00  0.00000000000000000D+00  2.63250707382247100D-11 -1.05777969187423700D-11  0.00000000000000000D+00
45  2 -3.55713690273502200D-05 -7.70249578060836100D-11  0.00000000000000000D+00  7.45727702437765600D-05  0.00000000000000000D+00
45  3  0.00000000000000000D+00  0.00000000000000000D+00  0.00000000000000000D+00  1.80231308011465400D-01  3.99627683729724700D-05
45  4  0.00000000000000000D+00  0.00000000000000000D+00  5.69297009062216300D-11  0.00000000000000000D+00  0.00000000000000000D+00
45  5 -3.31329614621141500D-01 -3.67803622565560900D-11  1.81307812922950000D-11  3.57548327121079000D-01  0.00000000000000000D+00
45  6  0.00000000000000000D+00  0.00000000000000000D+00  0.00000000000000000D+00  3.81302136926980000D-01  4.70598299158241600D-02
45  7  0.00000000000000000D+00  0.00000000000000000D+00  0.00000000000000000D+00  0.00000000000000000D+00  0.00000000000000000D+00
45  8  3.31293294646009000D-01  2.62571437587498100D-11  0.00000000000000000D+00 -3.57553227478545500D-01  0.00000000000000000D+00
45  9  0.00000000000000000D+00  0.00000000000000000D+00  0.00000000000000000D+00 -3.81266608413760900D-01  4.70671219034669400D-02
45 10  0.00000000000000000D+00  0.00000000000000000D+00  0.00000000000000000D+00  0.00000000000000000D+00  1.19719744515404300D-11
45 11 -3.93249231584085400D-05  1.20903919414975300D-11 -2.78454691761101500D-11  8.40584796746714600D-05  0.00000000000000000D+00
45 12  0.00000000000000000D+00  0.00000000000000000D+00  0.00000000000000000D+00 -1.80154007765724700D-01 -3.90443792675730100D-05
45 13  0.00000000000000000D+00  0.00000000000000000D+00  0.00000000000000000D+00  0.00000000000000000D+00  0.00000000000000000D+00
45 14 -3.31247894137962500D-01  2.10312848218385900D-11  0.00000000000000000D+00  3.57487494822859100D-01  0.00000000000000000D+00
45 15  0.00000000000000000D+00  0.00000000000000000D+00  0.00000000000000000D+00 -3.81215891748953000D-01 -4.70648710425076200D-02
45 16  0.00000000000000000D+00  0.00000000000000000D+00 -5.58847721206451100D-11  0.00000000000000000D+00  0.00000000000000000D+00
45 17  3.31379396708510900D-01 -4.70907138158523400D-11 -3.40272711935918400D-11 -3.57614081530630300D-01  0.00000000000000000D+00
45 18  0.00000000000000000D+00  0.00000000000000000D+00  0.00000000000000000D+00  3.81353625839049600D-01 -4.70589978048600500D-02
45 19  0.00000000000000000D+00  0.00000000000000000D+00  0.00000000000000000D+00  0.00000000000000000D+00  0.00000000000000000D+00
45 20  0.00000000000000000D+00  3.11227691753139200D-06  1.61740020203894400D-11  0.00000000000000000D+00 -2.49805546948573000D-05
45 21  0.00000000000000000D+00  0.00000000000000000D+00 -2.84615505866952300D-05  0.00000000000000000D+00  0.00000000000000000D+00
45 22  0.00000000000000000D+00  0.00000000000000000D+00 -6.51162526111697700D-02 -3.99242271205598300D-07  0.00000000000000000D+00
45 23 -1.49669367443097500D-11  0.00000000000000000D+00 -1.00623453479878700D-11  2.48107205684531700D-01  7.56334613127255200D-06
45 24  0.00000000000000000D+00 -1.21399808229398400D-11  0.00000000000000000D+00 -1.23125463606403300D-11  0.00000000000000000D+00
45 25  0.00000000000000000D+00  6.19072069438606500D-06  0.00000000000000000D+00  0.00000000000000000D+00 -3.00356312063852100D-05
45 26  0.00000000000000000D+00  0.00000000000000000D+00 -2.97982427117959200D-05  0.00000000000000000D+00  0.00000000000000000D+00
45 27  0.00000000000000000D+00  0.00000000000000000D+00  6.51071510919806900D-02  8.45108680634389400D-07  0.00000000000000000D+00
45 28  0.00000000000000000D+00  0.00000000000000000D+00  0.00000000000000000D+00 -2.48086911198392500D-01 -8.26429025939469000D-06
45 29  0.00000000000000000D+00  0.00000000000000000D+00  0.00000000000000000D+00  0.00000000000000000D+00  4.79193575667894200D-02
45 30  0.00000000000000000D+00  0.00000000000000000D+00  0.00000000000000000D+00  0.00000000000000000D+00 -4.79077828588143200D-02
45 31  0.00000000000000000D+00  0.00000000000000000D+00  0.00000000000000000D+00  0.00000000000000000D+00  4.79275169009344600D-02
45 32  0.00000000000000000D+00  0.00000000000000000D+00  0.00000000000000000D+00  0.00000000000000000D+00 -4.78998716075255500D-02
46  1  1.88932308841543100D-11  0.00000000000000000D+00 -1.92204998327888200D-10 -8.48724997820815600D-11 -8.32585642604012000D-11
46  2  2.22917082562119200D-05  1.30310085425765500D-09  7.27448914413995700D-11 -2.74668705203288800D-05 -4.05342993216461500D-11
46  3  4.09059074194370300D-11  0.00000000000000000D+00  4.27194982318646400D-11  1.44606654415366700D-01  2.40801822810432000D-05
46  4  3.68634093602099000D-11  1.12788787983936300D-10 -2.08401582937332600D-11 -3.33535574724091400D-11  8.56504229584527900D-11
46  5  2.04389827682905500D-01  6.64855673723695800D-10 -8.96517307268974200D-10 -3.13129693980279800D-01  1.08513433171550600D-11
46  6  5.48880650121059100D-11 -6.57394083292607600D-11  1.78305027293385400D-11  1.12350432970145100D-01 -1.64626872500182600D-01
46  7 -7.54958681001346600D-11 -1.82886762242999000D-10  0.00000000000000000D+00  3.27855404693242700D-11 -8.07742727841430100D-11
46  8  2.04608180136051400D-01 -3.87738059827083900D-10 -6.17332829541543500D-10 -3.13464396796899000D-01  2.25911991992623600D-11
46  9 -8.03167682781505900D-11  5.77255690788886600D-11 -3.75396761449478400D-11  1.12377779648862700D-01  1.64884029144744500D-01
46 10  9.67314058949159100D-11  2.40503118363743500D-10 -3.46969675166926100D-10  3.22039569792911200D-11 -2.14843518452841400D-11
46 11 -1.89059889875453200D-05 -4.10746954414650400D-10 -3.03444726147861200D-10  2.42658193211019700D-05 -2.53370634052920500D-11
46 12 -7.14514767573216900D-11  9.67885401626135900D-11  1.37231651950247300D-10  1.44689099980698400D-01  1.78894026516672600D-05
46 13  7.46255335621614500D-11  1.63544911143026500D-10  3.09240422218781200D-10 -3.27668358289176400D-11 -1.42346706886080700D-10
46 14 -2.04633420749184200D-01 -2.12512921928302800D-10  7.55488858983518200D-10  3.13457263712510900D-01 -7.71336122025974600D-11
46 15 -5.27858871960361900D-11  1.29919499398633600D-10 -1.31944689282880100D-10  1.12377668217742900D-01 -1.64898934084321200D-01
46 16 -7.55874605164302400D-11 -1.61720196426311500D-10  2.84131466883832000D-10  2.41181134694402500D-11 -9.34899986420860000D-11
46 17 -2.04363485524557200D-01  7.56572919680680700D-10  8.23606594845910400D-10  3.13139785046070200D-01 -3.94104411103641700D-11
46 18  0.00000000000000000D+00  3.68351795239734300D-11 -3.48313667751889000D-11  1.12351907552037400D-01  1.64609549323325300D-01
46 19  1.87973093041578200D-11  5.99363343840724600D-11 -3.01670759682121700D-11  0.00000000000000000D+00  8.95623738748420300D-11
46 20 -6.66343091395576300D-11 -1.01086310092564900D-05 -2.70541718690639400D-10  0.00000000000000000D+00  1.06979368884344500D-05
46 21  7.92804306180354300D-11  0.00000000000000000D+00 -1.33687202397372300D-05 -1.20996592916155000D-10  9.28521314716596900D-11
46 22  2.81444614444949800D-11 -2.88301488320064300D-11  3.40803542135097600D-01  7.92075885283089500D-07 -1.21693429804219700D-11
46 23 -6.29415580825175900D-11  7.51109010629396700D-11  1.12601599735281900D-10  2.86119242512445900D-01  4.60315335071699900D-06
46 24  1.86860028874222500D-11  1.56795925270379300D-11 -1.26667761582164400D-10 -1.78350469642159300D-11  2.44910297295414700D-11
46 25 -1.37945094925495800D-10  8.87506766393837400D-06  3.18248068827127700D-11  6.12788504086022800D-11 -9.61491085063494000D-06
46 26 -8.19768468018552900D-11 -6.25206258874349600D-11  8.18065336943220100D-06 -6.53799951862852500D-11  1.45392645830650900D-10
46 27 -8.00126506443657600D-11  1.89767518374878100D-11  3.41374843774343000D-01  1.50223911036812300D-06  5.86988752778656000D-11
46 28 -4.59176352619012900D-11 -1.27812400159643500D-11 -1.05901830875732300D-10  2.86431367510495000D-01  4.16961282526134900D-06
46 29 -1.19026332144930000D-10 -1.53166286921440100D-10  4.10080329694241600D-11  8.81917694209101200D-11  5.78424277853580400D-02
46 30 -6.47174797201561600D-11 -5.27921082236294600D-11  1.73122149747424100D-10  8.44471048140762200D-11  5.78571943529911900D-02
46 31  2.00517718602956700D-11  9.73095248895251200D-11 -5.26837747903434100D-11 -2.97606650132135900D-11 -5.78591740965879900D-02
46 32 -3.12595554116112500D-11  2.81251654953626300D-10  6.76452744446648600D-11 -1.28280178350512500D-10 -5.78398306115150800D-02
47  1 -1.73445253075711900D-11 -2.82529174949109500D-11  2.72808299116838600D-11 -2.23469999452613500D-11 -1.44493857125478100D-11
47  2 -2.21440151892370900D-05  4.10032382921212200D-10  0.00000000000000000D+00  2.02882435476219000D-05 -1.91938986158245400D-11
47  3  0.00000000000000000D+00  1.83629929347681500D-11  7.16022569093476300D-11 -6.32395268645583200D-02 -2.03025123366114900D-05
47  4  6.43479042245937200D-11  1.29681232702719300D-10 -3.81769129881325300D-10  2.03453129809876900D-11  1.26337072256133900D-11
47  5 -1.93971006466034500D-01  1.77199261744822300D-11 -1.99974931168710100D-10  2.65647614239315200D-01 -1.59585591191452700D-11
47  6  0.00000000000000000D+00  2.04284566099523200D-11  1.15395167092289800D-11 -2.19383060465191000D-02  2.10668670694037200D-01
47  7  4.94703594598065700D-11  1.09688155640141400D-10 -4.41959828311471700D-10  3.27571658482147800D-11  0.00000000000000000D+00
47  8  1.93710545097351900D-01  1.05180936769043600D-10  6.48017916296022600D-11 -2.65270739078221800D-01  0.00000000000000000D+00
47  9  0.00000000000000000D+00  0.00000000000000000D+00  0.00000000000000000D+00  2.18150893003238000D-02  2.10457701879798900D-01
47 10  0.00000000000000000D+00  0.00000000000000000D+00  1.33395079689883500D-10 -2.97096552610415300D-11 -2.63513852121903300D-11
47 11 -1.92325159212227000D-05  3.36306078975584300D-10  1.33120305581841100D-10  1.94463622425428500D-05  1.32418119319158500D-11
47 12  1.62858487458918700D-11 -2.95276606778075800D-11 -3.50582118589760000D-11  6.30719767895225000D-02  1.48179148358768700D-05
47 13  0.00000000000000000D+00  0.00000000000000000D+00  2.38785934913652000D-10 -1.57799539638759900D-11  2.88035768455227400D-11
47 14 -1.93713749073422900D-01  4.82458357544469600D-11 -8.31695129326429500D-11  2.65261165522992200D-01 -2.20982288989146400D-11
47 15 -1.45369600132330400D-11  3.66351889121475900D-11 -2.82922284196895500D-11  2.18167772715317700D-02 -2.10466333439587300D-01
47 16  0.00000000000000000D+00 -1.44756811187191300D-11  2.38109713363228100D-10 -3.06023176912007300D-11 -1.69396535173885100D-11
47 17  1.93969952640999100D-01  6.15347213425435000D-11  2.97835643807613700D-10 -2.65663592537765900D-01 -1.55242339461197600D-11
47 18 -3.35698508368526300D-11  4.90940847829723000D-11  7.69669813985529300D-11 -2.19353062016657800D-02 -2.10660733518024900D-01
47 19  2.12945777197887700D-11  5.30399277992122500D-11 -5.58293278561240000D-11 -1.85499287947184700D-11  0.00000000000000000D+00
47 20  4.13489571618213800D-11  4.17163461022665300D-06 -1.06948389818130700D-10 -3.17297330159695300D-11 -1.44533158850955500D-06
47 21  4.11936619537154600D-11 -1.79464003353290700D-11  1.07110812650951800D-05 -2.33856850740880700D-11  0.00000000000000000D+00
47 22  1.80109759819520000D-11  0.00000000000000000D+00 -4.83902212766679200D-01  4.76237337680547100D-07 -3.54632866970433500D-11
47 23  0.00000000000000000D+00  2.94818055299865900D-11 -3.11237286311410700D-11 -2.54834630728714800D-01 -6.87603776337873700D-06
47 24  2.62028972701190300D-11  6.59816647455119100D-11 -5.08340191358642700D-11  2.84585620621807900D-11  4.08059205158551200D-11
47 25 -3.07818816331958100D-11  5.36144037938981900D-06 -1.13034887553854200D-10  0.00000000000000000D+00 -3.99350503913163200D-06
47 26  0.00000000000000000D+00  3.64599263080839700D-11  5.92650329251553700D-06  0.00000000000000000D+00  0.00000000000000000D+00
47 27  0.00000000000000000D+00 -3.00092485169373500D-11  4.83500668349791900D-01  4.09044561369113400D-07  0.00000000000000000D+00
47 28 -1.76054324055506300D-11  1.28437974081457100D-11 -1.89486228742980800D-11  2.54485341697852700D-01  5.89186921600005300D-06
47 29  4.90844187469079500D-11  4.09033405454969500D-11  1.64231223159195800D-11  2.50398035321027400D-11 -1.35826610425699500D-02
47 30  1.39616815405825600D-11 -2.23955227925011700D-11  1.32363381527968300D-11 -3.20879157595984100D-11  1.35113251108972800D-02
47 31 -2.09715529101142900D-11  2.77728019971232000D-11  0.00000000000000000D+00  6.49491300643527600D-11 -1.35094506137089800D-02
47 32 -4.11866533979617900D-11 -2.63039107286513500D-11  0.00000000000000000D+00 -3.89873923064842400D-11  1.35838480515328000D-02
48  1 -9.46201502450763000D-11 -5.88073282999860700D-10  1.11850209916405900D-09 -1.24517177210365400D-09 -5.75945433072412300D-10
48  2 -4.38650962496310400D-05  1.01637159458255900D-08 -1.03480007564181700D-09  1.13861905919231500D-04 -2.53740189119434600D-10
48  3  1.23716256712768500D-10  1.30023932406657900D-10  4.72445844773194000D-10  2.48991474972369400D-02  2.19740888898911100D-05
48  4  7.08565588934392100D-10  1.82830529568980400D-09 -2.05811620970564700D-09 -2.82977279547326700D-10  8.17504927991228700D-10
48  5 -2.28811332020654400D-02  5.38697120195798700D-09 -7.53817506341026800D-09  1.80807967616746800D-01  2.22174755374211500D-10
48  6  4.28476813186168100D-10 -6.50651568560377400D-10  3.36527599004305400D-10  9.36208006682788700D-02  1.41765414965795100D-01
48  7  0.00000000000000000D+00 -2.87355172069340600D-10 -5.64763378562654100D-09 -5.77568853027502400D-11 -6.26644047281367800D-10
48  8 -2.28626554640855300D-02 -1.44489908032772900D-09 -3.51542562399003300D-09  1.80876957394146100D-01  3.14923666145698400D-10
48  9 -7.27186020914892100D-10  4.12262354769197100D-10 -5.29996576528460000D-10  9.35916134709874600D-02 -1.41784219004198700D-01
48 10  8.12012004263865500D-10  1.89765965672364000D-09 -8.71541385024971800D-10 -1.97444999982254600D-10  0.00000000000000000D+00
48 11  4.26823167690811500D-05  1.33249265649751700D-09 -9.61268196166812800D-10 -1.01386237141905600D-04 -4.21018119209108400D-10
48 12  2.56626840717946700D-10  1.64391278491163500D-10  1.02331687597674400D-09  2.48572271517693900D-02  1.92196496234720300D-05
48 13  4.29302602304800800D-10  1.04933095091947300D-09  6.13135111388027800D-09 -2.23314106480128300D-10 -1.40152030240961500D-09
48 14  2.29269467261324000D-02 -2.22434074703514700D-09  4.86324636592253700D-09 -1.80905437974654100D-01 -4.41992496504859300D-10
48 15 -7.68753863592615900D-10  1.21074636009747600D-09 -6.49498194517459100D-10  9.35771201458603700D-02  1.41801183034545600D-01
48 16 -7.42265874200494500D-10 -1.77718540338144500D-09  1.56611990849062000D-09  5.03802435691949500D-10 -1.08831840699849800D-09
48 17  2.28124280113470600D-02  3.96254807877220500D-09  7.56861991820823000D-09 -1.80782262471059600D-01 -9.27350508040900000D-10
48 18  5.38451467517058100D-10  3.88899040523842700D-10 -6.55225432845711000D-10  9.36269751601032200D-02 -1.41749330160238800D-01
48 19  3.90985426198600000D-11  1.90633818543595300D-10  3.18832624978591600D-10  2.29360474129438800D-10  8.35333099442047900D-10
48 20 -6.21145419933901700D-10  3.17945117005646100D-05 -2.05763225745938400D-09  1.65896048267420100D-10 -6.60982780427512900D-05
48 21  7.78999321527077400D-10 -2.06631913550702600D-10 -3.56613365957067700D-05 -1.70092647679833800D-09  6.43256172960128000D-10
48 22  1.05767030383820700D-09  0.00000000000000000D+00  6.11053503762788600D-01 -5.83196154427885900D-06 -7.67453315738112700D-10
48 23 -4.99077909837501800D-10  1.26653122557561600D-09  3.68315592381440200D-10 -4.93176381304722700D-01  2.34592246206352200D-05
48 24  3.09576377708581800D-11  0.00000000000000000D+00 -5.66387715305689400D-10 -1.85781213595544100D-11  4.57619767061012400D-10
48 25 -1.15201529897810200D-09 -2.68684785387697500D-05 -7.37601070417411700D-10  7.38545759360994000D-10  5.55603529263614700D-05
48 26 -1.30615386229549500D-09 -4.39526116456448200D-10  3.39303689758476600D-05 -6.43699625325263300D-10  1.26504398632030800D-09
48 27 -6.21344360995044100D-10 -8.24268324355898200D-11  6.11105246177403400D-01 -4.71720918322838000D-06  7.24742629054677600D-10
48 28 -7.54134250874997400D-10  2.93916218203198200D-11 -1.15959049201264400D-09 -4.93214489213373300D-01  2.12626907965881300D-05
48 29 -1.21182774803687700D-09 -5.75463220744160000D-10  2.56053150395092100D-10  1.03120073979846100D-09 -3.64284107363132500D-01
48 30 -1.96001467021820700D-10  5.42120602432121400D-10  1.66691548802637700D-09  6.47225582998927200D-10 -3.64281893691273000D-01
48 31 -1.87368978002696800D-10 -7.52550338035901600D-10 -8.79815776497837600D-10 -2.31736129299976400D-10  3.64289143706835500D-01
48 32 -4.59592929326587300D-10  1.32856994655442300D-09  4.79224581987890200D-10 -1.29417841417045900D-09  3.64277946568247100D-01
49  1  4.84660184197955700D-03  3.59678152183881500D-02  5.87329692378564700D-01  8.26532509486763300D-02  3.00122860640496300D-01
49  2 -9.43342005136949000D-02 -1.57341812108551400D+00 -2.17527224185569900D-01 -2.10032761847858400D-01  1.05800823804882900D-01
49  3 -7.28994991303511300D-02 -3.29013246745318000D-02  1.55301862605269000D-01 -2.51656200960854900D-04 -7.11400593154594400D-02
49  4 -4.27122697650920900D-02 -8.25063952802409000D-02  9.39363859473733600D-01  1.55678396624955200D-01  7.64836181723896500D-02
49  5 -1.00818975032845300D-01 -9.07973292816657300D-01  7.95311735087984600D-02  1.02291363790696500D-01 -1.25213636055518700D-02
49  6  3.85146158538245100D-02 -2.59932522482723500D-02 -1.70319237590460700D-01 -8.00883957384926600D-02  7.94986846206148500D-03
49  7  4.16794089496924600D-02  1.18924133846714900D-01 -6.79344782791456200D-01 -4.94000230322919500D-03 -1.53579533209244200D-02
49  8 -1.09546266875079300D-01  5.11949055940230300D-01  2.15777262637381800D-01  1.45625630112574800D-01  7.63178030102996300D-02
49  9 -1.30189053002629300D-01  5.38712499923285500D-02  2.28581506529656000D-01 -9.77258070788713000D-02 -1.35594279127355500D-02
49 10 -2.08761361947124600D-01 -4.44951041123551400D-01  6.84728450901884600D-01  4.33425148462253700D-02  8.87536235657382700D-04
49 11 -2.53324668970744100D-02  6.06269343704599100D-01 -2.19524811937454200D-01 -3.52182074940374500D-01 -7.67621271633401600D-02
49 12  1.21602684384520700D-01 -4.48405572211802600D-02 -1.27586839538401200D-01 -3.17535538323902300D-02  8.70805734556828900D-02
49 13  5.23372924980386500D-02  1.26652861788789500D-01  1.39863146421493000D-01  1.35926302444577300D-03  2.41581032838525900D-01
49 14 -7.85407584268556100D-02  5.00030829505729600D-01 -3.90720010033327600D-01  1.15458245492665900D-01  1.12669978126000900D-01
49 15 -5.66830334713672700D-02 -5.59869446546330400D-02  6.28740672063679600D-02  1.78229889978130400D-02 -4.89486531519925600D-03
49 16  1.46154295715719100D-01  3.03072819610157600D-01 -1.23743604168477200D+00 -2.04743926605569400D-02 -1.00346097070963900D-02
49 17 -7.46048922880083200D-02 -7.67009604629857500D-01 -3.41986226887621400D-01  8.06678053540275400D-02  1.30180038652532800D-01
49 18 -9.74549666524875400D-02 -3.27250720000456000D-02 -8.24251780733624300D-02  7.46686409386872300D-02 -1.18547680633326400D-02
49 19  1.05136738486698500D-01  2.52584131922702800D-01 -1.84270193230684200D-01 -3.58581716702585200D-01 -1.37340623897247200D-01
49 20  2.09977733511456500D-01  7.67809995073652200D-02  2.01719681439379600D-01  9.23084851471173100D-02  2.09341085151006300D-02
49 21  3.52242326172985500D-01  5.98566751946779200D-02  1.97863232009473300D-02 -1.85571031456962700D-02  1.32361676238575400D-01
49 22 -1.13804573092878900D-01 -6.08213097379497300D-02  4.21671479730960600D-02 -3.46505325614633400D-02  1.95696722434032200D-01
49 23 -1.61051900506530700D-01 -3.46448219275014500D-02 -2.60476047911702500D-01 -2.51784773430314200D-02 -2.73124758919566800D-01
49 24 -7.34416705422048100D-02 -1.89935893246835400D-01 -1.07501903880644800D-01 -7.96405657829334000D-02 -2.60911441707454000D-02
49 25  5.54379405183728900D-03  6.30738781405275500D-02 -1.87619344646488700D-01  3.25232673429997500D-02  7.58737770991612700D-02
49 26  1.86635308585821900D-01 -1.85374750714298900D-01  1.86332208871860800D-02  5.50348163656366800D-02 -8.23203117054476700D-02
49 27  2.72854953398107800D-02  7.95701389095625800D-02  4.93955493858085000D-03  6.63787510407700700D-02 -1.09858657813988700D-02
49 28  5.33834784154171600D-02 -4.23976126340182300D-02 -1.09825134199073900D-01  3.10848067524910000D-02  2.84830185455410200D-01
49 29  7.80242742695557200D-02  1.21352846698013200D-01 -3.79505740701270600D-02 -1.45280885713593000D-02  1.32349602444362900D-01
49 30  1.00029289117791500D-02 -2.04621004126702500D-01 -1.38184005099205600D-01  5.08530371596459300D-02  1.81617001171926300D-01
49 31  1.35002984661101600D-01  1.05314145326681800D-01  1.72161451052157700D-01 -2.26609687852804300D-02  1.12941794257113500D-01
49 32  1.59457190104376000D-01 -1.86852987688770900D-01  5.37382009276859600D-02  1.56320009593757100D-01  1.08883928058888300D-01
50  1  2.65755171488928800D-02  4.34278692768263400D-02 -4.21371899770032100D-01  5.91690944511566600D-02  6.78138196120894700D-02
50  2  2.78589905046420500D-02 -1.88136560117411500D+00 -5.23129335783896100D-01 -1.53591719771582500D-01  1.27689236018845300D-01
50  3 -1.17783875310634500D-02 -1.15910848487781700D-01 -1.00304963621839000D-01  6.35084054366989200D-03  2.04770172717413400D-02
50  4 -2.57255225576733600D-01 -5.55568380522221100D-01  1.42429020313947600D+00 -2.11949065952683000D-01 -1.27527252803828100D-01
50  5  2.00616632888760600D-02 -4.62912809180954200D-01  6.50303156704943900D-01  5.51651316110945100D-02  1.62304853269477800D-02
50  6  2.93998595188966600D-02 -4.56303448458440000D-02  1.12756334398733000D-02 -1.49207684190719800D-02  1.04529935645068000D-02
50  7 -1.61010684142755300D-01 -3.39443259873158300D-01  1.63576247615646300D+00 -5.39332386201079800D-02  2.98298720527361200D-01
50  8 -1.20718739253029700D-02 -1.11661755923121300D+00 -9.32753464007787900D-01  5.36198351952573500D-02 -1.05988340944935900D-01
50  9  1.52301187719726000D-01 -4.63128467747906700D-02  2.89674446575069000D-01 -1.78102711913949700D-02 -3.01072505203145500D-02
50 10 -4.21890716635757700D-02 -8.64901782398607700D-03 -3.99432751123579700D-01 -9.06843484015629600D-02 -7.31381714492703800D-03
50 11 -1.88250767892218500D-02 -2.29451062847061400D+00 -1.84743919077342500D-01 -1.61692315689825800D-01  1.19480314936259600D-01
50 12 -3.11219234089978600D-01  1.91738919153718200D-01 -4.81269703101966200D-02  5.99862635882991500D-03  3.52578923617109000D-02
50 13  1.17535879367357200D-01  2.45791649371537800D-01 -1.36373186453710500D+00 -4.25517489011476100D-02  3.43193943174029900D-02
50 14 -2.70050952389016500D-02 -9.43937770447178000D-01  6.49409723731836400D-01  6.55396589137984500D-02  6.49938831851767400D-02
50 15 -7.76668191407352800D-02  1.26729359555591900D-02  1.66217839538077900D-02  3.84130740060780300D-02 -3.48791699183794400D-02
50 16  1.65161445279631000D-01  3.09324761595672400D-01 -1.64496534005352200D+00 -1.69854172833076600D-01 -2.65721944374763400D-02
50 17  4.87057704369726500D-03 -3.59481924312808300D-01 -3.21939332860167400D-01  6.65539574316046800D-02 -8.68265843985753900D-02
50 18  2.18151365427272000D-01 -1.31324781028696300D-01 -9.77142683157345300D-02  3.62725308699705900D-02  1.63591042841808300D-02
50 19 -2.62323243608116400D-02 -5.54089882157531600D-02  2.83695984552599000D-01  3.00401203022856900D-01 -1.16156574097912200D-01
50 20  7.11550889145938400D-02 -2.62351683914965500D-02  5.66947702657783500D-01 -1.00052381940920900D-01  6.72411790791130200D-02
50 21 -6.96997143196165700D-03 -2.53959166243529200D-01 -7.94524893889013400D-03 -1.10532735097017800D-01 -2.95476564588413200D-02
50 22  1.40080391555859200D-01  5.70100608017043000D-02 -1.34530600724248100D-02 -2.22915975868155100D-02  6.67894766367109800D-02
50 23 -9.54781688135597600D-02  2.86886921768487700D-02 -1.49603757708228600D-01  1.63764679656904800D-03 -1.58867009103100600D-02
50 24 -2.14441385850842200D-02 -9.50537024276173100D-02  1.46886514487612200D-01 -1.61588186806929800D-02 -2.21945602668954500D-01
50 25  5.30369390698872500D-02  1.58669254514802600D-02  6.09647324124116900D-01 -5.74722588222297400D-02  4.89492869456363100D-02
50 26 -1.14947305782141800D-01  2.27351943406999900D-02  9.54105214882028200D-03  2.11087292063446800D-01 -5.37855163275992400D-02
50 27 -1.57301775735847700D-01  1.53600500852929100D-01 -1.33820125686169500D-02  3.38400329700138600D-02 -5.77548747831095500D-02
50 28  2.60768731346090200D-01 -2.03013856562980900D-01  2.75201653292532900D-01  1.84857523466976200D-03  1.05885440795886700D-01
50 29  1.75381344729376900D-01  1.21564893401342500D-01 -2.49144286034882800D-01 -3.07775514509052400D-01 -5.60020444127071900D-02
50 30  1.28994459302271400D-01  5.09142172029408700D-01 -2.05877995118888100D-01  2.81166769153443900D-01 -2.94914368905571300D-02
50 31 -1.20369212818140200D-01 -2.64069087823963000D-01 -1.37911989822589000D-01 -2.33995050785278700D-01 -3.01783740446675300D-03
50 32 -1.20777158520155100D-01 -3.50936886854099600D-02 -1.64654723119245700D-01  4.19836412262987800D-01 -2.90411320849595900D-02
51  1  1.15459269621803000D-01  3.55940143333069800D-01  9.04026267483550300D-02 -8.18540417270127400D-02 -1.49454001409807000D-01
51  2  1.26272791786453600D-03 -5.84678413058096100D-01 -1.69703462427137000D-01 -7.97573975797927400D-02  1.25659586657682200D-01
51  3 -3.98812175049863700D-02 -8.57783691526953900D-02 -6.38222500892922900D-02  1.69830362146880500D-02 -5.48997016054654800D-02
51  4 -1.72956037081348700D-01 -4.17602722895769100D-01 -9.63855509841651800D-03  1.02017450688440300D-01 -1.03107113008706600D-01
51  5 -4.36507188962448900D-02 -2.89221534326262400D-01  6.91639280774167000D-01  7.03429990273886800D-02 -1.02643850296356100D-01
51  6 -1.83352842978411600D-02  1.20979134594196900D-01 -6.56373089969334300D-02  5.65786994472425100D-02 -7.87487442792161500D-02
51  7 -9.60035505773757800D-02 -2.10648143466388800D-01  1.51509759801545200D-01  3.68193289776087100D-02  6.64889045028979900D-02
51  8 -4.12033663237738700D-02  4.55543065278434000D-02  4.93872630607781000D-01 -5.84251035036826600D-03 -2.41271953788843300D-01
51  9  1.30685140035956600D-01  1.10586813752886500D-01  3.57019668423991300D-03  1.87931082963159400D-02  2.22531649398379700D-02
51 10  1.51133769703290500D-01  3.21969182831318400D-01 -6.93518064043730100D-02 -5.86425349403682400D-02  4.02788741211651100D-02
51 11  9.92461341444124900D-03  7.89539867384162000D-01  2.20789527462688300D-02 -1.30747707698746800D-01  9.18769138373634200D-02
51 12 -3.13020856082854600D-02 -6.05748282290778200D-02 -4.31583841413487600D-04  2.43772781876031800D-02  7.15911283483465800D-03
51 13  7.50468153271047500D-02  1.75523319081772000D-01 -1.98343948534961700D-02 -7.30275706675576300D-02  7.82381718132629500D-02
51 14 -8.59116157121459400D-02  1.29196720647847000D-01 -5.86433394423368200D-01  1.62459167092898300D-01 -1.69574786694196300D-01
51 15 -6.31347883928496700D-02  2.32709575087045900D-01  5.90682992020427900D-02  8.46011429639637400D-03  4.98604484766738300D-02
51 16  1.39590055825692700D-02 -2.82316248409341000D-02 -2.08084048053020600D-01 -1.32266199695946500D-01 -5.63726596283724200D-02
51 17 -4.36263125946429500D-02 -4.77005309717145100D-01 -3.66022247507199400D-01 -4.31319008330825300D-02 -1.49501542314424200D-01
51 18 -1.14574079202155200D-01  2.64075621516579400D-01 -2.83205763207032100D-01 -6.38169823552366700D-03 -1.32404944648474700D-02
51 19 -3.52250013659219900D-02 -1.11520101295951200D-01  1.05782527548858500D-01  2.25535353459516000D-02  2.53166857904140200D-02
51 20 -2.74781182723383400D-01  7.67649154482822300D-02  7.49769296793665700D-02  4.39024064013828100D-01 -2.54327668734820300D-02
51 21 -1.23148869296982200D-01 -9.05874238815596900D-02 -3.75924372318546800D-02  1.72571069523777300D-01 -7.51693325898711300D-02
51 22 -9.74017369339064800D-02  4.03668155646610100D-02 -7.89229947256585800D-04 -1.65151090082935900D-01 -1.18184037491622200D-01
51 23  2.06342560205027700D-01 -8.81585227134053500D-02  1.06997190242695200D-01 -3.27339298480973700D-02 -1.47721930282404900D-01
51 24 -2.87754738890556100D-02 -9.00186934256712600D-02  8.93373341430503300D-02 -1.24565034505908100D-01  3.16315762722660200D-02
51 25  1.21924948131932800D-01  9.28838721502221000D-02 -1.61300080727388800D-01 -3.00882578012656400D-01 -2.75401061664744000D-02
51 26 -1.28921069177552700D-01  4.59206385216457300D-02 -1.10429529776341400D-01  1.90707680303284100D-01 -8.45104131567594500D-03
51 27 -1.82256638987608200D-01 -3.26557986983857400D-02 -2.86155545912226200D-02  2.14654434374217400D-01 -7.11692843007978300D-04
51 28 -8.46000229356066600D-02  8.53117157786146400D-02 -1.35720927644385800D-01  4.14521790824823600D-03  1.60617198105459200D-01
51 29 -3.78174912393255700D-02  1.65583120794149900D-01  4.38483939441932600D-02 -2.05166609671372500D-01  3.39551209855588100D-02
51 30 -1.43192656809504700D-01  4.32433675898536000D-01 -2.08042235675839900D-02  1.42917724931632600D-01  1.09100328506332700D-01
51 31 -1.61663001776354800D-01 -4.35598840696489800D-02  1.15541339205339600D-02  2.28966298366543700D-01  7.66784621239816100D-02
51 32 -1.91166028509548500D-01 -9.52999228122145200D-03  6.38560654966900500D-02 -1.96523000581155000D-01  1.20462754623063900D-01
52  1 -4.51437121347518400D-02 -7.42468901168622400D-02 -7.56628055565506900D-01  2.16796591043747800D-01  3.69461456561286600D-02
52  2 -2.26314123845579500D-02 -1.87871397134390200D+00  2.21099787663187900D-01  1.82044045796143500D-01 -1.16807383504273100D-02
52  3 -1.70875176823604000D-01  1.82555915174031700D-01 -2.68054167188557500D-01  2.63593937981859200D-02 -8.87405353016060800D-02
52  4 -6.30182505935398500D-02 -1.76110071067487100D-01  9.33621531963661600D-01 -1.65395238039727600D-01  4.26151166091834300D-03
52  5  5.02031918210086400D-02 -4.83035136309122600D-01  1.12614787492478100D+00 -6.30556556960858000D-02 -4.57332586811560500D-02
52  6 -8.23316563971785300D-02  1.28064915078334600D-01 -2.52003782545115500D-01  5.86307846938567300D-02 -5.04457691258011400D-03
52  7 -3.74773197503719700D-02 -4.93493483062495200D-02  8.75283486632780800D-01 -7.85890588964123500D-02  7.28006401148902800D-02
52  8  9.50873858440395000D-02 -7.72600104204993100D-02  2.96803868294807500D-01 -1.90369811999025800D-01 -2.62924170477763500D-02
52  9 -1.17507287568579900D-01  1.43799704616355700D-01  2.08345565580168400D-01 -1.29969894279747200D-02  9.47584070093735800D-04
52 10  1.08732766358381200D-01  1.49625415281124900D-01 -4.98003583351431300D-01  3.05850410160144500D-02 -1.95149984468659500D-01
52 11 -9.00600797177871300D-03 -1.69058102480808600D-01  1.06274804524904800D-01  2.02240968643934700D-01 -3.83669494408229200D-02
52 12 -8.93847389140800900D-02  1.27751688354902300D-01  9.26923959947096200D-02  4.50413149196813800D-02  1.50971135791700200D-03
52 13 -7.44466218546232900D-02 -1.33266003372429900D-01 -2.80966454544507700D-01  1.02078176034472900D-01  2.18178397595057500D-02
52 14  8.43963976743746100D-02  2.28255991173450500D-01 -1.10877546475142900D-01  7.16404906349608400D-02  9.97836528353825000D-02
52 15  1.02737077967070300D-01 -2.02520730802452700D-01  8.57622825193797000D-02 -3.38649871700242900D-02  1.81839715769774100D-02
52 16  3.48453725676901400D-02  1.04114071603746400D-01 -6.69525402074725600D-01  5.20689909884368600D-02  2.91311263814011700D-01
52 17  9.12480001126333800D-02 -3.54178054241291600D-01 -1.06531995386802800D+00 -2.74871055658817800D-01  1.82524704355324800D-01
52 18 -1.29364612252154500D-01 -5.31600921031705200D-02  9.04321085508417200D-02  1.33853463695326100D-03  8.16958218331377100D-02
52 19 -2.96579873596369900D-04  5.08726978644617300D-03  1.34389612491083600D-01  1.27387245775887300D-01 -1.39279813733473600D-01
52 20  2.84755861468212600D-02 -4.65046007303680000D-02  5.94882906876092500D-01 -1.55550523437041800D-01  6.55181372850910500D-03
52 21 -2.32586139154049600D-01 -1.19070315023218700D-01  1.13830841532203000D-01  8.39243561850090000D-02 -1.32891448799306600D-02
52 22 -7.06352113050779400D-02 -1.56581159462333700D-01  4.66087324534290000D-02  9.77744168602026900D-02 -1.13706839888103500D-01
52 23  2.56780786811179700D-01 -1.43073946923076800D-01  4.76019239316194500D-02 -8.34096541701610400D-02  1.02598557427084000D-01
52 24 -2.29094960338902400D-02 -1.08624364207224100D-01  1.12764665871598600D-02  3.52416829665964100D-01 -4.88555503099053500D-02
52 25  2.24228979041352400D-01 -9.49358279948452600D-02  1.53558933312868500D-01 -2.55041842280497700D-01  2.64743146149237000D-03
52 26  3.29053308942321600D-03 -6.72593248599189200D-02  1.14662801444324100D-01  9.28199432304138400D-02  6.38550288307613800D-02
52 27 -1.56674972061175600D-01 -4.50782175465293100D-02  1.82857846538166600D-02 -1.44489213011658200D-01  1.04797735654190700D-01
52 28 -1.90403242759154600D-01  8.56055071049637300D-02  1.90265987654886500D-02 -4.29713392548164200D-02 -2.44071693048903400D-01
52 29  1.77087867653815000D-01 -1.62178700358821600D-01  3.74615273060093000D-02 -1.66781120756314500D-01 -8.25983360426863100D-02
52 30 -1.78174243879728400D-02  2.10941879207700300D-01  3.96875004576923100D-03  1.97250705591481700D-01 -1.91351214607797300D-02
52 31 -7.10521664918620600D-02  1.30922404828182800D-02  1.01634930411147900D-01  1.74130241920058500D-01 -2.51035080177213800D-01
52 32  3.42687497263019800D-03 -1.07496153667264800D-01  3.79702784150629900D-02  1.29635046056892400D-01  3.88876411841039200D-03
53  1  1.65359752781028700D-01  3.44993401482876400D-01  6.04355187664259900D-02 -9.95725570969797200D-02  1.09513436762762500D-01
53  2  1.14367758042700000D-01  2.47129425178718100D+00 -2.95742509826907300D-01  2.21870805369884600D-02  1.53303771845579400D-01
53  3 -2.83141547676299200D-02 -1.24989617077949600D-01  2.26405861076006500D-01  9.08523078340925400D-03  1.33103451948421400D-01
53  4  5.51130461120327000D-02  1.17761282261875100D-01 -7.39460510788695100D-01  4.51268005922328200D-02  4.42832652115379800D-02
53  5  1.69974685915995700D-02  1.21443496846120400D+00 -9.89930057767788800D-01 -1.49098385341888800D-02  3.73740325888005600D-02
53  6 -2.02867651976646300D-02 -1.70872673911359400D-02  2.08295610899103400D-01  1.52844043490583200D-02 -2.70714667361667700D-02
53  7  8.25139305707461600D-02  1.88227235269459900D-01  8.27003390284819700D-01  9.98715972024597600D-03 -4.15453683282588200D-02
53  8  4.24768916663886700D-02 -1.16641757669119800D+00 -1.18659116573911500D+00 -8.00297838069616300D-02  1.19094431673453100D-01
53  9 -3.27236016626256500D-02 -8.63708300108264300D-02 -1.18317127112007500D-01  7.55630215438016900D-02  8.92766735218179800D-02
53 10  1.19537135393259900D-02  7.11081769586770900D-03  2.40361748185873900D-01 -5.17387142333527900D-02  3.59634200888818400D-01
53 11  2.69533980169387100D-02 -2.46713610949933100D+00 -2.98748971901071600D-01  6.34527812559214900D-02 -2.37411774492483100D-01
53 12  2.17024713649089300D-01  2.03870608433935000D-02 -2.85747920385236000D-01  7.21363149109100600D-02  6.60685437723360100D-03
53 13 -1.22571629441485600D-01 -3.05526181793026600D-01 -5.50633923877620400D-01 -2.12807824946901500D-02  1.27040748029479600D-01
53 14 -1.18356656152924200D-02 -1.39196984347421100D+00  1.10501804796333400D+00  2.62019562881641800D-02 -2.37938619195728800D-01
53 15  5.33139601776033100D-02  1.84624659018125200D-01  1.73591698668896300D-01  3.55871191838586600D-02  1.57085666541682000D-02
53 16 -1.16567699177374700D-01 -2.77011403783220400D-01  7.10608400841603600D-01 -1.27484466771862000D-01  3.93841174311428900D-03
53 17  3.28061279759014500D-02  1.08171324080863000D+00  1.15609031802984400D+00 -3.38408630752536400D-02 -2.87108487516010100D-01
53 18  2.61506492886108100D-01  2.56019946299031100D-02 -1.51977353780078100D-02 -2.95908052857623100D-02 -2.43464046247414500D-02
53 19  6.09730000352491600D-02  1.44496688393674700D-01 -1.66924633231225200D-02 -1.81250913350070000D-01  1.52129499778619200D-01
53 20  9.79770179585259500D-02 -5.65562945049845700D-03 -6.21257466171209900D-01  1.50704744563412600D-01 -2.13674402065985100D-02
53 21 -8.13305399452636900D-02 -1.28351282094341400D-01 -1.54482530459484800D-01  5.78888095743603100D-02 -5.25655788123675400D-02
53 22 -5.32323076199278200D-03  9.44450477470749800D-02  5.47078789793967900D-03 -6.70101781235368200D-02  8.11171380838954600D-04
53 23 -1.96570299385336300D-01  1.95759128004497500D-01  3.38327940210293300D-01 -3.47051227947036600D-02  6.33342290544360400D-02
53 24 -8.42615948090720800D-02 -2.27148067760427000D-01 -1.60941833549060300D-01  2.51167630791746100D-01  8.64793534703817100D-02
53 25  2.86974562767135100D-01 -2.51082144508543700D-02  1.63687024043106600D-01 -5.51989532106657800D-02  9.21448695774907500D-03
53 26  1.29036925089379000D-01 -2.72627730719664800D-01 -8.21219901638287400D-03  8.04133616335042800D-02 -1.83681434728458800D-01
53 27  1.03268073094954800D-01 -3.99787591502978000D-02 -1.02346719702102200D-02  5.56390163748498300D-02 -6.11620914166523100D-02
53 28  7.39916458341240000D-03  5.37629268332400100D-02  1.59857976009328300D-01 -5.67332928764137000D-02 -7.78687797901095000D-02
53 29 -2.79866395964028300D-01 -3.24553650851355200D-02  7.21943532171687200D-02  1.96335738086318300D-01  3.24568586860553300D-02
53 30 -2.10782641170868600D-02  9.41886029242199100D-02  1.65991995376311700D-01  3.12703726761541800D-02 -1.61939213900779400D-02
53 31 -9.74574716510116500D-02 -1.74632718923637900D-01  6.87094200879807000D-02  9.03890890829737200D-02 -6.46341737092612500D-03
53 32 -4.57964206574276400D-02  2.48272146868793100D-01 -1.08056367646068500D-01 -6.74135471349821000D-02  1.95462497463294100D-02
54  1  1.78877244510546300D-02  3.09661423227812100D-02 -4.86041349029331000D-02  1.03183202750049200D-02 -1.84430638035014900D-01
54  2 -5.35129576067437700D-03  1.25521676511208900D+00  6.10520478312979400D-01  1.45509449454977700D-01 -2.23050736393531600D-01
54  3  1.85483496595984000D-01  3.75672397975467900D-02  2.81102667913253300D-01  1.57301860537836600D-02  5.91203068243658700D-02
54  4 -1.17691914242784800D-01 -3.34810282580341700D-01  5.06123536858025700D-01 -5.60429968519701300D-02  4.13507533444533400D-02
54  5  1.37293718253979700D-02  4.39616586647692500D-01 -6.51514714955413500D-01 -4.62515731585779300D-02  9.42542464392791300D-02
54  6 -1.06707810375568200D-01  1.24535639362895800D-02  1.02304456640798000D-01  5.33327489766440000D-02  1.76376195213731000D-02
54  7 -7.03358275049372800D-02 -1.24843027267618200D-01  9.88988731644891500D-01 -5.41744140070557500D-03  8.46198107329111000D-02
54  8  4.24874533733400400D-02 -7.18638756418546600D-01 -1.00043563502344700D+00 -1.73401642306444800D-01  3.53870527553362900D-03
54  9  1.85459718071496400D-02 -2.20846770826828800D-02  4.61635603978849500D-02  7.80070461499321000D-02  1.00196969661950200D-01
54 10  9.11804949440389300D-02  1.73354516556157400D-01 -1.16530970461494900D-01  7.49900549525211700D-02 -1.95467583565959000D-02
54 11  1.55619839621718600D-02 -2.05363162328262300D+00 -2.09527237333052400D-01  2.98447159615293700D-01 -6.62908161645636800D-02
54 12  4.14142135758979000D-02  2.48766025886650400D-02  4.29099637862848500D-02  4.66061832235391800D-02  4.77041265726633300D-02
54 13  1.54697063102822800D-01  3.78434470038676100D-01 -6.09271253886104600D-01 -2.18812183766622300D-01 -3.59370805743396300D-02
54 14  2.11751368461917400D-03 -5.78354527142314700D-01  9.18222340206260400D-01 -1.53661916108171500D-01  1.94394986603119500D-02
54 15  6.00302656248262000D-02 -7.94697642851381200D-02  2.57528641739395700D-01 -3.48265708681172300D-02 -3.13446246924194800D-02
54 16  4.99956724633457800D-02  1.00205449195197900D-01  1.95751772054110300D-01 -7.11329919371750500D-02  5.53876716635740200D-02
54 17 -1.68551614815608100D-02  7.04481353940950000D-01  6.99237592983887400D-01  1.81452108929063800D-02 -1.24551327446763800D-01
54 18  9.82172596763394600D-02  2.63340677704249000D-02 -3.38901436441896600D-01  2.42491359539184100D-02 -5.69120188840299000D-02
54 19 -5.41959184594078800D-02 -1.73349275898090300D-01 -3.29353656910912400D-01  9.06513238274424300D-02 -9.42246632264930500D-02
54 20 -6.67721143703047400D-02  9.48239208942163700D-02 -3.36607032933338600D-01 -9.75441505503964500D-03 -1.54511098339891800D-01
54 21  7.47383212813255000D-02  2.72061314062555100D-01 -8.98181509149323100D-02  5.96225905568243700D-02 -1.04804178809231500D-01
54 22  4.51815882524068300D-02  1.32351932813180200D-01 -1.41388884113226100D-02 -1.69641155538267100D-01 -1.48763489629822300D-03
54 23 -1.31942435644009200D-02  1.46818784606990600D-02  1.50542723947785200D-01 -1.76385035615856400D-02  3.00240394540074500D-02
54 24 -2.39024953097149100D-03 -1.25738251314966900D-02 -6.83273343875368300D-02 -1.92028817951530400D-01 -7.46154456461721500D-02
54 25  4.53681376007521100D-02 -4.99206207743781700D-02  3.31568462925721300D-01 -1.30845235839652300D-01 -7.32599191488634000D-02
54 26  1.76525348975032100D-01 -1.13923385617947800D-01  1.44873331475788000D-01  4.75492380179348600D-03 -7.36125741611380500D-03
54 27  2.60633361432035400D-03  1.75167022278997700D-02 -3.40737856533794700D-02 -7.09922661002182900D-02 -8.08491534858648800D-03
54 28 -5.94596375134175500D-02  6.75445528620040000D-02  1.94424468180612000D-01 -2.28637246366422700D-02 -2.46879631758360400D-01
54 29 -9.71939903472547500D-02 -5.77787741164140900D-02  1.29546796676451600D-01  9.13222829900995200D-02 -1.44387365281120800D-02
54 30 -1.41122902105382200D-01  9.38563681296381300D-02  5.33444453037842800D-02  1.38806899911581500D-01  3.69354788778239000D-02
54 31  3.69793867989827200D-02 -1.49713501536876000D-01 -1.92596054546337000D-01 -2.61511086755651500D-01  2.47861744029835600D-02
54 32  1.70117524725380400D-01 -3.08986526315997500D-02 -3.57587456525445800D-02  1.31112802691506000D-02  8.72128557807696600D-02
55  1  1.72060227002725000D-01  2.81787235142195100D-01  1.66809428527437900D-02  1.30812123723296700D-01  2.30685839316754900D-01
55  2 -5.79849723963403700D-02  3.66693079693524600D-01 -2.71459977780120900D-01  8.83005095526706000D-02  2.42464570382238500D-01
55  3 -5.74113674254841000D-02 -1.85053202956754100D-01 -9.37559144230448700D-02  1.42736591962515400D-02 -4.30181950311336000D-02
55  4 -9.10977002747540400D-02 -2.37218302188117800D-01  2.29286247593798500D-01  7.09427423155957300D-02 -4.98117946579038300D-03
55  5 -4.28047714462895800D-02 -1.93546698167242400D-01 -2.60967791208313500D-01 -1.23323533929821600D-02  7.80558599190418900D-02
55  6 -6.59175372921769800D-02 -1.21383226268653800D-02  1.64045172602529800D-01 -3.57530983371503300D-03 -3.01420103558854900D-02
55  7  7.09766064001003400D-02  1.97494355888326700D-01 -5.88167059481734300D-01  1.60575372843199400D-01  1.33821244152474500D-02
55  8 -2.17957065112312700D-02  3.41922485607125500D-01 -8.13243192742578400D-02 -6.04094458345005300D-02  1.48812223779039700D-01
55  9 -2.02645445079039600D-01  5.38332213000004200D-02  2.23258223867087700D-01 -1.85266738456762400D-03  4.67074457610711500D-02
55 10 -2.24283060127952700D-01 -3.08273437284060600D-01 -1.38984790702769600D-01  3.32831835653017300D-02  9.25821151024824600D-02
55 11  1.96746425777315900D-02  2.46316403032117700D-01 -6.00224921266883700D-02  3.16909641875588700D-02  1.16683893281303600D-01
55 12  2.11569887552994000D-01 -3.28253780834297000D-01  8.77734428931862500D-02  2.60912881865325700D-02 -5.59868051969371300D-03
55 13 -3.95313829185249300D-02 -6.81989887290450600D-02  2.38018921777753300D-02 -1.43873977866822800D-02  1.25935155300431700D-01
55 14 -6.35148093954327300D-03  6.60874989139942900D-02 -4.20265226146022200D-01  1.14054119733273000D-02  5.31173939298238800D-02
55 15 -5.61564133274294200D-02  3.03901939760532500D-03 -1.62556575057406200D-02 -3.83656562477166900D-02  1.01291045326867100D-02
55 16 -5.75309833510699900D-03 -1.76029027403738800D-02  4.87344849068650500D-01 -6.55034521734420400D-02 -5.12446072260210500D-03
55 17 -1.28171016795477000D-02  5.19543551389995100D-02 -1.26687824297834900D-03 -6.74612703126094400D-02  1.27247622771610900D-02
55 18 -4.15478543999145900D-02  2.88230921227533400D-02  6.72883519094534500D-02  1.94966215132374500D-02 -2.63541034202685300D-02
55 19  5.16683859117622000D-02  1.02278340553984200D-01 -6.92236260599099900D-02 -5.76162074184773200D-02  7.06525517416652200D-02
55 20 -1.04263887997665200D-01  3.73632607906432900D-02 -8.61450257447931700D-02  3.34955670349585100D-01 -5.35775033120653200D-02
55 21 -1.17571823295818600D-01 -1.13527477219362100D-02  3.70084948233083900D-02 -1.19302257200212600D-01  1.98254570753091500D-02
55 22  9.94768001249030800D-02  1.40462813026929200D-01  4.09550533306884900D-02  2.30758360417649700D-02  1.93402179241968300D-02
55 23 -4.16881392513163000D-01  3.97541174588965800D-01  2.15706334888069100D-01 -5.23009402702687400D-02 -5.51279154298259300D-02
55 24 -1.03304185523434300D-01 -1.85769753085411800D-01  2.91671783570727200D-01 -3.51545210173718200D-02  5.55291231050142300D-02
55 25  3.55121314628857000D-03  1.94920802654703000D-02 -1.10460238532363200D-02  5.55941950665017200D-02 -3.74731742222353600D-02
55 26  4.52317760021696600D-02  2.64712148545953500D-01  5.52085878973734100D-04  9.28864639401983400D-02 -3.39110426479863200D-01
55 27  2.46223962539665200D-01 -5.38517639993338800D-02  2.61400845473206200D-02 -3.97856802399061700D-02 -4.76867720060264800D-01
55 28  7.82795961643489400D-01 -3.05928241583224400D-01 -9.67358019576223200D-02 -3.93939716597529200D-02  2.81420716831033500D-02
55 29  1.32510276752833800D-02  1.12860282800475600D-01  7.33275267202417500D-02  7.87271977728741800D-02  7.89258424476665000D-02
55 30  1.80480991069357800D-02 -3.62266176801732500D-01 -1.68771224689405300D-01  3.34977069420060700D-02  1.50579673982952100D-01
55 31 -3.49701416235454100D-02 -1.41997450773710000D-01  2.74655331743898700D-01  1.26529155568266800D-01  6.21032753327821000D-03
55 32 -3.73817484563262300D-02  3.03257540713320400D-02 -8.80834105307195500D-02  1.17771412792751000D-01  7.82897302604312100D-02
56  1 -1.34421121597164100D-01 -2.42159055428701800D-01 -5.40880822797792000D-02 -2.47701964179844000D-01  1.67059707360345000D-03
56  2 -5.16671883332418800D-02 -7.37149742669625600D-01  9.98865764130354400D-02 -3.17669126601186400D-01  7.25415493777142200D-02
56  3 -1.88375482775152800D-01  1.15833933397439100D-01  1.31652560146571400D-01 -4.46257984140774300D-02 -7.41234198638108500D-02
56  4 -1.82007443113815600D-01 -3.86112224236170600D-01  6.61697258578951700D-02  1.43002787856294500D-01  2.00576154068152700D-01
56  5 -6.41576019974357000D-03 -1.39546287669202100D+00  7.32630449039690800D-01  1.74572224469646200D-01  2.58023746741645600D-01
56  6  1.60328203674401200D-01 -4.18351950416047700D-01 -1.74505435136850600D-01 -3.61222554436313600D-02  9.37763004701360900D-02
56  7 -3.50979763191185300D-02 -3.62468320286282000D-02 -1.43286109991527700D+00  1.00854690321693100D-01  5.56712874958517500D-02
56  8 -5.21904942437165000D-02  1.23320308007719500D+00  1.79708427646394800D+00  8.89283906031737300D-02 -8.30082786824017800D-02
56  9  2.97823642691778000D-01 -2.14815364009377100D-01  3.64824200408150800D-02 -1.40730533151400900D-01 -1.09175107410144700D-01
56 10 -2.38315144863210300D-01 -5.06365796702073500D-01 -5.82712352107905200D-02 -1.88568947412350200D-01  2.54272906445206900D-02
56 11 -8.00094938493123700D-02  3.98098641185211700D+00 -2.07462447462845000D-01 -1.28096991383350300D-01  3.98111936341751800D-02
56 12 -1.68202872254763100D-02 -2.29909064086973200D-02  2.66743324264263300D-02 -8.76314711085503000D-02  1.16598903095698100D-01
56 13  5.18738239104196600D-02  1.57481920989502700D-01  1.70024298393063400D+00  1.57341209146837400D-01  4.18019901229383400D-02
56 14  7.70270025532584700D-04  1.60178439931542000D+00 -1.48508877260137500D+00  8.90700065558396900D-03 -2.49116568221521400D-02
56 15 -8.43033668453397500D-02  1.09215023667491700D-01 -1.04516992530568700D-01 -5.65962540043387400D-03 -3.66914146298472400D-02
56 16  1.04852708651388400D-01  1.72026406379430400D-01 -2.17204911592572600D-01  1.96190780921056400D-01 -8.76329477569542000D-02
56 17  1.51738933802489300D-02 -1.44245562815665100D+00 -6.56241578328725800D-01  1.07528908650053900D-01  7.13750902787429400D-03
56 18 -8.60549280650541000D-02  7.89174190371786500D-02 -2.30187866057001800D-02  1.15171010816650000D-02  4.24711524478136200D-02
56 19  2.40391329807024500D-02  3.98890398605698800D-02 -2.78327680943615600D-02  1.11884835338828900D-01  1.35488520108011700D-01
56 20  1.29162095821539100D-01  1.45738813332658000D-02 -1.94204034066167100D-01 -2.38580509170442600D-01  1.43252839082007100D-01
56 21 -5.94221296260682900D-02 -1.26528357872191600D-02 -3.96512135579243500D-02 -7.91885079014400500D-02  9.54467555582234600D-02
56 22 -1.62582476567837000D-02  2.69120015198578600D-01  1.85459035289485100D-02 -5.92251836759261200D-02 -9.32360620275179700D-02
56 23  1.07165878539549900D-01 -1.39298165120320600D-02  1.25710002768454100D-01  4.78347698157064000D-02 -2.27981080181869800D-01
56 24 -1.87387626572953200D-02 -6.09790255791779500D-02 -1.12567684193896600D-01  3.27154692797996300D-01  9.69087912912022100D-02
56 25  1.86452359087788000D-02 -6.70865161812759800D-02 -7.87285152357837700D-01  1.59498239881994700D-01  1.38385754760154400D-01
56 26 -1.12954052050528700D-01  4.81516367130034000D-02  1.23448746862163000D-01 -9.56273804301172200D-02  1.34305528720322900D-02
56 27  8.21968275580847600D-02  9.97560584587160000D-03  1.95698657871797500D-03 -4.25880557929650900D-02 -1.04744645698249100D-01
56 28  2.73882256135417900D-01 -1.69137610437168900D-01 -3.50111872138115800D-01  9.25432775318903700D-02 -9.07135308132150600D-03
56 29  1.71140149558680200D-01  1.14202588794377300D-01  2.42245201284619600D-01  2.59031109631663100D-01 -1.14102215382992200D-01
56 30 -2.37677147167941800D-02 -6.49354325584691700D-02  1.45641773995376300D-01 -1.57411650356952000D-01 -1.76315495936798200D-02
56 31  1.38329193405500000D-01  1.14864330627569300D-01 -1.45551692569324500D-02  1.04615941303493400D-01 -7.32523439975719300D-02
56 32 -1.02462844750729900D-01 -2.07147838344177100D-01  2.36443987378383100D-01 -7.85202765399060600D-02 -7.96180535305846500D-02
57  1  6.18731669102782800D-02  9.91690117625030800D-02  1.37388989060175700D-01  1.71607956384041100D-01  1.62919950770004000D-01
57  2 -3.31366552179642200D-02 -1.35292761853661100D-01  8.21047437182715200D-02  1.71774869444802800D-01 -1.72232187196002900D-01
57  3 -8.50043933534429700D-02  2.57236580549447000D-01  1.61805365923654200D-01  7.59280599711137900D-02 -6.96316893760192500D-02
57  4  3.92679836186261100D-02 -2.79846798509686700D-02 -5.85481633248220400D-01 -3.99731436634740400D-01 -4.78552165839280200D-02
57  5 -3.81028511397385000D-02  6.24035693918560400D-01  3.62681345693413400D-01 -6.10712019184553500D-02  1.51980551742384700D-01
57  6 -9.81303680681473300D-02 -5.38501836742377700D-02 -1.68492290632692000D-01  5.12934809550808400D-02 -4.41592248037443100D-02
57  7  7.23108685267830900D-02  2.57847080995746300D-01  9.89079687852539600D-01 -2.34295078031169800D-01 -8.48502636533339200D-02
57  8  7.05523643319835900D-02 -5.65925349870737400D-01  2.79963500047169600D-01 -5.30575955993083600D-02  2.04888879946297100D-01
57  9 -6.72717818493709700D-02 -1.37617098096926100D-01  2.09712525719419000D-01  1.47019939686752600D-01  1.66541301403690200D-02
57 10 -4.08913008717459600D-03 -7.49201261778967100D-02 -3.26207856491571200D-02 -1.64631207366303300D-01 -1.94049314529873300D-01
57 11  1.58406586785122500D-02 -5.26920882832520800D-01 -8.52267718528757800D-02 -1.22659345810857300D-02 -1.20850364670569600D-01
57 12  6.93104986427601900D-02  5.15398660278096100D-02 -5.63278834946753100D-01  1.61551574740186700D-01 -1.16822160131462700D-01
57 13  1.36505343945979700D-02  2.00669786833769000D-02 -1.10085656689438800D+00  1.64704106032402300D-01  9.07709069903022600D-02
57 14 -6.16901350956484600D-02 -6.47438359513179700D-01 -1.68540325045762500D-01  1.64133589859661700D-01 -1.39685416934404400D-01
57 15  1.63435782182951200D-01 -2.37503652485474800D-02  4.71266570147259700D-02  1.46346401904728300D-01 -1.08049035788394600D-01
57 16 -6.51087861927315500D-02 -1.30846710046357900D-01  5.28795842034487700D-01  5.85431116134447300D-02  1.24747917437392900D-01
57 17 -4.98802319909224700D-02  2.45938961267391400D-01 -5.25085701453426300D-01 -9.99466171307012600D-03  1.45809076236641200D-01
57 18  5.45358370627282900D-03 -1.51262659942913000D-01 -6.41078256011093600D-02 -2.62306960210169300D-02  5.30247430966420100D-02
57 19 -9.99831720931363400D-05 -4.04111010145186900D-02 -1.23227965543269900D-01  8.55904524597882700D-02  4.84749914252638000D-02
57 20  6.08279868204898800D-02  9.52772196459481700D-03 -1.70084015794869200D-01  5.54388906684496900D-02 -9.43314522291625500D-02
57 21 -4.41011202938614600D-02 -8.02348905971546800D-02  1.47922182781690000D-01  1.76279654403036200D-02 -8.74470958197687000D-02
57 22  6.98191303794659900D-02 -8.56897015922076100D-02 -9.12656499894702300D-03 -1.55450554444313300D-02  1.63037269253238100D-01
57 23 -1.91634552482006200D-01  2.85972832287683000D-02  1.33903122766442200D-01 -1.11085502152156300D-01  1.67189066565091900D-01
57 24 -2.93870244095725300D-02 -7.52998045425515000D-02 -2.49237639236913700D-02  1.57578530569610200D-03  5.31672711098897300D-02
57 25 -5.93524658446526800D-02  1.06413856999200100D-01 -2.36289906604489600D-01 -7.69539029885656500D-02 -1.44654779962900100D-01
57 26  1.71325016674280000D-01  1.75520076674871900D-01 -1.07853203912509800D-01 -1.30023927486407500D-02 -4.69368361469753700D-02
57 27  5.99392288956163900D-02 -2.81050152627417900D-01 -3.86121085057956700D-02  2.42509444540020900D-01  3.53664000572291400D-02
57 28 -5.49221932170098600D-02  1.95557931597807600D-02  4.84613526519067400D-04 -1.33703957007921500D-01 -1.20122332055095400D-02
57 29  4.50444740022583700D-02  2.09791334802682500D-02 -2.53808721128579600D-02  2.61561734395537400D-01  3.24433389177429200D-02
57 30 -1.12551974291754900D-01  1.95696745644302000D-01 -5.00776849500334200D-02 -2.50273087713437200D-01 -1.06611094328435100D-01
57 31 -3.28583351890669000D-02 -3.42296566913767000D-02  3.42490686944868600D-02  1.76595414882316600D-01  1.49870034230194300D-02
57 32 -1.39852391260434500D-02  9.23393443456180400D-02 -3.84788636498161100D-02  1.19873334547403200D-01 -2.86360856751567700D-02
58  1 -5.36012701549952000D-03  1.55911144129603400D-02  1.06811059222284800D-01  3.54606968843285400D-02 -1.06414897223175400D-01
58  2 -1.12655060007263700D-01 -2.58095184684431100D+00  1.60672102806771600D-01  2.11734636837873000D-01  1.91290232782528600D-02
58  3 -3.24460232883197300D-02  1.33170000100672400D-02  1.36498244286740500D-01 -6.75335196657201900D-02 -1.10210556449817800D-01
58  4 -4.21857015158118300D-02 -3.98553117932771200D-02  1.35138995211879600D+00  1.53032644137942900D-01 -8.13469676174151900D-03
58  5 -1.76709328648253800D-02 -1.68990530725949900D+00  1.19063729398544400D+00 -1.85882321499501100D-01  1.22779321799270600D-01
58  6 -1.61047968277386800D-01  3.82686464781164300D-02  2.08879270224327700D-01 -8.23685757107883600D-02  1.18857169295903600D-01
58  7  1.76641397084328200D-01  3.26963248352195500D-01 -1.11607661721310900D+00  1.65539652266759200D-01 -7.34905951584361600D-02
58  8 -7.66589433793277700D-02  1.75065456931476000D+00  1.19889351429243100D+00  1.92794416172663500D-01 -8.03830843814780000D-03
58  9  2.92895316416006200D-03  5.10935527398642400D-03 -2.11850392856245500D-01 -1.05084453407910000D-01 -1.81982507249529100D-03
58 10 -2.62661167310822400D-02 -4.79204970540879800D-02  1.25957040207505400D-01  1.56660115641194400D-01  1.87255961605188500D-01
58 11 -1.29422929636609600D-03  2.16631801497917900D+00  7.84378891449054300D-02  7.52550977238399100D-02  3.16864668728706000D-02
58 12  2.11451857876048600D-03 -3.38009854516306500D-02 -1.68082370931917100D-01 -9.99626237202390100D-02 -3.31340140021322800D-02
58 13 -1.25708948174788400D-01 -2.26321731314430500D-01  1.00897311386803400D+00  7.85754972205185100D-02  3.98252599245268200D-01
58 14  7.97051651834052000D-02  1.56175422692930400D+00 -1.57423267339147900D+00 -3.14114049335610300D-01  3.39589772035198600D-02
58 15 -4.82978464639965200D-02  1.43388692604775700D-02  4.10763614402319000D-02 -7.43429144980043800D-02 -1.19638241334051500D-01
58 16  4.26188867741706400D-02 -1.55382295921839700D-02 -9.73638917852927800D-01  9.51131497526362300D-03 -8.46734715020693200D-02
58 17  3.56751233186298200D-02 -1.53760919446306400D+00 -1.01617292944731500D+00  8.70906527153316200D-02 -1.27674234514856500D-01
58 18 -7.76060259752386800D-02  2.05280260490094400D-01  4.33707146903462200D-02 -8.40752526366742400D-02 -1.51362728746042300D-01
58 19  3.72255507764624400D-02  7.49796782684353800D-02 -1.70465334664369300D-01 -9.99535898939651600D-02 -1.64611942667530300D-02
58 20 -5.12973957910900800D-02 -3.54436614109042800D-02  3.51190899708591000D-01  3.28830402839741900D-02 -3.12238396542682400D-02
58 21  9.44872460650551100D-02  1.71057007171088300D-01  1.90307049154318900D-01  1.10882346270713200D-01  6.48924405130629100D-02
58 22 -1.75774786783775200D-01  2.23061041147172700D-01  7.08009549104438600D-02  1.34445223481268300D-01  6.41991011552797000D-03
58 23  2.61675823847365600D-02 -3.25874925002650700D-02 -6.01067919067095500D-02  6.23354187170005300D-02  1.21242357673300000D-01
58 24 -4.32887558427648600D-02 -7.85195376053287700D-02  2.13209537630231500D-01 -1.00440164581397300D-01  1.03135188584117000D-01
58 25  6.44237708180176000D-02  1.34686902054132400D-02 -5.48396215524577700D-01  3.73991053330475800D-02 -5.53916522535199300D-02
58 26  3.44474345212455200D-01  3.12768723445300500D-02  1.09971568740621900D-02  1.22300865752075100D-01  2.09531378786575300D-02
58 27 -1.43254003630733000D-01 -2.90477072568843400D-02  7.92107985764526200D-02 -6.92318732217468600D-02  5.15012079362078900D-02
58 28  2.01056071501094100D-02 -7.16068150863172900D-02  2.09810911066731800D-01  3.28543550272065700D-02 -3.17523696206662600D-02
58 29 -4.92885865956980700D-02  1.60080551179463100D-01  3.27743424936057800D-01  2.00796232861010900D-02  8.50819619162385800D-02
58 30 -2.28125888586925100D-01 -4.62364420068238000D-01 -1.67743206503875700D-01 -1.65162247057532900D-01  6.91798254901469500D-02
58 31  1.78407005366662800D-01  2.38028388213742300D-01  3.19112513837302000D-02  2.27836352714880300D-01  4.41234092435469100D-02
58 32  1.17043981052300800D-01 -2.09374458546706300D-01  1.78774891367411400D-01 -3.06337889203931800D-02 -1.72723701526283200D-01
59  1 -7.18994339642799500D-02 -1.94756469549006900D-01  7.61789547637974100D-01 -7.59221479074605900D-02  1.81263450254002100D-01
59  2  1.29201043015817900D-01  2.06781485652246700D+00  1.25165578219029900D-01  1.78341703324046300D-01  1.44585652961392600D-02
59  3 -2.19647379363005700D-01  2.05188814066865900D-01 -9.66114583392157500D-02 -8.33059158290407100D-02  1.36165066862853700D-01
59  4  8.17144581493330900D-03  3.07098889117582000D-02 -4.18615103475628000D-01 -7.06264339541003800D-02  3.36834061030901600D-02
59  5  1.12742193431843600D-02  1.30312380026159000D+00 -1.45992054026668300D+00  6.88788675860155200D-04 -9.89823028168052600D-02
59  6  2.19635317982544400D-02  7.70187710185511000D-02 -1.23695692828185300D-01 -6.74384846268924100D-03 -1.91092407975870100D-02
59  7 -7.32048489211782100D-02 -1.34033352098580400D-01  7.46525746876754200D-01 -8.19222675441264700D-02 -4.15647760889893600D-02
59  8 -6.55417808613669200D-02 -1.33822671114794100D+00 -1.35425947491570600D+00  6.87447273877610000D-02  2.88816272181103700D-01
59  9 -5.41817008450151000D-02 -2.34634571336088100D-01  6.83827104595859500D-02 -3.17877587738225900D-02 -7.06871113701892700D-02
59 10 -8.30296376211939000D-03 -4.27047912500331900D-02  5.18346057622940700D-01  1.75593368517560500D-02 -1.28392495876144900D-01
59 11 -1.43973872231505900D-02 -2.80364167371554900D+00  1.51946048918683000D-01  1.64491980444990000D-02 -2.12009212134955600D-02
59 12 -1.53212244283757500D-02  3.65221456418704100D-02 -2.88979227564179200D-01 -6.17019848188936300D-02  1.43137654292036000D-02
59 13  1.11249431321750200D-02 -3.72194195789647700D-03 -1.34105376142595300D+00 -5.04878049022162400D-02  1.02364658405207000D-01
59 14  1.30849502180885800D-02 -1.46956446012008500D+00  1.43181479946805000D+00  7.27802755528245100D-02  1.47254152793328300D-01
59 15 -1.98213305959175600D-01  5.09591531658470200D-02 -7.02150544162306600D-02 -1.02454369632400200D-01  3.88565762855444700D-02
59 16  8.65791228529296200D-02  2.30664431962888900D-01  1.76402492951828800D-01  9.97898004566550100D-04 -1.46706799278121900D-02
59 17  1.55139492885050800D-01  1.33791993613167200D+00  1.05411337944661600D+00 -2.22822928458957200D-01 -6.22737963434248600D-02
59 18  2.73868466074245500D-02  3.48869497360017900D-02  1.24775779154221000D-01 -2.04364423687550100D-01 -3.99659431400700900D-02
59 19  4.15401730885331600D-02  1.82112598384391700D-02 -3.56437334794530600D-01  9.00370174951217600D-02  4.44370217604976000D-02
59 20 -8.16430132805078300D-02  3.58152343226556000D-02 -2.85089230361803100D-01  1.73344123720628700D-01 -1.62359189956443100D-01
59 21  7.48430380421132900D-02  3.05167022596492900D-01 -6.55730922602047300D-02 -2.23749694338723400D-01  6.94813822824969600D-02
59 22  1.54268312056226400D-01  4.86621833584711500D-02  1.01352136839124400D-01 -1.86668266335506600D-01  1.98195487931001400D-02
59 23 -1.10601939582188700D-01  9.07823907890890100D-02 -3.36269367137536900D-02  1.41455843402690300D-02  2.03810010920368400D-01
59 24  1.24628551299855600D-01  3.04088189457486000D-01 -3.17740237397538100D-01 -1.28467102018019100D-01 -1.94396815145123400D-03
59 25 -3.14010877642954100D-02  5.73356709665793900D-02  2.52875703750432700D-01 -6.31239004230430100D-02 -7.55190294422414500D-02
59 26  1.07143947328664300D-01 -3.34864963014219000D-02  4.66866210099583400D-04  1.89862171602097600D-01  3.49669050014524200D-02
59 27 -2.24829076603550000D-01 -7.96357156221953900D-02  7.25646162140629600D-02  1.38782727255006800D-01  1.98260767284758400D-01
59 28 -2.10088121033035700D-01  1.18273537482775400D-02  1.21239718891755400D-01  3.89078077842922100D-02 -2.83071735953464500D-02
59 29  9.52002872396158700D-03 -2.46727330941277700D-01 -2.57322914829412100D-01  1.49352107651619000D-01 -5.94652890579362600D-04
59 30 -1.87236019821281300D-02  2.00168103940087200D-01  5.14620134157715800D-03  5.40074211436415400D-02 -5.28139054404606100D-03
59 31 -6.12133073463422700D-02  4.74859871170003800D-02  3.50713181850369800D-01 -5.16744939011123200D-02 -1.65129420783494500D-01
59 32  1.14015025029023000D-01  1.75606360610359900D-01  1.49456903800832300D-01 -3.29755216762166400D-02 -1.76524961095878700D-01
60  1  9.25156376064183600D-02  1.83570886866922300D-01  1.86102636644853400D-01  3.47508468157145300D-02 -1.35949076209909600D-01
60  2  1.55149509919234300D-02 -2.10260397222021200D-01 -6.28957870771380500D-01 -9.10610198766606900D-03  5.31972564173611300D-02
60  3  2.46644709235425800D-03 -5.56637035097147500D-02 -6.62260856282527900D-02  3.90789970299229100D-02 -1.03668604138355400D-01
60  4 -1.27887607861742900D-01 -3.08649676134294400D-01  1.26454747210172600D-01  2.34744121900877100D-01  1.05614162617126100D-01
60  5  5.50399254636217500D-02  3.19412305056031700D-01  3.38446330944319000D-01 -1.16942804980670300D-01 -3.88407909808852500D-02
60  6 -1.13364779445802200D-02  5.01772689254657400D-02 -1.14412469125453800D-01  5.67630435195965300D-02 -5.55287684519187200D-03
60  7 -6.59444002321707300D-02 -1.36564232062949100D-01  4.43679745102154600D-01  1.06281744598645500D-01  1.25150040556696700D-01
60  8  1.02758289285222900D-01 -2.46230523945776700D-01  1.30648102565549700D-01  1.11477327075935200D-01 -3.18983932474859900D-02
60  9  1.35600068663645300D-02  1.83383863811209500D-02 -1.94926117054101800D-03  1.28198847896655400D-02  3.96681960618511900D-02
60 10 -6.76086773425199800D-02 -1.70308908230295800D-01  5.12590320443686200D-01  2.99193232338105300D-02 -1.40043471984314000D-01
60 11  9.74306829274705200D-02 -4.40870549363390800D-01  6.63853422793183000D-01 -3.83127467413010100D-01  1.92870305789477900D-01
60 12  1.55175621557972600D-02 -2.08387867945275000D-01 -1.98862775382052900D-01  7.20125377622906800D-02 -6.46601448102832600D-02
60 13  3.61233525947807200D-02  9.43569099463750600D-02 -4.27288017067472500D-01 -2.91431171389043900D-01  2.42328889322515400D-02
60 14  7.75042237382992400D-02 -4.54107796677827700D-01 -2.55163958882743300D-01  2.12338638365513700D-01 -1.82889651448817100D-01
60 15  1.38334974774854400D-01  4.45546766739625600D-02  5.91448412037415500D-02  5.02979298149466600D-02 -2.35460595376803000D-02
60 16  1.73570152021997000D-01  3.91265216566230400D-01 -3.99050481729219400D-01 -3.34157578162592300D-01  2.47791023793572300D-01
60 17  3.08027236734032900D-02 -8.10984267091850200D-03 -2.41363176525893300D-01 -9.97016203226135800D-02 -5.64807954325997800D-02
60 18 -4.28677414850494000D-02  9.93485369176490800D-02 -1.73231655249607900D-02  9.01437654899505500D-03  3.57122086083738400D-02
60 19  8.02564938963645200D-02  2.25989605144143800D-01  6.52199749227113100D-02  1.94386169322315600D-01  2.87630147976743100D-02
60 20 -1.03925259790989100D-01 -7.45400207522104200D-02 -1.59384601120472700D-02 -1.61933998526528600D-01  1.06334585843337100D-01
60 21 -1.02921157055093900D-02  3.47166656256306200D-01  9.93901531896381300D-02 -8.24605911771646400D-02  1.36276385145499800D-02
60 22  6.88329526626148400D-02  1.75945077091718000D-01 -1.68141951615181200D-02  7.38819710422493300D-02  6.10256571724225900D-02
60 23 -1.96933512747445500D-01  1.35907855575022900D-01 -9.10393010535627000D-03 -4.03277509892044200D-02  2.07934593237025700D-02
60 24  1.00526160063285900D-02 -1.02554903257237100D-02 -4.45655090243601100D-02  4.20503631666095100D-01 -2.28979944526466200D-02
60 25 -2.60448951126090900D-02 -3.19044607110650600D-02 -3.17087224568731700D-02  1.74634144088077600D-02  1.58803084977528300D-01
60 26  1.94959335100565700D-01 -1.01415131527971700D-01 -1.24355845218296000D-01 -1.37838963760873200D-01  1.93241287210608100D-01
60 27 -5.54023234497347400D-02 -4.34963044098201600D-02  1.37237013190998400D-02  1.24462741003966800D-01 -6.73857291747189800D-02
60 28 -2.07210360639767600D-01  2.74596089814486500D-01  1.60569467496582000D-01 -8.69924960576197400D-02  1.19387164992661100D-01
60 29  9.83798384365281300D-02 -5.40011088115836800D-01 -3.27275653363358800D-02 -3.96620982732628600D-03 -9.18974530484846100D-02
60 30  1.48285035271013400D-01 -1.15031255315318300D-01  3.17974051875294100D-02 -1.34058863500741400D-01 -1.42575359827896700D-01
60 31 -6.63260969458152000D-02 -4.64978451826083400D-01 -2.76946222094227300D-01 -3.99274403428199900D-02 -1.95884828521572700D-01
60 32  1.25259327705463400D-01 -2.23281609200420700D-01 -2.35745658075934000D-01  7.93801653047235100D-02 -5.00074986689698400D-02
61  1 -1.58383836934294600D-01 -3.01761142260000700D-01  2.84181652186533700D-01  1.00877891523623700D-01  1.04149552610054900D-01
61  2 -5.48066450573483900D-02  6.93094911739558600D-01  3.87975159114960000D-01 -1.89931620095825500D-01  1.12366314966827000D-01
61  3  1.12705270920273600D-01 -2.25071585887099200D-01 -2.03283511589348800D-01  8.33093407932006700D-02 -1.36923821280125500D-01
61  4  9.97387428941814700D-02  2.28000377628897700D-01 -1.56843564996916900D+00  2.28135154976748100D-01 -2.70275374087634800D-01
61  5 -3.23259131453213200D-04  9.07790471998781000D-02  3.47231710883795200D-01  2.65990793344099500D-02 -2.39747068184561300D-01
61  6  8.93031273618865800D-03  2.30816755448371700D-01 -1.26317462807990100D-02  5.68394992349618200D-02 -2.21587147546279100D-03
61  7 -3.21093418894019300D-03 -1.25976912126813900D-02  6.42838017543229600D-01  1.91091813601328000D-01 -2.21878964941172700D-01
61  8  9.99113695887559500D-02 -1.96374108094485600D-01  8.90888510336815900D-01 -3.80353389247132900D-02  1.76237914066011800D-01
61  9  4.51160278388379300D-02 -2.21353941904849800D-01 -1.88910818709553000D-01  9.79883975143272100D-02 -7.03186307501909900D-03
61 10 -1.43130290900595600D-01 -1.94111473512843300D-01 -4.11710516651749300D-02 -1.04987533270695600D-01  1.53226082082218300D-01
61 11 -4.26176130057838000D-02  8.29149807308377800D-01 -8.98731718643113000D-01 -1.12878363787173300D-01 -1.42840615698868700D-01
61 12 -1.73974468788270100D-03  1.44580360386751800D-01 -5.20680975280927600D-02  1.24177382473533600D-01  2.23203974852792800D-02
61 13  7.62305320442336300D-02  8.40439017670840400D-02 -4.27361998426024700D-01 -9.04545280791920900D-02 -7.17533405487683100D-02
61 14 -2.61966651886142800D-02  4.94452975245245300D-01 -5.38487141861630700D-01  1.71499203918232400D-01  8.49904959549827300D-02
61 15 -9.06143998639312600D-02  5.62390390894727400D-03 -2.31307091080598200D-01  1.53084558933444300D-01 -6.33520644523829100D-02
61 16  2.46614662340561300D-02  1.55299709370813400D-01  1.42068953686242600D+00  2.61198447973472900D-02 -8.57195389769179100D-02
61 17 -5.83900865011785000D-02  4.61635925055645500D-01 -2.37702323073684300D-01  7.55904137373868000D-02 -4.06880663202594900D-04
61 18  2.65460093378161400D-03 -2.24772027057903300D-03 -6.16941609274837700D-02  3.57272038012044100D-02  1.33121890682862500D-01
61 19  2.25361237680690300D-02  2.55517235915183300D-03 -5.15770452000600800D-01  1.48704903273242700D-01 -1.73996978244563000D-01
61 20  1.81438661697446500D-02  5.23555294363544600D-02  1.25152186286401200D-01  1.79792201232602700D-01  5.04111572146790900D-02
61 21 -1.77823404376637000D-01 -1.06326580612672000D-01  5.74681302570561300D-02 -3.66056548148010500D-04 -7.01726313885093900D-02
61 22  7.05386879366574100D-02 -1.29231214746529300D-02 -4.91833927771828500D-02 -5.86678986755674500D-02 -2.29811133821307400D-01
61 23  2.71773671469539000D-01 -4.19625376482305800D-02 -3.54226733647919000D-02 -7.91977230518869100D-02 -1.89178333505563200D-01
61 24 -2.82641007356076300D-02 -1.06066847956302700D-01 -3.37569989809353700D-01 -5.10476692543446700D-02  6.14405754048605200D-02
61 25 -1.84775773538585100D-01 -3.48438652788178400D-02 -1.74698354267441200D-01  2.24050632925528400D-01  6.85318810777795200D-02
61 26  3.45562561691517400D-02 -9.19900471035431200D-02  6.16680104814058500D-02  1.44743759380670800D-01 -1.05426387676545700D-01
61 27 -3.93173717041248000D-02 -2.41161476694834600D-01 -5.53008329268461300D-02 -2.11122700717362000D-02 -1.51671518271595100D-01
61 28  1.93719818313383000D-01 -4.20483000417878900D-02  2.43126059915478000D-02 -9.28793477270474600D-02  9.79686744972581300D-03
61 29  1.10726349273919400D-02  9.53120879936957100D-02  1.92094756600275900D-01 -1.09387444037586900D-01 -4.64733909016749100D-02
61 30 -3.73520000121190000D-02 -1.57436269983071600D-01 -7.82670832738606900D-02 -1.46423437734263800D-01 -2.15136548206324600D-01
61 31  2.02620510274438000D-01  2.55083009897263900D-01  6.44895618029280900D-02  1.78517100742465100D-01 -6.58111955714680800D-02
61 32  4.54814800044849600D-02 -1.19121884901331700D-01 -2.70070075554694000D-01  1.05428239742489400D-01 -1.33538254182613800D-02
62  1  9.39938126139146400D-02  1.79331825384114100D-01  4.47631869785670800D-03 -8.35951266352167200D-02  9.41016918286717300D-02
62  2  6.48324519737187400D-02 -1.00361376620498000D+00  1.22813823802252500D-01 -9.87311378688526100D-02  1.54436036167412000D-01
62  3 -2.09591552073076700D-01  5.51555159056647600D-02  1.32558946768776000D-01 -1.59600859279519400D-02  4.81005277329442900D-02
62  4  1.76302574455941200D-02  1.03512572398031600D-01  6.31068053627999100D-01  3.52652538401905300D-02  5.04056332905057200D-02
62  5  4.78612189465846500D-02 -4.82466093294363400D-02  1.56117433372796900D-01  1.37896924340072100D-02 -6.17898780163758700D-02
62  6 -5.86136941425068500D-02  1.20403572158882700D-01 -1.80186905840553500D-01  3.99609411486410300D-03  3.37049577637928800D-02
62  7 -1.25858118336223200D-01 -3.12554293942007800D-01  8.04413378893401500D-01 -6.05692203224067900D-02 -6.88058956854154200D-02
62  8  2.43695720587126300D-02 -3.48023630842246600D-01 -1.88965805280369100D-01  6.75473648177155700D-02 -4.12657336753384900D-03
62  9  3.10309507344429000D-02 -2.69043773669094400D-02 -4.10249026849851900D-02  2.07280885011610400D-03 -5.22259291604187600D-02
62 10 -9.26636659767872400D-02 -1.30661768744699900D-01 -3.91323481523680100D-01 -1.39769301310383200D-02  2.02419760489318100D-01
62 11 -2.19996418910534600D-02 -6.28137445629947400D-01 -4.91926406469745100D-01 -3.54343693522701400D-02  8.13396463919241600D-02
62 12  2.50847992318088200D-01 -3.32187638710012200D-01 -1.34108044458894600D-01 -2.91739666050005100D-02  6.26213783510879700D-03
62 13  3.24018681584971300D-02  6.93951157139410000D-02 -5.56839560546726900D-01  2.11112231881235000D-02 -1.20037086748636700D-01
62 14  7.10059590592913700D-03 -1.90005178517431000D-01  2.02641398575744500D-01 -1.27523994410430500D-02  1.44301969270898000D-01
62 15 -1.96520576152530200D-01  5.22186068816323400D-02 -1.78697911583209400D-03  4.28973273393656500D-02 -1.13258645904522500D-02
62 16 -6.25509357634733100D-02 -1.76476951658080200D-01 -3.64476256663721300D-01 -7.56358245937882000D-02 -1.47529163802127400D-01
62 17  1.43304920996751800D-02  1.24536848667099200D-02 -4.08468360224797800D-01  7.54320961980084600D-02 -8.65352863378853200D-02
62 18  6.51759579954302300D-02  2.13593283424554800D-02 -8.12244233873567900D-02 -2.17984848605405900D-02  2.94695140199866200D-02
62 19 -1.55487578376224600D-02 -9.99497336508637900D-02 -4.67237710374044100D-02  8.17920776776634300D-02 -7.29948830034776300D-02
62 20 -6.63152685299152500D-02 -4.17767673760536800D-02  1.95483512052929800D-01  2.86882080613356900D-01  5.99065734249139800D-02
62 21  2.37345896022150600D-01 -1.74437667933349900D-01 -4.13809504488876600D-02 -1.18528205072454600D-01  1.36594907625213100D-01
62 22 -1.80667025527586200D-02 -8.54136716990059100D-02 -4.57939051555767300D-02 -2.58023923358627600D-02  1.44039150736735000D-02
62 23 -1.88354578602318300D-01  1.73950663528644800D-01 -2.14465046762525500D-01  5.84802967965394700D-02  6.16403018421615400D-02
62 24 -6.61850566972473800D-02 -1.34346907646496100D-01 -4.69661316537939200D-02  3.40064517266121900D-02 -1.32494421853538000D-01
62 25  6.79997692013918800D-02 -2.17945042631055600D-02  6.83051086540832100D-02  3.15230756124172500D-03  4.18998630288005800D-02
62 26  6.77427433794907800D-02  1.03859926852368500D-01 -6.15629813261302200D-04 -1.84475631540678600D-01  3.12008353231115100D-03
62 27  1.81355548008367600D-01  1.95319133392281200D-01 -2.92285494235576100D-02  4.44862020975023600D-02 -3.62169946306863300D-01
62 28  4.17454588364066200D-01 -5.52846420572029000D-02  1.71382608147011200D-01  4.40483710471105400D-02 -3.14676062343797200D-02
62 29 -2.35904135006669400D-01 -4.02335351032369500D-02  1.38087811418005900D-01 -1.28258052891244900D-01 -8.82508140331870600D-02
62 30 -2.09667082880585200D-01  2.27365915781657500D-01  2.11529684656371300D-02  1.01913601531063600D-01 -1.68369330263917800D-01
62 31  8.93955713247977700D-02 -1.02886953560724900D-01 -9.36428957850027300D-02 -8.43082291571579700D-02 -6.94272873315375100D-03
62 32 -4.25104107288634300D-02  2.54468860021792600D-01 -8.70417898961447600D-02 -8.04923688476988100D-02 -8.75395126261865100D-02
63  1  1.55750635120766500D-01  3.79662434956933000D-01  3.31787265781031400D-01  3.31703679474422600D-03 -7.20209352252083300D-02
63  2  2.57186538355593900D-02  7.01278256636679200D-01 -3.04733981972195800D-02 -1.11237547301675200D-01  1.39785354008829200D-01
63  3 -3.17244641306162700D-01  1.77459287297334500D-01 -3.73932745576017200D-01  3.35685418946794400D-02  1.17393113677150500D-01
63  4  1.36316590281427700D-02 -1.12204609334711900D-01 -1.18203772650434200D+00  1.74111925187257500D-01  6.59486306845938300D-02
63  5  3.63531003138757600D-03  6.12980691509690600D-01 -3.39874924833198000D-01  1.07411551036215600D-01 -9.11975230242371300D-02
63  6  6.14031431792075000D-02  2.97943798450296400D-02  1.27558713605049400D-01 -5.70337345333924700D-02 -2.79255649330686000D-02
63  7 -2.51265944578864400D-02  1.09168462227073000D-01  1.34758981558693000D+00  4.04572476657569100D-02  5.06797943833381100D-02
63  8  7.71748293512864000D-04 -4.54613735121761500D-01 -3.31717675455155100D-01 -1.14181312563893300D-01 -1.70852864712983700D-01
63  9  8.53953321579127600D-02  8.54575325550708900D-02 -2.28944803173008900D-01  1.17543432551122100D-01 -1.69112788437229000D-02
63 10 -1.65687924991279200D-01 -3.54279006132824100D-01  2.36509556372899200D-01 -5.77111452403393600D-02  3.98415922888682200D-02
63 11 -3.18948274285948200D-02 -1.34544489607941000D+00 -4.26720249371791100D-01  1.03407400206466400D-01 -1.14099234330940500D-01
63 12  3.54865477169597500D-01 -2.40766242838657400D-01  2.88878223981229500D-01  9.96698149972171700D-02  2.26610202841858700D-02
63 13  2.33147521389353400D-01  5.46827076386736600D-01 -1.53486401792074200D+00  6.38689417014675100D-02  2.59963922894711000D-01
63 14 -5.85407845366890500D-02 -4.51802985266578700D-01  2.47689858307947400D-01  2.43614472659385500D-03 -1.49638645632739600D-02
63 15 -1.76279393023156900D-01  1.91243257586429800D-01 -2.80741097854125800D-01  6.49027503006849900D-02 -7.23575722975617800D-02
63 16 -1.67592941199907000D-01 -4.46311511653816900D-01  1.19509317863144200D+00 -2.25960322467919200D-01  1.83904195643617800D-01
63 17  3.74630947948035200D-02  8.13110439144449100D-01 -5.32498526666514900D-02  1.18422991349017800D-01  2.30257188365814200D-01
63 18 -1.39216715282382900D-01 -9.10404730834306100D-02 -7.04974347426548800D-02 -8.80165746563918100D-03  4.32096927578113400D-02
63 19  1.17139078541493800D-01  2.35824888671803800D-01 -2.31174816883896900D-01 -5.19264392953931500D-02 -7.89445919765588300D-02
63 20 -1.24763592885997000D-01  1.32605747464927600D-02  2.22451243225199600D-01  2.33520747005631700D-01 -2.41601504179663400D-02
63 21 -1.00244049720717000D-01  7.85350037477156500D-02 -5.25433893549058000D-02  5.27336335950070700D-03  4.70551617093714100D-02
63 22 -5.23285250688720900D-02 -2.17996339963780700D-01  2.25933198900137200D-02 -1.19629821663951100D-03  1.74626438381688300D-01
63 23 -2.61876689383967100D-01  8.72502510022797600D-02 -2.10774240126348700D-01 -7.42851930291964900D-02 -1.07244913228952300D-02
63 24 -5.63548064763653000D-02 -1.15107128911377100D-01 -2.17719111189526300D-01 -9.70761983843357600D-02 -2.18245639231579100D-03
63 25 -1.46445753072202300D-01 -2.02393044182660100D-03  4.79679841772412500D-01  2.00133729973093800D-01 -3.29550848377218100D-02
63 26 -5.37444215396178100D-02 -1.46862773923598500D-01  5.49766662579005100D-02  9.06655264248943500D-02 -3.10604105457664400D-02
63 27 -5.96051158791274700D-02 -1.02086123911414600D-01  1.01242842120639600D-02 -1.26951909425701100D-01 -1.32476496496277900D-01
63 28  2.41787928779569500D-01 -1.09311432283291600D-01  2.41577503221777700D-01 -1.02697466729170700D-01 -1.32044108477832400D-02
63 29  1.28917469985313800D-01  6.12468263235406000D-02 -9.76211829601223300D-02 -6.16664407872449700D-02 -7.41802064469017900D-03
63 30 -2.00440327620298500D-01 -1.87255752820465500D-01 -3.48271989444838300D-02  1.11821346934832200D-03 -3.55352514509128000D-02
63 31  7.49274509393988700D-02  2.09244582937132700D-01 -5.82102949713825700D-02 -4.57794497438801300D-02  2.53550239045501400D-02
63 32  3.03933081551783700D-02 -5.37355403381855200D-02  3.84274557832716900D-02  1.90916414405335900D-01 -1.57210316441413100D-01
64  1  7.27504035368580400D-02  1.36024629736631200D-01 -2.57429282811521400D-01  2.29835450228803900D-02  2.51902899313859300D-01
64  2  1.03756312347099600D-01  3.42909936361747500D+00  2.08249058753408500D-01  3.84123887286242700D-01 -1.71135845100006600D-01
64  3  3.45448462197844200D-02  1.36590998880222600D-01  1.40049460398817800D-02 -9.61765974477448400D-02  1.20759881265209200D-01
64  4  3.86846420899630600D-02  2.59102265062389100D-02 -2.58476922235740200D+00  6.72668490001916700D-02  2.77573714389747000D-02
64  5  8.74994605113942600D-02  3.97216708400338000D-01 -1.30918799491965000D+00 -1.20532451880784600D-01  2.76851087234904100D-02
64  6 -1.81966150770733300D-02 -9.48849364641816600D-03 -7.47239582366292500D-02  8.39935259964909400D-02 -5.76457295064395600D-02
64  7 -7.48483565785348800D-02 -1.86776172645494800D-01 -1.63168046523036400D+00 -2.31568027288678000D-02 -2.92137837242510400D-02
64  8  1.20868748815612500D-03  2.36088712716990400D-01  1.09585350889362000D+00 -8.52883819984755600D-02  4.47668920319723500D-02
64  9 -2.59938508767433400D-02 -1.87730411552277400D-02 -1.23155488504132900D-01  4.95309607676418200D-02  1.33967205733776400D-02
64 10  1.50480604997392900D-01  2.74685232329163000D-01 -1.39878399157674700D-01  8.09992759817468900D-02 -3.49744948072173800D-01
64 11  5.85607963757296500D-02  2.22851002031029600D+00  1.98797186430660700D-01  3.04486647099888800D-01 -1.58884148941760800D-01
64 12  1.45484552629178800D-01  1.33995963125832200D-02  1.40289691610798100D-01 -9.16565828761536400D-02 -5.37426905825075900D-02
64 13  1.10135490913298300D-01  3.15123277907532100D-01  1.68101571293854800D+00  2.31744505896940200D-01 -1.62253675127469000D-01
64 14  8.27398101118392200D-03  2.95498371953438600D-01 -8.52858181002637100D-01 -1.16519924144651700D-01 -1.16579356194186200D-01
64 15  3.71309303445373300D-02  7.94484258496471600D-02 -1.04674876231241200D-01 -1.35058738275181800D-01  1.20096306491848900D-01
64 16  4.24137140169693500D-02  1.19373034224344600D-01  2.40020149231115000D+00  3.10318666667094200D-01  9.35597339091776400D-02
64 17  1.10029458674494200D-01  5.70284211196679600D-01  1.36224113164894000D+00 -2.66626610497500000D-01  2.03277068536021000D-01
64 18 -1.03373071005593100D-01 -9.99039975304278200D-02  3.00344308715261900D-01 -1.55725667661538700D-01 -1.29649883454085800D-01
64 19 -6.28147964874590700D-02 -1.61805458415524900D-01  1.09004837162947900D-01 -2.75992636851566600D-01 -1.04924334259153500D-01
64 20  5.75802212256193800D-02 -2.74142441728523800D-03 -5.39978633411214700D-01  1.84153908048427200D-01 -1.78869209342224400D-01
64 21 -1.53995065537866100D-02 -3.06758366664604800D-02 -3.09779725044878100D-02  2.68099564975206200D-02 -2.65717298624371300D-02
64 22 -2.38226635084847400D-04  1.86509800336067700D-01 -2.27458157569520600D-02  7.00404908026658100D-03  1.47097497747539500D-01
64 23 -8.39990428322856300D-02 -6.30984549152532900D-02  1.88766486960744400D-01  1.21839127039128700D-01  2.36191029824066300D-01
64 24 -8.52822923785794700D-02 -2.30715492425927200D-01  1.32320697068736200D-01  1.71207667132396300D-02 -4.06839222036162700D-03
64 25 -4.69097372098946800D-02  5.46230896897669800D-02 -3.71293056742288000D-01 -2.05298601839287200D-01 -1.71305856399931500D-01
64 26  1.17700577637484900D-01 -7.91643521215458100D-02 -7.59046131011514000D-02  1.87951736007021800D-02 -7.75655953460965000D-03
64 27 -1.10386140660922100D-02 -9.45467255528905000D-02 -3.01988705712298400D-02  9.21600109693123800D-02  1.57382271864895600D-01
64 28 -1.82907716439248300D-01  2.55254445743525800D-02 -4.54423117450078300D-02  1.32194719318638900D-01 -1.39355271801417500D-01
64 29  1.20896614788881100D-01  3.85358538265458700D-01 -1.12569661567115000D-01 -4.05803128061502800D-02 -9.99062465891202800D-02
64 30  1.17170757402062300D-01  1.65295868668504900D-01 -2.17403849445413100D-01  7.68685903012481000D-02  1.99976803592303500D-02
64 31 -2.45446587752652500D-01  1.78478750227279200D-01 -2.26963480936829500D-01  1.63281273310336700D-01  6.04954473595102800D-02
64 32 -1.61947960782334300D-02 -4.67618215391300100D-02 -1.79561606248092300D-01  1.87724010723287400D-01 -9.52313285301308400D-04
65  1 -3.42689835896375300D-01 -7.05794192975465500D-01  1.97743837914348700D+00  1.54995585338636100D-01 -1.63857023698784700D-01
65  2 -1.25656072529152300D-02  5.44931001427485300D-01 -7.64903334954571200D-01  6.07838072005144500D-02  5.80789654898389600D-02
65  3  8.86898044780731600D-02 -1.46768769967912600D-01 -2.41841072819278400D-01  2.11385455177766000D-02  6.81882633534352100D-02
65  4  1.40153894778527200D-01  2.26887313888301700D-01 -9.49376581227351900D-01  1.76409546260369500D-01 -1.15915987338370600D-01
65  5 -4.60042740305934800D-02  7.94417433701731500D-01 -8.38750596322293200D-01  5.11718159483448000D-02 -3.22322749413372400D-01
65  6  1.94860980241086200D-01  1.27461769172286600D-01  1.78013089198671000D-01  5.67605047033238100D-02 -1.28331839157503600D-02
65  7  2.98478893780554300D-01  6.08425197149189900D-01 -3.06376353252251400D+00  5.19660597789771100D-02 -1.38248445235942200D-01
65  8 -4.08346478175259400D-02  8.49937227873645900D-01  2.09393380519752000D-01  1.68880773623663200D-01 -1.24419991315524800D-01
65  9 -2.28889934086125700D-02  1.47308984724137100D-01  1.89936513105989300D-02 -1.29923315220093400D-01 -1.35258957996770000D-01
65 10 -1.24520879143612400D-01 -2.34437730637296500D-01  1.45656067045224500D+00  6.58152853831178700D-02 -9.38618859677815800D-02
65 11 -1.76425596353325300D-02  1.46235341556444000D+00  1.18303753678012300D+00 -1.86447828714361700D-01  1.11734058016681000D-01
65 12  1.01967581301812700D-01 -2.13701639318493800D-01 -1.71285278081486700D-01 -1.21019131137693600D-01 -9.35260203714911600D-02
65 13 -1.29346128114720300D-01 -2.10220900482565500D-01  1.51722038790893700D+00 -2.66072110179116500D-01 -7.13354983527900300D-02
65 14 -2.15145423334074100D-02 -8.27026387136612800D-02 -1.29662189377130400D-01  2.59257766771465800D-01 -1.22340614901661200D-01
65 15  1.65977365993827100D-01 -4.36367510921650500D-02 -2.37804843000337100D-02 -2.77288020435694300D-02  1.29100813009511100D-01
65 16 -4.53382134239925600D-02 -1.46567549912832700D-01 -7.29297956938713900D-01 -2.71184837272929700D-02 -1.86033786374284600D-01
65 17 -9.82217224041625300D-02 -8.28986480128955900D-02  9.58326147834024300D-01 -1.13370638091205000D-01  1.15495929491652800D-02
65 18  1.09459836535121100D-01 -1.21009429484287200D-01  1.90719338121741700D-01  7.17972965777155800D-02  1.54667624363548400D-01
65 19  6.98682894669811300D-02  1.33285465127616200D-01 -4.31684003645009600D-01  5.55829418080266100D-01 -3.49375275955095000D-02
65 20  1.03228115205900600D-02 -8.19662422687508600D-03  1.82907421290047400D-01 -1.45134885864090700D-01 -1.53955273443532900D-03
65 21  9.00642140484216500D-02  6.89798279466379800D-02 -8.08780407488120400D-02  9.09083348042436500D-02  1.57295010929154200D-01
65 22 -2.48203345733397300D-01  3.10861144883752100D-03 -3.36835422431223800D-02  1.64064957331567600D-01  1.76797348291086100D-01
65 23 -5.46764891147906200D-02 -1.22120859176295200D-01 -2.02829694565417900D-01  2.22353982544916300D-02 -3.57489102068527000D-02
65 24  8.14075807090000200D-02  1.96828046792024000D-01 -1.24505262291572200D-01  4.17462639647910000D-01  3.46525739970506200D-02
65 25  2.61796429190501500D-02 -9.16693237621626900D-03 -3.94525022243017200D-01  4.89658145386202100D-02  5.53920147251066900D-02
65 26  5.82700447288960100D-02 -2.47004306711608200D-01 -9.29787112357572500D-02  5.34745593681492600D-02 -4.13213207025934000D-02
65 27 -1.21532386655559200D-02 -8.38998192682120200D-02 -4.67859608357806600D-02  9.98811232493973300D-03  3.56969488087089000D-02
65 28  1.36201089172738000D-02 -4.93170577259826300D-02 -1.01663718852432100D-01  1.47692980895860400D-01  4.43892227649948900D-02
65 29  6.07835663025856100D-03 -1.22829277247598400D-01  1.15880559504302200D-01  1.50007074584811000D-01 -1.01919982407135700D-02
65 30  8.46023785141879300D-02 -1.98289377986263600D-02  1.82646028830881300D-01  1.44279955550598100D-01 -6.91290220378443000D-02
65 31 -2.92675910132231100D-01 -1.24446369971900700D-01 -4.79475125581052200D-02 -3.68111777667313700D-02 -6.96622272346105000D-02
65 32  5.46593901248701000D-02 -1.13762706848696400D-01 -9.21359276859785600D-02 -7.57611197409207400D-02  1.72481445775181400D-01
66  1 -5.17823475416530500D-02 -4.42458738786572700D-02  2.87914601104273100D-01  3.99195343390567800D-02 -2.53292299024739800D-01
66  2  1.30085434871445100D-02 -6.91601558238242800D-01 -2.62628354865794400D-01 -7.95619119473604900D-02  2.11054429124981900D-01
66  3 -1.05857496071686000D-02 -2.00468679517812700D-01 -1.60935690446145800D-01  1.53130539236413100D-02  2.41309883834929100D-02
66  4 -1.02910218064644800D-01 -2.39131016840820000D-01 -4.78794804867359400D-01  1.05930797389566400D-01 -2.60830874794462000D-01
66  5 -8.13005796425820700D-02 -2.80987357191882200D-01  7.96714010248964600D-01  2.78145022551745800D-01 -1.07144218642843500D-01
66  6 -3.28257632348480100D-02  1.39969981877691100D-01  7.30365959393995700D-02  9.95219217608468000D-02 -2.56502111461847600D-02
66  7  1.99275464623473700D-01  4.02344416206376200D-01 -1.75558858279670500D+00  2.79414050530400600D-01 -7.46797904955787400D-02
66  8  3.94169871181300200D-02  6.41717725391388400D-01  1.46979133544384500D+00 -1.52978630099120700D-01  1.50199990000954400D-01
66  9 -1.70626930472506800D-01  2.04269404715518800D-02  2.86165584034448600D-02 -1.49534089212105200D-01 -1.47088768666667700D-01
66 10  1.00870457160772700D-02  3.91203990857394900D-02  8.05334602594706700D-01 -6.35049897707947200D-02 -1.21945849294912900D-02
66 11 -6.19199428778375600D-02  2.51706966757612400D+00  6.38210092325311200D-01  3.52237638667350900D-03  2.68189125202135400D-01
66 12 -1.38037339791884500D-01 -1.30151785410249900D-01 -2.94993233096445700D-01 -5.16011874204623900D-02 -3.94316799015997500D-02
66 13 -6.26878162036612100D-02 -1.67154137817313100D-01  8.02770762165554800D-01  1.59061609306732300D-01  5.38701355411308400D-01
66 14  7.66782173983885100D-02  1.39892846673798800D-01 -1.47168369444342600D+00  1.34827573554112500D-01 -1.29975042269341500D-01
66 15 -1.68555937509398600D-02  1.46830636020281400D-01  1.93683539526599000D-01 -8.05717631064079700D-02  2.91727034007137600D-02
66 16  1.33770518630038900D-01  2.08361874029233800D-01 -3.61847204461830600D-01  6.76311543316665000D-02  1.57082883767244600D-01
66 17 -8.29499486778079200D-02 -7.44872611907246100D-01 -5.79903615269383600D-01 -5.62677687199918700D-02  4.83433260025894900D-02
66 18 -1.56136397884573100D-01  1.07793071881983400D-01 -1.02704060403491200D-01  6.66348936598192700D-02  1.17231152900963600D-01
66 19 -1.14496129872721200D-03  3.74888391580713800D-02  1.80180085828970700D-01  2.25588021205126400D-02 -6.53209186637489200D-02
66 20  1.16040199810863700D-02  7.33945486251948400D-02  1.34748634588442900D-01 -1.87940322863068300D-01 -8.87723757155228900D-02
66 21 -2.19788871864657800D-02 -1.39423776851846000D-01  1.20936793368027000D-02  4.45586192920115800D-02 -1.46035873848476200D-01
66 22  1.01477254556465800D-01 -9.25738800333427000D-02  1.05048929825042400D-02  2.05092648683687000D-02 -1.93073794510364400D-01
66 23  1.93809977392787800D-01 -7.36182882423624600D-04  3.96394748293620900D-02 -2.67017934598688100D-02 -4.23121356597621100D-02
66 24  1.60472295396813800D-01  3.95131514264924200D-01 -1.97553878686204600D-01  3.80936443332054700D-02  1.95647376285548500D-01
66 25  1.87108835304405300D-02 -2.39377334450476800D-02 -8.21843624713688700D-01 -4.79002039440030400D-02 -9.59012133153506000D-03
66 26  2.67440528158068500D-01  6.10092572581223100D-02  8.17371698314782200D-02 -8.19958375918907600D-02  6.99180043334948300D-02
66 27  1.20778332583959400D-02 -1.70490720096060700D-01  1.14350536214815900D-02 -6.95238687529271800D-02  6.70001460647217700D-02
66 28 -8.52661729537358400D-02  1.82660268890140100D-02 -2.18098849463247400D-01  5.43519209748138900D-02 -2.88743894860350900D-02
66 29 -2.73281566305176100D-01  2.53524473081741900D-01 -3.00906304983532600D-01 -2.34834008832965200D-01 -1.13619776208162300D-01
66 30 -7.19851547698237300D-03  2.02702248535415600D-01  6.53830034794152200D-02 -2.81933387957138600D-01  5.29326441029588300D-03
66 31 -9.73631163984093200D-02  4.86907195813849900D-02 -4.15696525615368900D-02  6.59656675007072100D-03 -3.17560249083491700D-01
66 32 -5.02261266268165900D-02  3.70531712221873500D-02 -1.05937060233359600D-02  8.26666109068716900D-02  1.69727320497314200D-01
67  1  2.23642548606557200D-02  2.66132012962004100D-02 -1.35787060798761800D+00  2.19793160958167400D-01 -8.30386066285215800D-02
67  2 -1.78124943252347500D-02  1.07930699718584800D-01  1.12982587189681000D+00  2.69143916806704200D-01 -2.16848862830756200D-01
67  3  1.65244900692865500D-01  5.16039621378898600D-02 -1.67888121332475900D-01 -4.47529065007432500D-02 -2.70744864467895400D-02
67  4 -1.00725634727452000D-01 -1.58361417806176300D-01  1.43877117528936700D+00  5.16063739878941300D-03 -3.74389589736067000D-02
67  5 -1.25488138070121800D-01 -2.09589569654464300D-01 -2.80227501122473600D-01  2.99878783204000100D-02 -1.04401369406684000D-01
67  6  4.60875366389813000D-01 -3.56473996983128700D-01  1.00144566029746500D-01 -9.83813709502688600D-02 -5.40548638722550700D-02
67  7 -2.62469208201551100D-01 -5.75086612193283200D-01 -2.08364303922599300D-01  2.41880818011689300D-01 -1.23277024417734500D-01
67  8 -3.37989797956206000D-02 -3.20616683883860500D-01 -2.50053673841657100D-01 -7.67374597959297300D-02 -6.36734867592563500D-02
67  9 -1.86687641023353800D-02  8.23422508615920000D-02 -2.00949241499783500D-01 -9.64560729589960900D-03 -2.53595430812740300D-02
67 10  1.01351589162389300D-01  1.79163816388274800D-01 -1.71030602440269300D+00  7.70227263892818400D-02  3.30648443603349700D-01
67 11  8.74005681283469400D-02  1.38494299519940300D+00 -7.24862887094239400D-01  1.55174123009915100D-01  5.21995574179210800D-02
67 12  6.94529432370545200D-02 -1.21652500654975100D-01  1.01765606372793400D-01  1.57032921847012100D-03 -1.86383338021887100D-01
67 13 -1.37894573584029200D-01 -2.74645137906175900D-01  1.87093366941267100D+00  8.16242542276924800D-02 -6.10282435104458100D-02
67 14  1.17013204251515300D-02  5.30292301701509600D-01 -5.22338018031749400D-01  1.95853283412351400D-01 -2.28276742132820000D-02
67 15  2.38834111927972400D-01 -2.16006437714690900D-01  2.97593666704960800D-02 -8.83997231401325700D-02  1.22432437930518800D-01
67 16 -5.03624545648397500D-02 -3.59479104846452100D-02  1.11385474630126000D+00 -3.35589329469061200D-04  2.46804301860192800D-01
67 17  6.38734967399986900D-02  6.60263985996721000D-01  1.08880405678791700D-01 -3.77697787373202100D-01  8.54426428488719900D-02
67 18  5.62123124568522300D-02 -1.41654955305724900D-01  2.01450078558668100D-02 -9.55459930701891300D-02  6.12933195761890600D-02
67 19 -3.00897568641999200D-02 -1.06160233920092600D-01 -3.28619431703892900D-01  3.38907701001390800D-02  1.33242221482240100D-01
67 20  1.33901801939903900D-01  7.81226901661023100D-02 -1.75279553988504400D-01 -1.57680533999877600D-01 -2.21993404831224800D-01
67 21  1.20273476142778700D-01  1.12149246609444200D-01  1.50976915016206800D-01 -1.28283425545256300D-01  1.90954464518641100D-01
67 22 -6.26710389733850500D-02 -3.12212194657349600D-01  1.45564346936571600D-01 -1.52407766780194900D-01 -1.98286013535191200D-01
67 23  9.58082142757056000D-02  1.02477799259485000D-01  1.84402569817139700D-01 -8.27363909613376000D-02  1.79935870369136200D-01
67 24  9.71295268465264700D-03  3.46888844289032200D-02 -7.55330013115529000D-02  8.98095694343570800D-02  2.72634021401240300D-02
67 25  1.42120851098763000D-01  6.35623967355347000D-02 -3.07333222724626500D-01  7.48700579305320400D-02 -2.01458180434305500D-01
67 26 -1.10509804095480400D-01  9.47250466889559000D-02 -1.03131489825189500D-01 -1.34285739684335400D-02 -9.01440588457204000D-02
67 27  1.03572632814153400D-01  2.71403586201266500D-02  8.76320005350360900D-02  1.22021193906891300D-01 -1.89316580691337200D-02
67 28  9.55767689614782100D-02 -7.66451108923444800D-02 -2.79000331748187900D-01 -2.22668850614687100D-02 -1.93472081487071800D-01
67 29 -5.93167914227751400D-02 -1.68117820502508100D-01  1.43368270793589500D-01 -1.66271470592037400D-01  2.15437058948909700D-01
67 30 -5.15636555629138300D-02 -1.17301352094664000D-01  1.81288325862729400D-01  1.55831347820772800D-01  1.63411428805732700D-01
67 31 -4.21612936455221000D-02 -1.45029076843623800D-01 -3.54747324648189500D-01  1.88178006589627100D-01 -1.31953192692893500D-01
67 32 -1.42920900690762000D-02 -1.99152566706683000D-02 -2.24887102593524700D-01  4.16651681762463900D-02  3.63068681507202800D-02
68  1  3.53483723540946900D-02  1.49703676677533900D-01 -9.33163902143667800D-01  2.48015667197521300D-01 -1.11011448684633700D-01
68  2  4.02688533787808800D-02  2.59842260719691800D+00  5.48696344402928700D-01 -1.23977474279103900D-02  1.06733130969003800D-01
68  3 -1.24380107917512600D-02 -9.42951201772524000D-02  1.36354834214079900D-01  1.13618664011008100D-01  5.91827914419427200D-02
68  4  2.33637201904327700D-01  3.88433493027278400D-01 -2.14836351135740300D+00  1.06377015337795400D-01  3.25406774262563500D-01
68  5  1.78412469973931700D-02  1.41031224631837300D+00 -1.12453621075913100D+00  2.36297244670141500D-01  1.86846898130359100D-01
68  6 -2.71253135115641800D-01  8.44062369852819200D-02  1.87396963610604200D-01  1.31754964921095300D-01 -1.24318345000376300D-01
68  7  2.95290711068238300D-02  1.22286721880743500D-01  1.41745784418206400D+00  1.43747220080780000D-01  1.93852940171324600D-01
68  8 -1.29472491843923000D-02 -1.30596853452734000D+00 -2.29622187999038600D-01 -2.69002737715802300D-01 -2.62568438599410800D-02
68  9 -8.34160515516611500D-03  3.45984490151089700D-02 -2.59468408044574200D-01 -5.39346885884405400D-03 -1.42791124652648300D-01
68 10  1.18130410451642300D-02 -8.40212695407033200D-03 -6.97216019701370800D-01  3.37612745736134600D-01  6.48425310980242100D-02
68 11 -1.37344407688777700D-01 -1.89608017823802300D+00 -4.19852719716193300D-01  4.96727814001936800D-02  1.40497305611903400D-01
68 12 -1.18271559900722700D-01 -2.22257457111805200D-02 -1.40559525197717100D-01  6.12378207657623500D-02  2.01073244190046500D-01
68 13  4.73075268751082500D-02  9.09435366218047400D-02 -9.55160334992341900D-01 -2.15702517983689600D-03 -1.95897374638661000D-01
68 14 -1.03071908713375800D-02 -7.43239825015634600D-01  3.85056266375371800D-01  2.15869392792414100D-01  2.86191411341142100D-01
68 15 -1.61107690465546400D-01 -1.25083720875597000D-01 -1.93573330344683900D-01 -8.69315032406192700D-02  2.27196150660223500D-02
68 16 -1.86843566824466600D-01 -3.32084944930943700D-01  2.48062333187451600D+00 -1.82925901815008700D-02 -3.35576675635045600D-01
68 17  2.87517089547655300D-02  1.87995697116045100D+00  1.17563096202625200D+00 -1.00509806793511700D-01 -3.75216005249512000D-02
68 18  1.32057548159141000D-01 -9.45359476341886600D-02  2.04158216531178600D-02  6.08694256617152800D-02  2.09100262169197300D-01
68 19 -2.21399528678485500D-02 -2.94423423783571200D-02  6.44834592275768000D-02 -6.44231491569345600D-02  1.57171384756982900D-01
68 20  2.18930109049409400D-02  4.00052424250979900D-02 -6.31952616702072400D-01 -3.66793592955857400D-02 -8.00823009683868000D-02
68 21  2.79957947277062700D-01 -3.33342789447270000D-01 -2.82117446410673000D-02  2.35412383468159800D-01 -2.25671358672076600D-01
68 22 -9.74102479608446300D-03  2.63857509152255800D-01  4.39022756905572000D-02 -1.97686427115024000D-01 -2.47124738186820300D-01
68 23  3.54131915855473800D-01 -1.07007177668653200D-01 -8.34776602721535900D-02 -1.71809600333598600D-01  1.27542781769989800D-01
68 24  9.88484714869009200D-03  3.88042176354264400D-02  3.87227939137085600D-02 -4.05879559652357600D-02 -2.11551348949280300D-01
68 25  4.24652232230252100D-02  4.09375320784226700D-02  4.62731411469558500D-01  4.81182542709084700D-02  4.87645730250457800D-03
68 26  1.12471512312819100D-01  1.70323707107450500D-01  1.19902726475383600D-01 -4.05785249651543800D-02  1.29625767707884400D-01
68 27 -8.90472427427295600D-02  6.77892465403606300D-03  4.96011725424452100D-02  9.94718997369672300D-02  1.27352620260645000D-01
68 28  3.08716727222945500D-02 -1.58224292982939600D-01  1.17230675162029400D-01 -9.41314584527625500D-02  6.05229008503448800D-02
68 29  1.66018874808698200D-02 -3.79135407758840500D-01  6.06916814929498900D-02  2.66152257364863500D-01 -1.91853187259435100D-01
68 30 -8.23715346235154700D-02  2.08570076118887200D-01  1.54003904733132700D-01 -9.48444079317662700D-02  8.36124389448093700D-02
68 31  7.31774691795847300D-02 -1.52522697449753200D-01 -1.44701758533791900D-02  4.57502337211631800D-02 -2.82955748097075900D-01
68 32 -2.72282869491992200D-05  4.67728266909163200D-01 -1.54229422655191500D-01 -2.29520887074830800D-01 -4.63677760141494700D-02
69  1 -4.31949120056741200D-02 -7.93284845413120400D-02 -1.76966698725309600D-01  7.23869801020436500D-02 -1.76650202601309100D-01
69  2  2.07179828252970800D-02  2.02451071114369000D+00  9.76457233608454300D-01 -8.47081501518418700D-02 -2.27560208703923400D-01
69  3 -3.44381289872866100D-03  2.31004021602651800D-01  8.14461944839540000D-02 -4.54812792996892200D-02 -6.69252622968783700D-02
69  4  8.54364922622122700D-02  1.85737344406997200D-01 -8.61850797100860200D-01 -4.84414604707019900D-02  8.98673173435524700D-02
69  5 -1.81059008663939200D-02  5.22091774703175000D-01 -1.21892772538881100D+00 -9.87807225413697600D-02 -2.83926424259937800D-02
69  6  1.22314022166562400D-02  1.61612402093369200D-02  9.99264092790189700D-02 -7.43024362537756100D-02  1.50408279258137500D-01
69  7 -1.00408767232367300D-01 -1.57772400653697200D-01 -2.26271440984200000D-01  3.01513300809295700D-02  1.55499434348463100D-01
69  8  5.34691209839740700D-02 -9.57494637772531500D-01 -2.78220972168618700D-01  1.47450042749336800D-02 -2.38421554392589900D-02
69  9 -1.15695710942037400D-02  3.54117265334639900D-02  1.68945903363929000D-01  8.57291474234963700D-02  1.77579853925253800D-01
69 10 -7.76556068464754500D-02 -1.46131203702608600D-01 -1.67877423192390200D-01 -1.45980862186681000D-01  1.29633599190296100D-02
69 11 -5.22896556690065100D-02 -2.28713631475417900D-01 -6.71851258635612000D-01  9.15146734228400500D-02  1.22036809199783300D-01
69 12 -1.21191777960463200D-01 -8.45031239319809000D-04 -5.64687086399379800D-02  9.33897255535818500D-02  4.26147559939338700D-02
69 13 -1.94412134917318500D-01 -3.82979795232245300D-01  5.97986366119937300D-01  1.74237980948160100D-01 -1.22950868491732600D-01
69 14 -1.63417496177755600D-02 -3.99536162397550000D-01  1.95067417626300100D-01 -1.58615612188451700D-02 -8.96702148400953500D-02
69 15  1.02838522172961300D-01 -1.31683073328667200D-02  2.49245490279700000D-01  1.00774429057269300D-01 -2.83644029876485900D-02
69 16 -2.38929646661179500D-01 -4.81474088711545200D-01  1.69745213337836600D+00  1.99898752290829200D-01 -1.36044890107888700D-01
69 17  2.92239870066775700D-02  1.12924492288146500D+00  8.20623083606435300D-01 -1.67839954519674500D-02 -4.13004195707581500D-02
69 18  3.05881080225332300D-01 -2.64580660654573900D-01  1.78405859358851100D-01 -5.53319407009793300D-02 -1.05336242155775900D-02
69 19  1.06493339811151800D-01  2.22650012814881400D-01 -6.62443976842049800D-01 -1.33332729455325000D-01  1.06177366570869800D-01
69 20 -1.18198849751435100D-01 -4.68828103346590800D-02 -4.80536192283770000D-01  1.21529993814883900D-01  1.09004519290991800D-01
69 21  2.40138940480004300D-01  1.24836428402762100D-01  1.90823315638478600D-02  1.59967490759997000D-01 -1.28305868575497900D-01
69 22 -3.16616221844994000D-02  1.49989217945912400D-01  1.30163060058388400D-02  2.60201055380699900D-02 -1.85432654718696400D-01
69 23  1.92879750933469700D-01 -7.44709621477299700D-03 -1.84279818039370700D-02  1.10226466540860200D-02 -2.58830652579789200D-02
69 24  8.26255678656964800D-02  1.46301025795611700D-01 -4.95396065896387500D-01 -8.08466147796192700D-02 -1.22564015677574400D-01
69 25 -1.14656024205281600D-01  4.75405155817164400D-02  9.39352446025298600D-02  8.69461888807849400D-02 -1.05387418050953600D-01
69 26  1.12600412854471700D-01 -1.10200149534067600D-01  1.15095448658452600D-01 -1.70434745140237400D-02 -1.00238111848098200D-01
69 27  1.17281586362122000D-01 -7.78278828589628300D-02 -1.55652279421284100D-02  5.10328314211142800D-02 -2.15629370722313800D-01
69 28  1.06982290768237100D-01  1.08647079954076700D-01  1.42475707527511000D-01 -6.51330991628690500D-02 -3.62170605486216300D-02
69 29  1.43466728733383500D-01 -1.28059198637619500D-01 -2.88402591653083400D-01 -9.97619356205530400D-02  1.00216862050649200D-01
69 30  9.34056672686428600D-02  2.77640984156642200D-01 -3.41079051316991700D-01  3.73120125345827400D-01 -7.49186318295724900D-02
69 31 -3.46880170536315000D-01  1.90238943659671800D-01  1.08707762579898900D-01  1.74605829646921600D-01  2.45153200895798400D-02
69 32  8.06927677870893300D-03  4.67906901962908700D-01  1.50744597822353300D-01 -3.56543961772958100D-01 -1.58543858868975100D-03
70  1  1.68146493177872200D-01  2.51737169026208700D-01  9.27090598915071300D-01  2.54020219677533900D-03  5.80056033582170600D-02
70  2 -8.77385427755721800D-03 -7.56766830607931500D-01 -6.39840994843537600D-01 -8.90190094849549200D-02  1.81609140144369200D-02
70  3 -2.77632468061514900D-02  9.60233279171534100D-03  1.77194838015853000D-01  1.22276963495143700D-03  7.99389669582759400D-02
70  4  8.80707375797826900D-02  1.81269131633920100D-01 -1.21950411796719700D-01 -9.93727510151468900D-02  7.42350781513993100D-02
70  5 -1.05037271726947000D-01 -7.48695476854423700D-01 -3.39708389421503200D-01  3.17363828466151300D-01 -6.42429309423480800D-02
70  6  1.19955675596145800D-01 -5.57127446537973100D-02  1.43954586893308900D-02 -4.65144276321435600D-02 -2.66807944899153600D-02
70  7 -7.98385471830830900D-03 -5.89552027554557900D-02 -1.74983931975862100D+00  3.90042763697663300D-02 -4.40297117167304700D-02
70  8 -1.52813277854375400D-02  1.43009538632619200D+00  4.45973973704246200D-01 -4.51821868716689300D-02 -8.41035105373318800D-02
70  9 -1.01550012836745400D-01  1.85653523374077000D-01 -8.42182503959323600D-02 -1.25608784390894800D-01 -1.67904291957331700D-01
70 10 -1.99231477532629500D-02  1.45799023216480900D-02  1.23117191753130100D+00 -1.15771374920882500D-01 -8.49721946543971100D-02
70 11 -1.07529121997662500D-01  1.15179344149143700D+00  8.93943265376830300D-01 -3.40796947560702200D-01 -4.53677644169917100D-02
70 12  1.99760377893351900D-01 -1.54392613476359800D-01  1.94665959100008800D-01 -4.73874687863407500D-02  1.39735568639123400D-01
70 13 -1.57896432534885500D-01 -4.48732136236084600D-01  1.44552767427929100D-01  1.21628801328876400D-01 -6.35726154850136700D-02
70 14 -5.96481100648638900D-02  1.44638334416554000D-01 -5.65193938760775100D-01  3.62657651828888300D-01  1.17353027682669400D-01
70 15  1.16897141840480500D-02 -1.29042741866716700D-01  5.90831624939959400D-02  3.08597743686583600D-02  9.19439692570065800D-02
70 16  8.40273275398257500D-02  2.37636629900945400D-01 -2.51521390566183300D-01 -9.96904874726788600D-03  4.13379028746191200D-02
70 17 -4.64974551684525200D-02 -1.49415742159676500D+00 -5.33681396027150100D-01 -1.36908602278524300D-01 -1.91321559301382700D-01
70 18 -6.38787997204208500D-03  1.97709439273424300D-01 -8.58158053586999000D-02  9.48595687571768700D-02  1.89510576314020600D-01
70 19  6.08442311826728900D-02  1.45186795912796800D-01 -4.78330196898319900D-02  1.57619902672416500D-01  8.42450260436125000D-02
70 20 -2.19607786835466600D-01  2.35395006276411300D-03 -1.17947591309312100D-01  1.50204378936823500D-01  2.03471921346918100D-02
70 21  8.02123835443633200D-02  3.23421664138409200D-01 -9.03487116017914600D-02 -1.51911052173718400D-01  6.00262718755783800D-02
70 22  9.18847802981401000D-02  1.28474222239055000D-01  4.37245583765798800D-02 -2.21767486011952400D-02  3.06556855227810700D-01
70 23 -3.58193535805907000D-01  5.16366805780962000D-02 -5.97344759707096800D-02 -5.60672595560515800D-02  1.30893600988343000D-02
70 24 -3.75719006885130300D-02 -1.01201870182989200D-01  3.84870717405900400D-02  3.15201591053558900D-01 -1.64755781078117100D-01
70 25 -1.77282621034102700D-01 -7.04431902704867900D-02  2.37102844529736900D-01  1.46108459110435400D-01  2.73405266548176900D-01
70 26 -1.40159494644690600D-01 -1.11129090493680100D-01  1.25785716278099400D-02  7.74423644433366200D-02 -5.65219017894030100D-02
70 27 -2.09204626539332300D-02 -1.18995657860438000D-02 -4.93119396680499600D-02 -7.69087609854365700D-02  7.78497058247528700D-02
70 28 -1.36806484248728500D-01  5.89567784239757900D-02  1.50574755399538600D-01  1.13555255268077600D-01  2.35441563907837400D-01
70 29  2.09812679663008800D-01  5.07065759794193800D-01  1.12603833058166700D-01  5.14913305271480200D-03 -3.33201851116653900D-02
70 30 -2.76119122295913600D-01  1.68436611361239500D-04 -3.32504838396231000D-01 -4.86616884162996600D-02  5.75353065285881300D-02
70 31 -7.92291028841211900D-02  1.63626338632951700D-02  6.16072352655798500D-02 -1.62509512041373900D-01 -9.15970240617100700D-02
70 32 -3.05316271357623300D-01 -5.29120806207232200D-01 -1.08646018911754300D-01  2.36860173263346000D-01  1.34749013139672400D-01
71  1  2.05791510974475700D-01  4.32886089955833700D-01 -1.82863355073722000D+00  1.37910796247212900D-01 -1.61856569572715600D-01
71  2 -9.56707822807006900D-03 -1.49229758758391400D+00  5.30520109393804900D-01  1.22520173424741700D-02 -1.39212610615437900D-01
71  3 -1.06140989861060900D-01  2.45353600476500500D-01  1.86678517381650100D-01  5.17841813650292800D-02 -3.09656099046687400D-02
71  4  1.02961574774644000D-01  2.13382730395852300D-01  1.14773147352975000D-03  1.38034131183107900D-01  1.76109902396918800D-02
71  5 -7.07435446494406500D-02 -1.56879231656513200D+00  8.65820860073182700D-01  8.49847586591560800D-02 -8.35411879586558500D-02
71  6 -1.73769491057087300D-01  2.57310679015742200D-01 -1.36946609734105600D-01 -5.43765410448673600D-02 -1.30875026560093700D-01
71  7 -1.53587350364379600D-01 -3.62687853697516400D-01  1.41310002799106600D+00 -4.17043632992263000D-02  8.21197840709247700D-02
71  8  4.15682471573592300D-03 -2.03141656591795800D-01  6.73666413386758000D-01 -3.77075537372515900D-02  1.01362678544933500D-01
71  9  5.22931440484208600D-02 -1.53655822593354400D-01  2.33590937319388200D-01 -6.79020179063376500D-02 -1.20102041206751000D-01
71 10  1.30198108343512500D-01  2.27320863886272700D-01 -1.88490892404156200D+00 -1.26300144223093500D-01  5.87897415841039500D-02
71 11 -4.54501605476056700D-02  3.97393447889223300D-01 -4.92055348387521000D-01 -2.03274145153458400D-01  1.91753969494009000D-02
71 12  4.83852002364298200D-02 -6.75605971858303600D-02  1.39925422162260100D-01 -4.69185057981531900D-02  8.76509823266130600D-02
71 13  1.49605207799891500D-02  6.29351335200173700D-02 -5.81823894854826000D-01 -3.96982516925252700D-03 -4.77009182127006600D-02
71 14  6.94125313115480200D-02  9.34657529947677400D-01 -1.20166783441147300D+00  1.04526425412774500D-01 -1.64437868205917100D-01
71 15 -1.85162846555769400D-01  3.49600714761685700D-01  9.88140794423261500D-02 -2.45620019398591700D-02  1.43496544668042500D-01
71 16 -2.95495288531937300D-02 -1.06786673386125100D-01  1.25026277934505100D+00  1.14573734849109600D-02 -6.67220598242795800D-02
71 17 -1.18915428248196600D-03 -8.15336652127847300D-01 -9.88783965018088300D-01 -1.08723014640816000D-01  1.52583580685673700D-01
71 18  1.62452568720427200D-01 -3.15036149406101000D-01  1.35268485386955600D-01 -1.18427445877738300D-03  1.42495891319382400D-01
71 19  7.35701731669979000D-02  1.69248853611635200D-01 -1.25214166188295000D-01  3.76720783153364900D-01 -5.22457105018520300D-02
71 20 -1.67688569077666900D-01 -6.08226185357722400D-03  1.49567721489085400D-01  2.73636697562953000D-03  2.37799223857998600D-02
71 21  6.05696750528020900D-02 -2.14893178890822900D-01 -1.11116520402691300D-02  2.97781934533018100D-02  5.80959352760963900D-03
71 22 -3.55877869809115600D-02 -4.11019427484209600D-03  8.01362826567597600D-02 -1.54173989799800400D-02 -1.94861684912049600D-01
71 23  1.31715259266435400D-01  6.31464256456142600D-02 -8.11523494120406100D-02 -1.01667772899092500D-01  8.98390965881709500D-03
71 24 -6.38897829112605200D-02 -1.30552486438678100D-01  2.59482082668306800D-01  3.79670136714572700D-02 -5.00844630561392900D-02
71 25 -6.60402775996038500D-02 -5.73098545767922000D-02  1.73273826030352000D-01  1.80404962607324500D-01  1.79071150283337600D-01
71 26 -2.13076661275918600D-02  2.50421959461277900D-01  3.51021711971443100D-02  7.89633317133137300D-02 -1.39577425757098400D-01
71 27  6.06140940437847800D-02  4.01247730969154900D-02  6.71005261898436200D-02 -1.89081393312725300D-01 -1.60355467402658900D-03
71 28 -2.19704077406588800D-02  2.35739624146854900D-02  1.01548466220537700D-01 -2.05827694359983000D-03  2.27906105932594900D-01
71 29  3.21555473671268500D-01  5.11621581152766800D-01  9.21465574492277000D-02  1.13756068134294900D-01  1.73049140412248600D-01
71 30  2.34485202012967300D-01  1.59285799046382900D-01  4.36646867659103000D-02 -8.18208021072741600D-02  1.98055278220479400D-02
71 31 -1.08615670629975200D-01  1.86118336992692900D-01  6.38705160287852000D-02  6.53043992184330600D-02 -8.93312202740330800D-02
71 32 -4.15490830827267400D-02 -3.67481636210696700D-01 -2.19673212008899400D-01  2.78766994986540600D-01 -2.25948951492002800D-02
72  1  1.41518932387304700D-01  2.34371826167881600D-01 -6.10506263013546000D-01 -1.76964840465984500D-01  1.31337994213444400D-01
72  2  2.11011656279406700D-03  1.81386388503080100D+00  6.55600662955745400D-01 -2.00192765443453300D-03 -5.85507990503744300D-02
72  3  1.48707586379431400D-01 -9.01567873290555200D-02 -1.14830433300158100D-01  6.85675229047555300D-02  2.13825631760037400D-02
72  4 -3.80826499988983800D-02 -1.47592705724468100D-01 -2.58027996265842000D+00 -1.08272683242045400D-01  3.95971284291132200D-01
72  5  3.78672959692429900D-02 -1.55587216019813500D-01 -3.94123043330532900D-01  1.92882013738725800D-02 -2.62487251661418900D-01
72  6  1.92800664055329900D-02  2.43207185255884500D-01 -2.09119481593304700D-01  1.67652789609055200D-02 -9.06280471660961400D-02
72  7 -4.92802960129259400D-02 -2.47250100920840500D-02  8.03518543860605600D-01 -5.09369988450816500D-02  1.06147342029704900D-01
72  8 -9.22430841765262000D-02 -5.95431967497420900D-01  1.03532020807872400D+00 -1.05265508809075200D-01 -2.45993715471151000D-01
72  9  5.82102577977046200D-01 -3.36108862505894300D-01  8.44935904982870200D-02 -7.70442694617340500D-02 -6.13664610899231900D-02
72 10  1.62201443247643900D-01  3.46138995188615800D-01  6.77994726713463900D-03 -1.30281120920079300D-01  2.64083156148569500D-02
72 11  7.90584505751877100D-03  2.11859385013481100D-01 -5.22939942749184800D-01  1.77100246345676500D-01 -4.04849593869911800D-01
72 12  2.19029416536836200D-01  1.85820177333076200D-01 -1.01313526186070200D-01 -1.16004374872211300D-02 -1.01596011679075600D-01
72 13  2.40154977211212300D-01  4.46614552524690900D-01 -1.56218641670351200D+00 -1.01040090404923600D-03 -8.65327036250269600D-02
72 14 -2.37110423451473100D-02 -3.42574558845370600D-01 -7.93027363418507200D-01 -8.35507906171718000D-02 -1.44815636546293400D-01
72 15  2.28562801829846900D-02  1.21959356363306700D-01  9.05978514271576500D-02 -3.33394666011977100D-02 -6.61914163367236400D-03
72 16 -1.36430399079426100D-01 -1.60604864062684800D-01  3.22001900332163000D+00 -2.18059039217923800D-01  6.49131327810377600D-02
72 17  4.90588634020158300D-02  1.04342381311111500D+00  2.05770999634792700D-01  1.46586675089497300D-02 -3.91158065914027400D-02
72 18  1.86432678112443500D-01 -1.47316871521039900D-01 -1.05275778124212300D-01  4.18380090141058000D-02  2.16711155833302600D-02
72 19  1.04411585414106800D-01  2.18244227391344200D-01 -6.00492339851297200D-01 -2.04830428917565500D-01  1.96136622146794400D-03
72 20  2.00937206594004900D-02 -2.81340322456014100D-02 -2.38729157681047200D-01  2.53761137951160000D-01 -4.74065602075768800D-02
72 21  5.03799676605984300D-02  3.87655835390328500D-02  1.76362497043618300D-01  1.52849594742861400D-01 -1.53180179489338600D-01
72 22  3.30584746476190200D-04 -1.69140933552769900D-02  5.72295844064411500D-02  1.47482755848822900D-01 -1.20025942286589700D-01
72 23 -1.76284336648894000D-01  2.96310278935484700D-01 -2.13386947148066400D-01 -1.00288197839033600D-01  7.39709522829320700D-02
72 24  8.02530701613130600D-02  1.47376294317284100D-01 -6.52840630460186300D-01  4.60953804431862600D-03  3.63439470685601900D-02
72 25  4.49000886554552400D-02  1.38393394208224700D-01 -1.28436922557352900D-01 -3.77409187165180500D-01 -2.98699283720916700D-01
72 26  2.27810467828489200D-01  6.84431752454150600D-02  8.28791822988308000D-02 -4.51006752774571100D-02  1.48458230343949700D-01
72 27 -1.03357555066491800D-01 -1.22475586781442300D-02  5.42563318464235500D-02 -4.10540181731791900D-02  8.71565824942639600D-02
72 28  4.64226422259402700D-03 -9.17988467168581000D-02 -1.63908944092927000D-01 -4.03087104972012200D-02 -2.60337264280267400D-02
72 29  5.35996174004667100D-01  4.60606063391531900D-01 -8.38437223284813200D-03 -3.14706783034699700D-01 -1.73898567218871900D-02
72 30  2.29156113364846100D-01  2.94464520102575700D-01  2.45751130758354800D-02  1.50141105732823700D-01  2.28398686886909500D-01
72 31 -9.89086289024865000D-02  3.09306994304425400D-01  1.05471385696111400D-01 -9.69695403406198300D-02  6.48878115240223800D-02
72 32 -5.27780906185171000D-01  3.09343306930510500D-01 -2.86246723152090000D-01 -1.68610811376883700D-01 -9.31594641926147800D-02
73  1 -4.22007814698247300D-02 -1.02914103614713700D-01  7.89101310678461600D-01 -1.36996063054387400D-01 -8.88528769452026500D-02
73  2  3.53551530774611100D-02 -3.54922528434088000D+00  8.17765326295764900D-02  4.02121054100466200D-01 -2.35937696435659800D-01
73  3  1.38214183519012600D-01  9.77235129166482800D-02 -3.84491583787375300D-01  5.38362349677610500D-02  2.88585510201939500D-01
73  4  4.63444861778454800D-02  1.39642994069029300D-01  8.26031247411019600D-02 -4.48247552189891600D-03 -5.74636883524825600D-02
73  5 -4.00015560970513400D-03 -1.65617273795669800D+00  2.64581876157595100D+00 -1.78410279001944000D-01 -2.02698892961900800D-01
73  6  1.72056670552219000D-01  3.06422224096813400D-02  3.92456001914563100D-02  1.99752515770820900D-02  9.79285502046111500D-02
73  7 -8.90612384696394100D-02 -2.80087915765801400D-01 -5.06717685580728900D-01 -8.74746081960218300D-02  1.35737715379845500D-01
73  8 -5.87778052293959100D-02  2.60236727864663200D+00  2.28396497880885500D+00  1.09114348837983300D-01 -4.90627331016766200D-02
73  9  6.09187222660199400D-02 -1.18559891643450500D-02 -1.43935853923515700D-01  1.32470542926523400D-01  6.84092711388626800D-02
73 10 -2.49226366433992200D-01 -5.22710144242117900D-01  1.07879762106546700D+00  2.27469220840808600D-01  5.83247153421551900D-02
73 11 -9.29459464030726500D-03  3.58677856243311700D+00 -7.14031218612390500D-02  2.33840867311271300D-01  2.02258167029910400D-01
73 12  5.80789441801570900D-02 -2.60337111210067000D-01  2.02240890363711700D-01  7.77164306571052200D-02 -1.01385804732535400D-01
73 13 -1.55936273417545500D-01 -3.14167491524010400D-01  1.55202518371411000D-01  8.37372833062947000D-03  1.61943609403802700D-02
73 14 -1.32954879885090100D-01  2.55829221242711600D+00 -1.79630283660157100D+00  2.24616625286762600D-02  1.01866202655111800D-01
73 15 -9.57217552701330700D-02 -6.14444738497806600D-03 -1.71935973769298100D-01  3.85955998874879400D-02 -1.32345351805507500D-01
73 16  3.39675245081227200D-01  7.12793844882163100D-01 -1.81235422727560100D+00  8.24362822123405600D-02  7.79632482582882800D-02
73 17 -6.69675245456819000D-02 -1.66384340416094100D+00 -2.59391853596617100D+00  8.05723440351426600D-02 -1.32370966041210500D-01
73 18  1.30588617866489500D-01  1.78234817471964800D-03  1.75647011430521900D-01  4.97114094483892600D-02  1.79118612019447200D-02
73 19  9.98581837547500400D-02  2.77974388101578100D-01 -3.09822667046112100D-01 -4.44719402761600900D-01 -7.24644818164140700D-02
73 20 -6.85294170162737700D-02  6.79337355148259700D-02  7.22705377928517400D-01  1.03879615167333200D-01 -3.32750668891314100D-01
73 21 -1.24705736122771700D-01  2.08143492119765700D-01 -8.16490288782414900D-02  1.06153539352305200D-01 -1.91354329415398600D-01
73 22  8.52007900630941000D-02 -8.10328820322178500D-03 -2.77953046791086700D-02 -1.67364880139345200D-01 -3.67526677254448500D-02
73 23  1.15125082293851200D-01 -7.83724145684063900D-02 -3.41028826641766900D-01 -4.44042474912791800D-02  4.22684583956757700D-01
73 24  1.31114300790029800D-01  2.94578495690063600D-01 -6.64246859228128000D-01  1.74428125837852100D-01  8.71397043865782800D-02
73 25  1.11764668982339200D-01  8.08864363963032500D-02 -5.73330615422982500D-01 -2.13371174422633100D-01 -2.31777782721910000D-01
73 26  5.35036223455946400D-02  2.68824471327784300D-01 -8.05870737790119000D-03 -3.90441944611229800D-02  3.44850199045339000D-02
73 27  4.55917455658898400D-03  1.96185682019979600D-01 -6.03821485616030300D-02  7.92481004227344000D-02 -7.64057366822980700D-02
73 28  1.27319695665437700D-01 -5.09139589831396400D-02 -2.51356405946821100D-01 -5.00923330687929000D-02 -2.19763028807312400D-01
73 29 -1.28215614394434400D-01  2.33924166023487000D-01  8.21375057398519800D-02 -8.01813296118452400D-02  2.43115942511420700D-02
73 30 -2.73674124777460500D-01 -2.34290002881937200D-01 -9.28193367413254600D-02  3.86543056972791600D-02 -5.98910000404623700D-02
73 31  2.94294619771422800D-01  7.46888419647165300D-01  1.95674983791813900D-01  3.18920578113082900D-01  1.10824238358113700D-01
73 32  2.67546808800759700D-01  3.69554069097580800D-01  2.57386383160092300D-02  1.94677166345469900D-01  1.45501170915398000D-02
74  1  3.42548168031208600D-01  6.36937966428435500D-01 -4.98141357003349500D-01 -6.90401609171532200D-02 -3.48652093010585100D-02
74  2  2.07403168682160500D-02  1.85474829538442800D+00 -6.01204133076738900D-01 -1.80546730707042600D-01  3.39958566435117500D-01
74  3 -3.62161623449233800D-01  2.22030570141151100D-02  1.58895287142700500D-01  3.40445066148212700D-02  3.00538253060251500D-02
74  4 -2.48524853346512000D-02 -7.63812397264300400D-02 -7.42978070516535300D-01 -6.94858863564873600D-02 -6.48592844263609900D-02
74  5  9.76539990892550400D-02  4.91910229455037000D-01 -1.60321436225127600D+00 -3.37742943064603800D-03 -1.79195082803530300D-01
74  6  4.83428305243570700D-02  1.30852252279172600D-01  5.29383696365907900D-02 -3.11794084623400000D-02 -9.41939155782611500D-02
74  7 -1.57632847006863900D-01 -3.67214341677583200D-01 -1.46566267882370200D-01  8.83977166638763300D-02 -7.81796344835784400D-02
74  8 -1.19202178176646800D-02 -4.08567691820907400D-01 -7.49888219630544800D-01 -3.13632559942705900D-02  6.07187512685854600D-02
74  9 -7.04551211065687600D-03 -5.36732391579278700D-02  1.51944068143244800D-01  6.48016093500923700D-02 -5.27302532800309600D-02
74 10  8.54042502967195200D-02  9.03935106729385900D-02 -1.06596392773441100D+00  3.30479500393728700D-02  1.50599774304376700D-01
74 11 -3.82230310121905400D-02 -2.41115735792389200D-01 -1.16946803813363100D-01 -1.19289216416128000D-01  1.80119397423788900D-01
74 12 -4.01568913587470000D-01  2.21449516163681200D-01  5.89120516510563300D-02  3.92681050014510200D-02  1.53151087110007200D-01
74 13  4.76084554634819100D-02  7.96032813670374500D-02  3.19553824896234500D-01  1.02679658120353200D-01  7.29177625461473500D-02
74 14 -1.79558014567173000D-02  4.85925552830029000D-03  6.71417604952804900D-01 -2.06345742136220200D-01  6.91275803479695500D-02
74 15  1.24124405648239000D-01 -1.93251985996208900D-01 -3.98366001967555600D-01  7.09406921433869400D-02 -1.36984355915874600D-01
74 16 -1.13634800790947500D-01 -2.72502122751200900D-01  5.04525835972743500D-01  1.89463102486556400D-03 -1.12707330613365200D-02
74 17  7.21107257533592400D-02  5.24211649757922700D-01  9.97338142163485600D-01  2.49091232734634700D-01 -1.67741257868872400D-01
74 18 -2.00582300992827200D-01  3.68323558861700000D-01 -3.62480493877222100D-01 -2.06936602887012000D-02 -1.09464221116431000D-01
74 19  1.00846756804889800D-01  2.42187657361468400D-01  2.09825071323058900D-01  4.01987813367226300D-01  7.11826609559685600D-02
74 20 -1.06546339290043400D-01 -1.34948698455498500D-02 -4.46221733781947600D-01 -1.09961248354232800D-01  3.06617914789940700D-02
74 21  1.19758093487193900D-01 -1.49118281295111000D-02  5.90822004253691200D-02  4.50891187561159900D-02  2.45504424809042900D-01
74 22 -2.90593543565159700D-01 -1.66768228973092100D-03 -1.27125644902750100D-02  8.39376027007734500D-02  1.96885047553791400D-01
74 23 -4.61783538288923400D-01  2.64898490735132300D-01  1.36884236016941400D-01 -1.69354688536067800D-02 -8.94957504648271100D-02
74 24  2.31268201015018900D-01  5.67344349834628100D-01 -2.34449262665591800D-01  2.47699218140796400D-01  6.99935163330354700D-02
74 25  2.91960246042983300D-01  3.84818013231188500D-03 -1.86024419294567900D-01  5.54866299995842100D-02  8.80550707718987200D-02
74 26  2.26920280389320400D-01  7.11083151666919300D-02  1.06276215160397100D-01  8.36176834246656200D-02 -7.08479547306201500D-02
74 27 -1.27697286940452900D-02 -1.30241581971729700D-01  1.18178372711273600D-02 -1.53360492542949500D-01 -7.75520620375739600D-02
74 28 -3.35059820401401000D-02  1.11058044077714200D-01  2.72698580504188500D-02 -6.78609924824974800D-02  2.34538056811621300D-01
74 29  3.51796259035597800D-01  1.37454878544239200D-01 -2.16229271904706400D-01  3.93797842874159700D-02 -5.05267802759406400D-02
74 30  5.91351998008434900D-02 -3.48686488352624100D-01  1.73181165679242500D-01  7.67143458065859300D-02 -3.58938882248744100D-02
74 31  1.46457215241932000D-01  5.78989515162689200D-01  1.24486634476261000D-01  1.20727483702625300D-01  1.48553280636463300D-01
74 32  6.48121001672046600D-02 -7.44332445846995200D-02 -8.40377547165571300D-02  9.72952339711008900D-02 -2.44887287608331100D-01
75  1 -7.63949878535565400D-02 -8.69782269380173200D-02  1.00514617525956700D+00 -7.18413863477503400D-02  2.80760310766292000D-01
75  2  5.97996290424380000D-02  1.59129745605132800D+00 -3.98439978765653000D-01 -1.35008771061964000D-02 -5.70511504658676200D-02
75  3  8.17887299690024100D-02 -2.47375795031344300D-02  1.86310379309986300D-01  2.68585865755398300D-01  2.39871923302563000D-02
75  4  1.30665374191514200D-01  2.73833817988845600D-01 -1.16011425926511100D+00 -3.34178152627386800D-01 -3.12175910214505700D-02
75  5  1.74014229157895700D-01  1.53616107930943200D+00 -7.33541074341911600D-01 -5.39654868934483600D-02  9.11725054457178200D-02
75  6 -1.93053350581467000D-01  1.01880845135749200D-01 -4.63270166032435200D-02  3.29434528999437900D-01 -3.40194398431191900D-01
75  7 -1.44048031031476900D-01 -2.96806553151905800D-01  1.87197711532298200D+00 -7.54072302257151500D-02  1.25919084902138400D-02
75  8 -9.56696992525348000D-02 -1.24133440547116900D+00 -1.29031974650841300D+00 -6.35720465707718400D-02 -1.89590492913608000D-01
75  9  1.86166203948051700D-01  3.42428896555668700D-03  1.48814013392714400D-01 -2.36911581886116600D-01 -2.46747019543387200D-01
75 10 -1.83826611199888400D-01 -3.68886857554346600D-01  1.01036437837865600D+00 -4.22757910245473200D-02  3.04434495090323000D-01
75 11 -2.93607336477840600D-02 -3.73609067945156700D+00  2.39622651233634200D-01  6.68479828235335200D-02 -9.20390164260325900D-02
75 12  2.05717159898661600D-01 -1.13678143472630300D-01 -4.07585803851478600D-02 -2.16657275605582800D-01  5.43904035469513100D-02
75 13  1.33074022816443800D-01  2.15846685880319100D-01 -2.50634117117822900D+00 -2.01223397715748300D-02 -4.07237272036479300D-02
75 14  1.10700035042289100D-01 -1.70251954140702900D+00  1.65246576916152700D+00 -2.10856532762126000D-01 -4.77499813969932100D-01
75 15  2.30117102932838300D-01  2.47382711037093100D-01  2.54729704184282400D-02 -2.18252825273990800D-01  1.71953648222830700D-01
75 16 -5.98437256249235300D-02 -7.79115763077299900D-02  1.61272107568591700D-03 -1.78554639196684200D-01 -2.51610073260839500D-02
75 17 -1.18409437780720000D-01  9.97947387222213400D-01  8.23582850175212500D-01  1.74575739337856900D-01  7.53612399859900500D-02
75 18  6.76838158869877000D-02 -1.43045055872976600D-01 -5.03374356323849200D-02  2.56529697012756500D-01  1.24979213344639700D-01
75 19  1.02462563958251000D-01  2.15463103573453900D-01 -4.33246344988247000D-01  6.56844232014191900D-02 -1.37303611234357700D-01
75 20  2.83570960230604900D-01 -2.86454652660141000D-02 -4.79655971874641300D-02 -8.87474271374262700D-02  3.17967994168668800D-02
75 21 -8.04209913342905800D-02  2.17198926155986100D-01 -5.21396332542114500D-02 -4.45370688225338600D-02  5.76828838969080500D-02
75 22 -1.31458150743739900D-02  1.00118648262001600D-01 -1.00793197272564600D-01  2.61904013504081900D-03 -7.29771684739094900D-02
75 23  8.96999768726914600D-03  6.40071707866412300D-02  4.12179910834211900D-02 -1.03251916162085100D-01  3.12411017817931200D-02
75 24  6.13886656148131300D-02  1.89583818942530100D-01 -2.27252055785439100D-01  9.40307254375019700D-02 -1.01475072814685800D-02
75 25 -1.67211551040917800D-03 -1.61690053071187600D-02  6.19466972123062100D-01  1.05447649198277500D-01  4.18358199207932800D-02
75 26  7.42055700885489500D-03  1.21731385802870000D-01 -2.21504450816727700D-05 -1.17596217353203400D-01 -2.50482085724119100D-02
75 27  1.42644425925615800D-01 -1.35034535874740900D-01  3.16395110583376000D-02 -6.38852602806424800D-02  3.62416977430089900D-02
75 28  1.46360671907536300D-01 -1.82602369650545400D-01  3.50149388170701600D-01  8.88253604067771000D-02  7.17696848761547000D-02
75 29  1.73291518114397000D-01 -3.79565135640013400D-01 -9.93093664576899400D-02  4.11702645624652500D-02 -1.51797547420038700D-01
75 30 -1.27204348116009000D-01  2.64967733620332900D-01 -2.54043037479793100D-01  1.85766544220731800D-01  1.29857137837340300D-01
75 31  1.86959965117839200D-01 -1.53788393709705500D-01 -1.11507770708488400D-01  2.55712230614963200D-01 -1.57491273234773400D-02
75 32 -6.81109467487373800D-02  1.92914577150830600D-01  9.61872271234093200D-02  8.49713948774349200D-03  1.28160524992048900D-01
76  1  7.63647793673813000D-02  1.33511410963621800D-01 -8.11811117595144700D-01 -2.33125462409631600D-01  5.51239393936617000D-03
76  2 -3.38345770259348900D-02 -2.26776522151489300D+00  1.99869352116998300D-01  3.25371998749987300D-01  1.12080079963454000D-01
76  3 -2.03139535985865100D-01  9.10594560224100400D-02  1.25616283006163100D-01 -8.02665334349560300D-02 -3.49987851265955400D-03
76  4  8.02279020416343100D-04  4.58015107332586600D-02  1.67211327676397800D+00 -5.16790065317803100D-02 -6.72437373504216300D-02
76  5 -6.28662368247828000D-02 -1.96266758487729000D+00  8.53653981455899400D-01  2.79307312026115300D-01 -6.29203186997303500D-02
76  6  1.23379521321450300D-01 -6.04592026217195700D-02  7.81523403998530400D-02  3.00616300407235900D-02 -1.77137448240212200D-01
76  7  1.65572702686028100D-01  2.98343829120877800D-01 -2.04747022126466600D+00 -3.22270097747095000D-01  2.24300217803798800D-02
76  8 -1.08684331345346100D-02  2.22383783110452900D+00  1.03885173480775700D+00 -2.90966903255999400D-01  2.04826635706453000D-01
76  9 -3.80339705747210300D-01  1.75513070040756800D-01  7.82135678358761300D-02 -1.38925133703334000D-02 -2.80028363804851400D-01
76 10  1.77760030255485100D-01  3.17145023243178900D-01 -3.78934335572365800D-01 -2.02431682279952200D-01 -8.76625871167478100D-02
76 11 -7.98500410764980000D-02  3.72912766434093500D+00 -6.24330626559069200D-01  1.87922073104912800D-01  2.42072601624917500D-01
76 12 -3.18656814950984500D-01  7.65842133260675300D-02 -2.28447885693308800D-01 -9.56320286631704800D-02  1.19519457632475100D-01
76 13 -2.40307226174702200D-01 -4.19290434794621700D-01  2.95368810599124300D+00 -4.85734069074602500D-01 -2.89564476945134000D-03
76 14 -1.80709798494957600D-02  2.77715768033293300D+00 -9.88908330309345300D-01  1.11738883616377000D-01  2.07410436713387000D-02
76 15  1.77254997259126300D-01 -1.97996040930463700D-01  7.08022508158002000D-02 -8.06688705897427600D-02  1.91332279809159000D-01
76 16 -4.87756977588247200D-02 -1.33421333723482600D-01 -1.35250619295822600D+00 -2.54207601071552500D-01  5.09448569519206200D-02
76 17 -6.35156596282943700D-03 -1.00661094974490500D+00 -7.30328113239912600D-01 -2.98376097472882000D-01  5.41256007906098200D-02
76 18 -5.33702496182771500D-02 -7.55351172334652400D-04 -6.21096390837282300D-02 -1.07019021970029500D-01  1.27702874372042500D-01
76 19  1.56573299206296400D-02  5.37336333261516200D-02  2.33132065878577000D-01 -3.46719153635097000D-01 -1.17913154377415700D-01
76 20 -3.28338281095435100D-02  5.77011841398220200D-02  4.70860781379167700D-01 -5.14806753931924600D-02 -1.75146422489122700D-01
76 21  6.55671535164837200D-02  1.08523945853885900D-01 -1.69053133543261700D-02  9.74070180826647100D-02 -1.16340302126364600D-01
76 22  1.89332840437005800D-02  4.74657017644498700D-02 -4.16735732332231300D-02 -2.11703335562437700D-01 -9.71456968496184800D-02
76 23 -5.74922258355216400D-02  1.54637922685139100D-01 -1.99936348216221900D-01  1.04858740040533300D-01  2.54205105319006900D-01
76 24  1.60706934980508900D-02  5.17691737247858100D-03 -1.96880836457242200D-03 -5.60498768740002000D-01 -5.32654216200615900D-02
76 25  1.72550049167567200D-01 -4.31548726618187400D-03 -5.23634611564163600D-01 -3.36838819836459000D-01  3.40922964330457000D-02
76 26  3.44185370201320500D-02 -1.81028929482609100D-01 -5.32888092716964100D-02 -4.48425168106822400D-02  4.27000021289615300D-02
76 27  2.14251468172002600D-03 -2.27615986699757200D-01  1.53307725906310100D-02  1.90569001024987900D-01 -6.79833056710013000D-02
76 28 -2.55241429399935800D-01  3.23224735070936900D-01  2.00417505585102400D-02  1.17565180951627800D-01 -8.14568604589005800D-02
76 29  3.23880503093220800D-02  4.79378271729544900D-01  2.20735776747974900D-01 -1.80282254067209300D-01 -8.57033705341916200D-02
76 30  3.76608532415653400D-01 -9.75417816064445400D-01 -1.19785726752797300D-01 -7.01812016998634700D-02  6.89827098279973800D-02
76 31 -2.60139901713273800D-01  1.05948892333383500D+00 -2.13266860961436100D-01  3.74376526785275500D-02  3.19169687774082300D-03
76 32 -1.72742600213289500D-01  2.66401436642042600D-01  2.64159338879699300D-01  9.42683669154948800D-02  6.26698224173337600D-02
77  1  7.09436242753710100D-02  1.13453003861163700D-01 -6.32092482588139100D-01  7.49718279650623800D-02  2.12697527222277800D-02
77  2 -1.52823384852996800D-01 -3.16209307194214600D+00 -3.11983704845810800D-01 -9.96368145464271700D-02  4.92336457227126500D-01
77  3 -4.41590628700225800D-01 -5.07458285269007400D-02  9.63351224185006300D-02 -1.40180299509807200D-02 -1.16552278318895500D-01
77  4 -2.83924127896519700D-01 -6.21790813371555700D-01  1.32448489014930400D+00  1.26144444899353000D-01 -1.01450020600724400D-01
77  5 -1.23184504069857400D-01 -2.18966667676337700D+00  1.36782796463904600D+00  5.91080340374447900D-02  1.69187732956350000D-01
77  6 -2.87978567860353400D-02 -1.40389876170314400D-01 -5.55814310973959900D-02 -7.07256846288900800D-02  1.69577370441410800D-01
77  7 -7.41123815656931100D-02 -1.97814153952827200D-01 -2.70611312977360400D-02 -3.24145941069692100D-01  6.60653088505163100D-02
77  8  1.04905892588271500D-01  1.75002369430889200D+00  1.31058923430442900D+00  1.04418741419722800D-02  7.75225177327504200D-02
77  9 -1.38678244980046300D-01  6.11557272472945700D-02 -2.09214991501898700D-01  1.18928383050121300D-01  8.81989741211855300D-02
77 10  9.82483593152948900D-02  1.56498694225240700D-01 -6.62931573688295400D-01  1.88155967948472100D-01  3.23661187998516500D-01
77 11  1.31096972003396300D-01  2.09745865860196800D+00 -2.54202176708756700D-01  1.72510703816866900D-01 -7.91319828868106000D-02
77 12 -1.50251673249774800D-01  2.29383656136586000D-01 -8.65588276701609500D-02  3.70002914821624200D-02 -2.20469261756129400D-01
77 13  2.32858489145457700D-02  9.24138688424404200D-02  3.91967471863646400D-01 -4.70375451694304800D-02 -3.00032944048284200D-01
77 14  9.81336887282225900D-02  1.71476136460960800D+00 -1.04024706403900800D+00 -1.34912621215080400D-01 -1.72670181543798000D-01
77 15  8.76478685986174200D-02  8.50223129451809500D-02 -2.96235970142566400D-02 -1.72189363213819600D-02 -2.08221363577948800D-02
77 16 -4.32444306966418100D-02 -6.30500311085756100D-02 -6.99739427549767700D-01 -4.08056100561463100D-03 -1.47914969503544600D-01
77 17 -1.33270230305044000D-01 -1.98860425732444100D+00 -1.35520599979787000D+00  2.31655929919813400D-01  1.57015274235573600D-01
77 18  3.61384484861943200D-02 -1.93153722721769100D-01 -2.17041043603941800D-01  3.08242511041844700D-03  8.19351678665607000D-02
77 19  1.75978972249386400D-01  4.03279942535301000D-01 -7.46918780170205400D-02  3.16969479381255500D-01 -1.66166001227780800D-01
77 20 -1.11365314425858500D-02  8.79578755822735300D-02  6.32414883698103700D-01 -2.57016126534486300D-01 -2.50844127805328400D-02
77 21 -1.59509680892792800D-01  6.61370197136899200D-02  6.24154853294756100D-02  6.46185064635645300D-03  1.33686859709794500D-01
77 22 -1.40148710356151100D-01  7.25649578180066100D-02 -2.17853347556288600D-02 -2.33803134182482700D-02 -8.28779076179394800D-02
77 23 -2.15799598702204100D-01  2.98677506320143000D-01 -1.51102932906036800D-01  3.27113160760338600D-02 -1.57696537189458000D-01
77 24  5.04176716074763900D-02  1.77267412211161700D-01  1.75199785843873300D-01 -9.48009828538459900D-02 -5.57093310553246000D-02
77 25  8.58839218086081800D-02 -3.47760938197992600D-02 -2.62363769761099800D-01  3.97062578709930400D-01 -1.11636332825708000D-01
77 26 -5.74971630942892100D-02 -2.64641089860425100D-01 -8.09015379873588700D-02 -5.07800766712861400D-03 -1.09387073104867400D-02
77 27  1.60167149776151800D-02  1.76965502075145100D-03  1.40229444212364500D-02  4.00801480156164200D-02  1.26430234024226100D-01
77 28  5.54425088084173300D-02 -1.81872742832643500D-01 -1.81469533498122000D-01 -5.42937444631958500D-02 -2.78830473928360100D-01
77 29 -3.17644955548199800D-02  7.68890592671798400D-01 -2.09178100769707900D-01 -1.85598048022292700D-01  2.70958263408326700D-02
77 30 -1.39435938638342700D-01 -1.71989693437474300D-01 -2.61969211864460900D-01 -1.78277067528203800D-01 -1.77717509340325900D-01
77 31  7.08351906939653600D-02  3.92665864795970800D-01  4.60556844176555100D-02  1.38387643232113400D-01 -5.99711162274718600D-02
77 32 -2.86402733614149500D-01 -6.24739453688513200D-01 -4.37474642939675100D-02  7.12571116241334000D-03 -7.83655341058904500D-02
78  1  3.49017543012649500D-02 -3.92587548626260000D-02 -9.62743847649019900D-01 -7.59665756826580600D-02 -3.21704072188260200D-01
78  2 -5.09683636232201800D-02  2.87953745613317400D+00  1.41917270668101400D+00  3.60693118459493600D-01  1.88725971695636500D-01
78  3 -4.19133954356343500D-01  2.30407982660707700D-01  8.88647424602644800D-02  1.34736538531235700D-01 -3.35222561491184200D-02
78  4  6.62709323419665600D-02  7.77782494089510500D-02 -1.73156418772251300D+00 -8.15732458810445200D-02  2.30216612262232600D-01
78  5  4.60700525854451200D-02  1.04827407637731400D+00 -1.38071505850133100D-01 -3.03891767961401900D-01  3.50564680390966700D-01
78  6 -4.92622482632485200D-01  1.42057802241517800D-01 -5.20865194651238100D-02  1.01943676409888200D-01 -1.28360393017587700D-01
78  7 -1.50954946253001600D-01 -2.21517532471212700D-01  3.01613225039497300D+00 -4.89470268342561100D-02  4.62632472671895300D-01
78  8  9.34027065708642100D-03 -1.12886284335009200D+00 -4.65828543376869900D-01  1.55992146826024200D-01  6.10322977915279400D-02
78  9  1.74293872898541800D-01 -2.35326170690068700D-01 -1.19874397898861300D-01 -1.02483413069221000D-01 -2.98048392630985000D-02
78 10  1.78932700253974800D-01  3.42876653773059100D-01 -6.52376495067263800D-01 -1.75560820020083400D-01 -1.77142567674153600D-01
78 11  9.57636147835922000D-02 -1.77932475958742900D+00 -7.02794244881130300D-01 -3.54686845225311700D-01  1.97659379400594400D-01
78 12 -1.42452493723875400D-01 -5.52068856767190700D-02  3.63332417557690700D-03 -1.29151329259713200D-01  2.12026542924089300D-02
78 13 -1.38096096043278800D-01 -4.05989875765323900D-01 -1.13180974673839600D+00  1.72496086731357100D-02 -1.96780337245736500D-01
78 14 -2.70204063504957200D-02 -5.17249538969142200D-01  8.91037730635303200D-01  1.63820900204142500D-01  2.22134038485714800D-01
78 15 -4.01761150477634400D-01  1.79627111991917100D-01  1.52992205614013800D-01 -1.88284443828645900D-02  1.16534806316901500D-01
78 16 -2.19126101467976100D-01 -3.84920334960050500D-01  3.20767426048074600D+00 -1.22493933840751000D-01 -2.36178210593123600D-01
78 17 -2.36499382117693400D-02  1.94525048828423000D+00  5.65726432258912300D-01 -2.62932110422964900D-01  1.29624272411767000D-01
78 18  2.53021664274866900D-01 -3.82645936686632200D-01 -1.77849114800780400D-02  1.42047672360911500D-01  1.93132830794263000D-02
78 19  1.13485591825881400D-01  2.50028068021741100D-01 -3.36529436639797600D-01 -6.23961601417816200D-01  1.95759360060456500D-03
78 20 -2.51016039670941300D-01  5.61097671648089600D-02 -5.12057904485338700D-01  5.76931503403213000D-02 -1.76473911685926700D-01
78 21 -1.02323350176735800D-01  2.73066755560968800D-01  8.84841201391221700D-02 -1.92648622909139900D-01  3.25622256220155600D-01
78 22 -1.32973633311016600D-01  1.14897375526648500D-01  5.62453259882248200D-02 -2.85713961561835600D-02  1.35587266889052700D-01
78 23 -1.36752337681580500D-01  1.16507079252834200D-03  1.81880520716491000D-01 -1.61622428555103700D-01  7.10052203431798800D-02
78 24  2.01218225240113100D-01  4.09538718169987800D-01 -8.67001085966130500D-01  2.03948804457598400D-01  5.96889388211350700D-02
78 25  1.22872647664538300D-01  2.92973032752191500D-04  2.19895575991025400D-01 -3.63260710703576100D-01  5.74906872303779000D-02
78 26 -1.36009489895911400D-01  1.24721750132990400D-01  1.03759862945018800D-01  2.05848748433358200D-01 -6.98840503691821600D-03
78 27 -1.98860343396439900D-01  4.02730897114781500D-02 -1.67857079239438000D-01  2.02667948932019400D-02 -8.19090117615095300D-02
78 28 -9.11297035774563000D-02  1.73038715338965900D-01 -8.18644118391610700D-02  2.29461189538549900D-01  7.36833400875303300D-02
78 29 -6.58930632809468400D-02 -3.55855899948036100D-01 -5.73596031375566100D-02  3.16986159047509700D-02  1.18403621578796900D-01
78 30 -9.36703995908742100D-02 -2.00350514179963600D-01  3.25413893597401000D-02 -1.24177769527728800D-01  6.25569044612365700D-03
78 31  4.77054534523655700D-01 -2.73184104410651600D-01  2.38659972432169300D-02 -5.05009545309618000D-02  1.30606653565307100D-01
78 32 -2.16887389185306100D-01  5.74032470653915500D-01 -1.74188633151127700D-01  5.57019987782955700D-02  2.23558164245620900D-01
79  1  1.32973292252860500D-01  2.42884081539821000D-01 -2.08974192489460700D-02  1.97985073425694600D-01  7.44546914783809100D-02
79  2 -2.37830193451932400D-01  5.41229402098263700D+00 -3.20186192524003000D-01 -6.84227746612060300D-03 -4.23024335191704600D-02
79  3 -1.55030840272978400D-01  1.97333273792148600D-01 -1.22360750027624800D-01  1.43404490610763900D-01 -1.48360448381858400D-01
79  4  2.24408407817451700D-01  4.01168625690852600D-01 -3.13146055578706500D+00 -1.12031626974922200D-02  2.37441950209260200D-02
79  5 -2.18169924366419500D-02  1.96925388606394700D+00 -3.08280116539307400D+00 -2.46251753311132600D-01 -1.71363478804298900D-01
79  6  1.10944334977148700D-02  1.60269045306583000D-01  1.22891958264194500D-01  1.49188426762485200D-01  1.78436378932487100D-01
79  7  3.89559152737846900D-02  1.97252251179358900D-02 -1.36230488497021900D+00 -2.03380968695440000D-02  1.27669773611736300D-01
79  8 -3.15674115676882100D-02 -1.19993373962209000D+00 -9.80252590640985100D-01  3.39987433098144100D-01 -2.97907426049916000D-02
79  9 -1.08040802630050100D-02  4.05948228679991800D-02 -4.81910866085557300D-02 -1.00568234728442300D-01  9.41474346024420200D-02
79 10 -1.84788021980543900D-01 -3.59570775224857100D-01 -7.00685537499014900D-01  2.53594911796353000D-02  2.24655006838203700D-01
79 11  1.53097868665235600D-01 -4.82364875017101800D-01 -3.97693809570922700D-01  7.70845979017488900D-02 -8.51776667476444400D-04
79 12  7.13345913278214800D-02 -7.04828146603440200D-02  1.25260238237216700D-01 -1.14280921072467200D-01 -1.92317132661646700D-01
79 13 -1.23313346115801200D-01 -2.10286125927731800D-01  2.21189995689523600D+00  2.92375691641082500D-02  1.72040746453511100D-01
79 14  1.72169523417568700D-01 -9.89410112578322900D-01  8.10673257485412900D-01 -3.33513900652526800D-01  1.36874626126369400D-01
79 15  4.83346816884187100D-02 -1.85209307814789400D-01 -3.09350996000509200D-01 -1.51180364216928100D-01 -1.18093696112503800D-02
79 16 -1.59261242447131400D-01 -2.33387392515211800D-01  2.62814184131448900D+00  1.84238491279797300D-01  3.43972630705191500D-01
79 17 -2.70734693458083900D-01  1.68350037485841700D+00  2.93891300234712100D+00  4.71581626007536900D-01  2.02580414821729900D-01
79 18 -8.62914340848866400D-03 -1.93951271413240900D-01 -1.67922447081939500D-01  1.72429547906351800D-01  9.86849821025750600D-02
79 19 -3.33225269253603100D-02 -6.80006972902101200D-02  3.75423126426200700D-01 -1.22008803739770600D-01  1.52412184919019900D-02
79 20 -1.12050725325188400D-01  8.35453954877904600D-02 -8.09758682561041600D-01  9.99859224389216100D-02  1.85364015780787700D-02
79 21  9.92120740596751900D-02  5.64181734280411700D-02 -1.24714017190463100D-02 -4.82371356171523600D-02  7.05450344416914000D-03
79 22  4.11826321729815000D-02  2.59712633249551700D-02 -9.81768702282798400D-02  1.42130637251273900D-01  9.14244537529282500D-02
79 23 -6.52118343510599400D-02 -2.62126194018676500D-02  2.75137040758149800D-01  1.99053754649732200D-02 -3.01420753096830000D-01
79 24 -1.04175050782464000D-01 -2.24653257806936400D-01  2.07090225032706100D-01  2.46894674022898200D-01 -1.76919074970342100D-02
79 25 -4.80008178859618700D-03 -6.38864644376304100D-02  5.93790943149320800D-02  2.06185989581172600D-01 -3.92577284940637300D-02
79 26  5.02213304491987400D-02  3.93443043856178900D-01 -9.83947596851574000D-02  1.19076606387669800D-01 -5.20750079553038800D-02
79 27 -6.70015984323656000D-02 -3.05483560610748900D-02  6.27001146648400000D-02  2.03132434183419100D-01 -2.43627788362685800D-01
79 28  3.03661684116583300D-01 -6.00338957538971700D-02  1.65739586189478700D-01 -3.01801617642965000D-02 -3.62574224801863500D-01
79 29  2.26520380526620200D-01  3.40783818602320800D-01 -9.60645796712008800D-02  4.43233596663124700D-04 -3.73705989829949600D-02
79 30  4.16319843735162100D-01 -3.22371111618512500D-02  1.88528802364916200D-01  9.33010496455276100D-02 -7.34777850959965900D-02
79 31 -1.91310365022390000D-01 -4.57900693667129200D-01  1.16984147657077200D-01 -1.91644122856629400D-01 -2.78582356814371100D-02
79 32 -6.01785960238512800D-01  8.68815597388591500D-02 -2.85472133614852200D-02 -5.36856975493769800D-02 -1.45736741771337700D-02
80  1  4.82478583141695800D-02  1.93948137014644100D-01  1.61027845781283600D+00  2.47743941309800800D-01  1.40192207218502100D-01
80  2  2.01755616823531500D-02 -1.41940146724361500D+00 -3.33260437699195700D-01 -1.62029798243470500D-02 -1.59434880028376500D-02
80  3  2.20210438983267400D-01 -2.04266950980424600D-01 -3.13736162499247500D-01  1.58839042205641900D-02  1.16965763469897200D-01
80  4  1.56059690260739000D-01  1.74720162999403400D-01 -3.47900133957600800D+00  1.41610240353158100D-01 -5.50195429367017100D-02
80  5 -3.48700789791591300D-02 -7.78157114869577200D-01  2.15380920341538800D+00  3.84433854119024300D-02 -2.54872406480301700D-01
80  6 -2.12335745767262400D-01  4.67208152247562300D-01  3.35407307731075700D-01 -6.78824204854319400D-02  3.36694032165752200D-03
80  7 -6.13909598946354400D-02 -9.51122935429647600D-02  1.05703252307884200D+00  1.05615186071993600D-01  1.61254254125408500D-01
80  8 -7.78603934693817900D-04  1.70039170309206100D+00  3.21834481822209600D+00 -9.69147727524454500D-02  2.47801719662124000D-02
80  9  4.48433376940005400D-02 -6.96235096602137900D-02  2.19275809022139000D-01  4.94627226944897300D-02  4.74734800864434400D-02
80 10  7.51238079334995800D-02  1.63510026693011000D-01  1.56053882504490600D+00 -5.70681449222942900D-02 -2.41965784428317200D-01
80 11 -5.91524945341364500D-03  3.65272329182846000D+00 -1.84342778429248000D-01  1.31704741762371400D-01 -8.61165134112731700D-02
80 12  1.82276482184024500D-01 -9.61599687727497500D-02 -2.43089420203135000D-01  6.98149822428785200D-02  6.48360202539109000D-02
80 13 -5.20796151812195900D-02 -1.96535727598441900D-01 -1.97951526139710000D+00 -1.21970515951126300D-02 -3.99001478602952200D-01
80 14  5.43375078280034000D-02  1.35527634911255100D+00 -3.63799990567562200D+00 -1.47490870756686400D-01 -6.05740564575449400D-02
80 15 -2.86298541651553400D-01  3.46872598109095300D-01 -1.10460161216012100D-01  2.60356794093827600D-03  1.43110244083026800D-02
80 16 -1.73715181122172500D-01 -2.44426601404037800D-01  3.35984710368798300D+00  1.19085008978783500D-01 -2.40781843001139600D-01
80 17 -5.54815988506518400D-02 -1.63330883960171400D+00 -3.25503212713253600D+00  1.50076510514726200D-01 -2.36280386518923700D-01
80 18  4.95475503257779600D-01 -2.59195116738855900D-01 -3.32800591100602300D-02  3.37064410241362100D-02  5.35621125139748100D-02
80 19 -9.92704159175669100D-02 -2.85942701848527900D-01 -1.26416380009883200D-01  1.12343046910203300D-01 -1.94766298846643100D-02
80 20  1.42101209803414200D-01  1.52480739457370700D-02  1.53547416650435300D-01  2.87271042277024400D-01 -7.32236546450335400D-02
80 21 -4.75707310615366900D-04 -8.89235699838427800D-02 -1.38537509864859500D-02 -2.48774907984575600D-01  9.13552272859976200D-03
80 22  2.39639385255976600D-01  5.66038583081229300D-02 -4.08703786667831600D-02  6.77598464019704400D-02  3.42484420687406700D-01
80 23 -1.33403398997944400D-01 -2.09081021689460300D-01 -2.89229322245958400D-01  2.18875358606350000D-02  6.17212014122662800D-02
80 24  8.75152876155490400D-02  1.58998116799512000D-01 -6.67763358365822800D-01 -7.33369865793627800D-01  1.63374147367414900D-01
80 25  4.53667850829388300D-02 -1.75104898075473100D-02 -8.29346041077878800D-01 -6.31837836738271500D-01  4.46288761633816700D-03
80 26  2.92049406862364500D-01 -4.54212219969559300D-01  2.40024578804340400D-02 -4.34434878577743700D-02 -9.38818998384663200D-02
80 27  1.37325387696241900D-01  9.83423952305788100D-02  1.16670435860342300D-01  1.03099416421106600D-01  1.46697541528752900D-01
80 28 -3.05425395413901000D-01  1.58727853885148000D-01 -3.83615517387314300D-01 -1.72186164052686300D-01 -8.84448591623731600D-02
80 29  4.96096000100259800D-01 -2.81866138483481000D-01 -3.61973635085425000D-02 -1.05951066997432000D-01  8.26329593193563100D-02
80 30 -1.49120851111556800D-02 -2.07166753991799900D-01 -4.74828644438506400D-02 -2.77961342332676200D-01  7.41240142270907500D-02
80 31  1.95313810420205000D-01 -5.85430032034318000D-02 -1.10478632405647100D-01  1.99946267272336000D-01  1.93916561265063300D-02
80 32 -3.09190976026268600D-01 -2.05437931060380800D-01  2.64024386814187200D-01  1.99965815157166000D-01 -3.29120837272360700D-02
81  1 -3.47449338905474900D-01 -6.81471285521562200D-01  4.36673462737873700D-02  6.07987517152963400D-03 -3.60263100207099000D-01
81  2  5.24048689237030100D-02  9.58109084316744600D-01  3.30091604038674200D-01  3.64448137071675800D-01  1.30463338501924400D-01
81  3 -8.92738548496149500D-02 -4.11894836523081300D-02  2.55654196993708700D-01 -1.07248715430819800D-01  3.23294887071981500D-01
81  4  1.62643806309410600D-01  3.10116996831327200D-01 -1.50993946598400700D+00  5.14603220040337000D-02 -1.33220685172955000D-01
81  5  1.19527848486666700D-02 -5.68131391494028200D-02 -3.38742086862679000D-01 -2.47145843025103400D-01  4.89036695521570000D-02
81  6  2.06573357333315400D-02 -6.95610052854895200D-02 -3.85928393964752700D-01 -7.92796370504534700D-02  1.64525265181178000D-01
81  7 -2.42698639376517900D-01 -4.61466367863140700D-01  1.85099758883219500D+00 -3.24272378351368000D-02 -8.34942562521339000D-02
81  8 -4.87439249630144800D-03 -1.40021966087558700D+00 -1.00760082799579200D-01  2.69768808978832400D-01  1.38415398362514100D-01
81  9 -1.58655241629589600D-01  2.02398432670755100D-02 -8.29857414986630400D-02  5.99849726539857700D-03  1.41788246436838500D-01
81 10 -5.79827759694262300D-02 -9.71029293470370800D-02  8.82737320478806300D-01 -1.50199290668303500D-01 -5.32923509401384600D-02
81 11  1.13900559819850900D-01 -1.70756757639774100D+00 -3.62349661166627600D-01 -2.33545717435655600D-01  3.07569409055374900D-01
81 12 -3.83153202766114500D-02 -2.69254088778764400D-01 -4.17610507015334600D-01 -1.04934526224525300D-02 -2.15848844916586800D-02
81 13  5.05498813313960200D-02  2.98144650324019000D-02 -1.09982964657691000D+00 -2.78537608310730500D-01  8.99600767113440800D-02
81 14  1.76642757627546300D-02 -9.93738474305263000D-01  3.78804942646767100D-01 -1.91209997291671900D-01  7.41422590057036800D-03
81 15 -7.68593335963567100D-03  2.71707459064325400D-04  4.09575480234300300D-01  5.14060877017608700D-02 -1.08747149926169100D-01
81 16 -3.53999730834194200D-02 -9.43833749235191100D-03  1.20220186332630200D+00 -2.74355651313749900D-01 -1.31589015301700000D-03
81 17 -7.06100202252278000D-02  1.25595582491690900D-01  6.04008696121582400D-01  1.35194173952306100D-01  5.00617919026129000D-02
81 18 -5.15915782063005600D-02  1.52978630368837200D-03 -1.26146364614770800D-01  1.14261473749547300D-02 -2.00992681268359600D-01
81 19 -1.12402026675679400D-01 -1.97717235430601200D-01  5.01489861857719700D-01 -3.53153352217663700D-01 -7.59706859083997800D-02
81 20 -1.56482857021678200D-01  6.89301976994009400D-02 -1.42271910070805300D-01 -2.10175970372920900D-01 -3.36351192562837600D-01
81 21 -1.42593242826070400D-01 -5.76448043529629400D-02 -6.81987519966723300D-02  2.30321290403863100D-01 -1.19467106157587300D-01
81 22 -1.10854184246275200D-01  3.93874211957853600D-02 -1.18899646428092500D-01  6.36991264567164000D-02 -5.61264811462503700D-01
81 23  5.39750752836649100D-01  2.15140586258547600D-02  1.29026652662380600D-01  2.21372445858267000D-01  2.74797884854036400D-01
81 24  1.18419018330150800D-01  2.57836982034841300D-01 -5.06750679939919200D-01 -6.42615688258108100D-01 -1.22237230468700900D-02
81 25 -9.57697367764908900D-02 -5.25663804873325100D-02  1.79397068623107900D-01 -4.08593537347314800D-02  9.00966868460519300D-02
81 26 -2.02649665093239300D-02 -5.94359701355000700D-01  4.42368067816107000D-02 -1.72178663029346600D-01  1.50768619364990300D-01
81 27  2.14100436643562200D-02 -3.48914033396150200D-04  1.15432507963070600D-03 -1.85898088969080400D-02  1.39660436241024600D-01
81 28 -1.60495038353405200D-01  2.08346021123805700D-02 -1.61790182386299000D-01 -5.81170770621580000D-03 -4.81467588329666600D-03
81 29  4.21147785844164000D-01  4.68672446168260600D-01 -7.57782750411615000D-02  8.20327860570443000D-02  3.02789673853578300D-02
81 30  8.00383931014182600D-02  5.35594805754472300D-01 -1.85858125810570900D-02  1.04007359194653400D-01 -2.78521042148396200D-02
81 31 -3.47545881421110600D-01 -7.10630293322570500D-02 -2.35339649246856700D-01  4.42341888268754100D-02  1.92582749918118900D-01
81 32 -4.75794408363039400D-01 -3.56664454813389200D-01 -1.45426196812016000D-01  3.35390654730068700D-01  7.17430483903377000D-02
82  1  4.05776677832000200D-02  6.44324926297423100D-02  4.75515729707273000D-01 -1.03001871696496700D-03  9.93485196565899300D-02
82  2  4.44846505083672400D-02 -2.30150610731170200D-01  3.32849831557755400D-01  3.87949714606514700D-01  1.30900973703790100D-01
82  3 -1.46575642312098400D-01  1.56746686083096600D-02  1.73496992575464100D-01  3.79352774239644700D-02  3.25557671324167700D-01
82  4  1.92150014608308100D-01  3.97760546990230100D-01 -1.99117010884254100D+00 -1.65483350667927900D-01 -4.46447693323336700D-01
82  5 -1.06038921818178600D-02 -4.79292212916169700D-01  1.13404552189580100D+00 -2.24417317929061600D-01  1.06611896257594100D-01
82  6  1.18877072690560500D-01 -2.25488968948156000D-01 -1.34483553601112400D-01  1.94875530141067100D-02  9.52251710125662900D-02
82  7  1.54226716998450300D-01  2.60526237984649400D-01 -1.17078860106716500D+00 -1.56649756115365300D-01 -2.71564788250759100D-01
82  8 -5.11003664486413600D-02  6.28505503060768200D-01  2.22128721536516100D+00  1.66884456589576600D-01 -3.35893070322367100D-01
82  9 -1.95341369137189800D-01  5.31234439459556700D-01  2.66895463297927200D-01  4.99776034817663600D-02  1.25868193467436900D-01
82 10  2.90009228015698700D-02  2.83250432770375500D-02  7.17448711478243300D-01 -1.30338608497548100D-01  9.92292215727782900D-03
82 11 -1.39785662224600600D-01  2.37890326680643200D+00 -2.37498652568970600D-01 -1.36806578695126900D-01 -1.77887125318441800D-01
82 12  2.19652574781572000D-01 -4.17654494631294800D-02 -1.64377408387857200D-01 -1.65551357194895800D-02  3.73431737107787700D-01
82 13 -2.01852542636380800D-02 -5.26864121673644500D-03  1.40821863938046600D-01 -1.03781795237278600D-01  2.41947783513449900D-02
82 14  5.11748864431400900D-02  1.01309269114321600D+00 -9.20127164930622600D-01 -1.89123692836636900D-01 -3.22605555219231500D-01
82 15  4.43244966401584100D-01 -1.20639411182353200D-01  2.44927206868754900D-02 -1.50376031091317900D-01 -5.39290150399791200D-02
82 16 -2.30468891036957700D-01 -5.35173286938632200D-01  5.57547554998337400D-01  3.93161043450635000D-02  1.60460197283393300D-01
82 17 -5.16988804386011200D-02 -9.72402816813363900D-02 -1.18202819503930100D+00  1.25087259663862400D-01 -1.92828632203798700D-01
82 18  6.94616401368242700D-02  1.23366992066973600D-01  1.89838502550232600D-01  2.63965187947449900D-02 -6.17782312035425700D-02
82 19  1.49013101825207700D-01  2.90742724452148000D-01 -6.74699571449828500D-01 -3.50132445901747300D-02  9.53111063816436300D-02
82 20 -1.36165054296439100D-01  8.18927379533422900D-02 -2.74124768125288000D-01  4.07190159588597900D-01 -3.30176148806436900D-01
82 21 -1.84267790266917300D-01 -3.50635086197651400D-02 -1.40013109709754600D-01 -2.61489889938730600D-01  3.48443386176302800D-02
82 22  2.26645551321100500D-01  7.16749562451112600D-02  2.26667787125230900D-02  1.12833021782139200D-01  1.95365697932780000D-01
82 23 -1.47576464802976400D-01 -4.77892331298034000D-02  1.91272024577319700D-01 -2.25007174629584200D-02  2.10065193368414400D-01
82 24 -2.62841357638509800D-02 -6.71009915484251800D-02 -2.91794973669115100D-01  1.01567298355811400D-01 -1.19507664173904400D-02
82 25 -8.33607790362343000D-03  1.94583903301970900D-03 -3.73062785473478200D-01 -2.29815981284974900D-01  1.89910851338661900D-01
82 26  1.05026575624633700D-01  3.16598252916903000D-01  1.47307303828353500D-01  3.13275189215941700D-02  2.17496436009585000D-02
82 27 -5.30771625225523000D-02  8.47284811180484700D-02  5.27837050811138600D-02 -1.37665647711434700D-02  1.68021719801768600D-01
82 28 -1.59704605878430700D-01 -8.31711392333786000D-03 -1.35678221136403400D-01 -5.26603275512553500D-02  3.20971905014506200D-01
82 29  9.82172501535822800D-02  3.93527619514412200D-01 -1.12709375333572100D-01 -3.00634548702997200D-01  9.02191171479871100D-02
82 30  6.84548199072254200D-01  1.40952431103547700D-01 -1.80523102901843500D-01 -2.04562786115250400D-02 -3.09227444499626300D-04
82 31  2.38046653290542300D-01  1.07925347703465300D-01 -5.21802626628349600D-02  1.75296112356321200D-01 -4.97566814379817700D-02
82 32  4.78326250002169100D-01  1.04279804106447600D-01  3.92282690195192400D-02 -1.43164786537478900D-01 -1.96115175141154600D-02
83  1  1.12344712725725600D-01  1.59714827336699100D-01 -3.70827637469836400D+00  1.35768577570524200D-01 -5.68439437096314700D-01
83  2  1.66383446781332300D-01 -8.70468820236292400D-01 -1.38328079986665400D+00  4.98182608398840100D-02  3.54343612567025500D-02
83  3 -3.62337092475159400D-01  3.26902731218455300D-01 -1.37822430124438000D-01  1.42797704323824400D-01  2.03224549195938400D-01
83  4 -2.46543804758019700D-01 -5.00868612298451900D-01  2.83170520352610600D+00  4.78039878490491100D-02 -7.70148935243830100D-02
83  5  1.31278629473557000D-01 -5.81430179439927700D-01 -2.72383403857670700D-01 -1.98476260329253800D-01 -6.72656326681617300D-02
83  6  1.32429187212746200D-01 -6.51635545445838100D-02 -1.21641243271550400D-01  2.06103529411438000D-01 -4.37170706315943400D-02
83  7  1.41843587160127700D-01  2.71314391187303200D-01 -2.43732380055017100D+00 -2.26210960643622400D-01 -8.56670788188334800D-02
83  8 -2.11974608803214900D-01  5.18896770071099900D-01 -7.53183767993463000D-01  1.56146333963269900D-01  1.93976888992123900D-01
83  9 -9.50295927531111500D-02 -9.89472962390132600D-02 -1.40750936384138400D-02 -1.73305347415644200D-01 -3.17098389418669700D-03
83 10 -5.22479098004814700D-02 -1.00101764491244700D-01 -3.17696074288470200D+00  1.06216349069915500D-02  2.34805050712731700D-01
83 11 -1.89695048078372900D-01  2.26276747866147800D+00  9.22677293938500700D-01  1.81476008157449500D-01 -1.45131048436875900D-01
83 12 -1.35077224674994200D-01  2.80208273111870900D-01 -3.64984742044302900D-01 -2.34493334452512700D-02  9.43755921963280500D-02
83 13 -2.26907741293202200D-01 -4.09389280747102300D-01  3.67816397618332900D+00  2.18276398704845800D-02 -3.65685169777337400D-01
83 14 -3.14741724716860300D-02  7.07727341391594200D-01 -2.68609246550155100D-01 -2.55193400609737900D-01  2.49117684676403400D-02
83 15  1.25882755099570500D-01 -1.50794523567209300D-01  1.54073459280401100D-01 -9.85217488333029600D-02 -2.23305156717748700D-01
83 16  1.02568225105764200D-01  2.53748296151904900D-01 -1.16956342780910700D+00  1.23716446125875700D-01 -6.77526069752338200D-02
83 17 -4.69336734176358900D-02 -5.43376038452791500D-01  1.09109537912221000D+00  3.16801993298550700D-01 -5.82037134388975300D-02
83 18  1.18623553409718000D-01 -6.04198399708218000D-02  2.84321718582465200D-01  1.42004543559001500D-01 -1.49512032222951600D-01
83 19 -3.22914547338400500D-01 -5.87259020742307500D-01  2.54031368768928800D+00  9.49917469072867600D-01 -6.91774154042966900D-02
83 20 -1.76349100396435300D-01 -4.77809057590986400D-03  3.38199851228320000D-01 -1.14667197727996100D+00 -1.31542301527783100D-01
83 21  3.12555823841028200D-02 -4.45273347475633900D-01 -4.59398681940698000D-02 -1.93373045160471900D-01  2.23565373587448400D-01
83 22 -3.01923284269766100D-02 -1.84910626225393000D-01 -3.24822998820936700D-02 -1.52267784859699200D-01 -2.02175010136580000D-02
83 23  1.40143678607525800D-01 -1.19926177593869800D-01 -3.86450723980774200D-03 -6.32322197270128000D-02  2.98687971226816300D-01
83 24 -2.20535683788300600D-01 -4.08277246596253500D-01  1.63274162058176200D+00  1.00116616852092600D+00  1.24600198597933400D-01
83 25 -2.43336055040744800D-01  4.16192695348419200D-02 -8.55912333782065400D-01  1.36026484328398800D+00 -1.19409427007895400D-02
83 26 -6.11675160510057900D-02  1.20756947620714800D-01 -3.06075034113140000D-02  1.38317003418465400D-01 -4.18279210467677100D-02
83 27 -9.64890823716984300D-02 -6.47012219733605200D-02  8.88014947857593700D-02 -1.09910067692186000D-01 -3.84976269977541600D-01
83 28  4.25819327411388300D-01 -4.08430574338464000D-02 -3.55404183652682500D-01 -1.13300565787941200D-01  1.31196387923262500D-01
83 29 -1.37911514175518700D-02 -3.16878084219326300D-02 -6.75062021223087900D-02  6.37928976204329300D-02 -5.60659989915838900D-02
83 30  5.26212015813574500D-02 -2.58917105640634200D-01 -3.97575034107176100D-02  1.48892315734433200D-01  2.20324870456793900D-01
83 31 -3.23049091482897600D-01 -2.31998429640994300D-01 -1.82620582546712700D-01 -4.47033480915436400D-03 -2.96351902696197000D-02
83 32  9.50063220233323500D-02 -5.91606184494395400D-01  7.81764386999784100D-02 -1.83002929429673900D-01  5.84641727234490900D-02
84  1  1.52843724096181200D-03  3.35032629294813000D-02 -1.69489372745749700D+00 -2.90382960902690500D-02 -1.84308476593440700D-01
84  2  6.92404073719015000D-02  1.07687401212509700D+00 -6.23857463249785000D-01  1.23267473896604700D-01  2.60704088852257000D-01
84  3 -3.28582644945371000D-01  6.78785560931148700D-02 -3.36724118414130600D-01 -1.48943743672437000D-01  5.26219825233076200D-02
84  4 -1.27823553807913900D-01 -2.98867028906695300D-01 -4.07323729417880500D-01 -1.26155547396734400D-01  1.52574350507029500D-01
84  5  7.62123464591865500D-02  8.54528626649804800D-01 -2.52763193586490100D-01 -2.87928821609956800D-01  8.96201776123428800D-02
84  6  3.91416581647417600D-02 -1.28761835777085300D-01  5.15216897146788000D-01 -1.75368848349271300D-01  1.24023345062053100D-01
84  7 -7.86227561876506900D-02 -1.09854357684935800D-01  1.17599390125748900D+00  4.40044351818807800D-02 -2.04693618288702300D-01
84  8 -6.51913013011691700D-03 -5.47528331043655900D-01  6.26415033697606800D-02  3.30951661052224700D-01 -1.08114145559948100D-01
84  9  2.37993433275489100D-01 -1.29879287715539500D-01  3.71234404353949100D-01  7.81254079112613900D-02  1.01386948035849900D-01
84 10  7.88857032050525700D-03 -5.74158596407844000D-02 -3.32857676569116400D+00 -3.12994910813514100D-02  6.00976988786771200D-01
84 11 -7.52322557891942500D-02 -2.02710823627540400D-01  1.89754657896192400D-01 -5.04020555260752800D-01 -1.24078807228781500D-01
84 12 -7.92299097368910800D-02  2.03308716965673700D-01  2.09607882639830000D-02  1.09042565311751400D-02  2.77286768316602800D-01
84 13 -3.02842763197756600D-02 -2.96225325820774600D-02  5.98245651492119300D-01 -3.26970058233517300D-02 -1.31140477806993100D-01
84 14 -1.17108442275143900D-01 -1.77972436140347100D-01 -9.19747287673319800D-01  4.16374825178046000D-01  2.33888772483528400D-01
84 15 -6.20551677467440300D-02 -1.71833604736785600D-01  5.85655720812386400D-02  9.71141390743976400D-02  1.29925727902742700D-01
84 16 -1.16754092889570800D-01 -2.20728765089004500D-01  1.84792636748240900D+00  1.64747145967297800D-01  3.27972240693907900D-02
84 17  9.20928867790114200D-02  3.34053249037518000D-01 -4.56240778356641700D-02 -4.55519331043041400D-01  2.24320918749633700D-01
84 18 -9.03323200686868400D-02 -1.33988598680946800D-01  1.35386638833214800D-02  1.52007493741473700D-02  1.68077976305978800D-02
84 19 -1.67906365015859900D-02  1.73254959104639500D-02  7.23464470159330400D-01  1.04899126714107200D+00 -1.63338267508355700D-01
84 20  8.87689729413692900D-02 -5.12487033193858200D-02  2.09936628404541600D-01 -9.20527715991026700D-01  5.09006232201116500D-03
84 21 -8.71100128419809300D-02 -2.34156308141883300D-01  2.09486731760613100D-02  8.65851051435992400D-02 -1.12060954004601400D-01
84 22  2.54758488610015200D-02  3.95384793521245300D-02 -1.02415803182552600D-01 -5.13527120563225000D-02 -2.02728795058474500D-01
84 23  3.39233639109422100D-01 -1.36504844050947500D-01 -1.95028230578457900D-01  2.02476406403077600D-01  1.01845307150870300D-01
84 24 -2.37492944741235500D-01 -4.16158456321791500D-01  1.59327816077465800D+00  5.92330206926203100D-01  1.57454577599491700D-01
84 25 -6.52436244174580500D-02 -9.24957457914724100D-03 -1.71844223186827100D-01  1.16569540620452900D+00  2.62958170646201100D-01
84 26  3.27489124413146900D-01  2.83493766531059900D-01  8.63329993542739500D-02 -3.27026256784530400D-02  2.50081191122555400D-01
84 27 -2.17378565444102300D-01  3.35974358316351000D-02 -6.17779660709059400D-02  3.36637430601738500D-02 -1.76680764599476300D-01
84 28  1.87996122576544200D-01 -1.13153579770677700D-02  8.64941528936729700D-02  6.76492885184559100D-02  3.17344848199529400D-01
84 29 -6.88818940076007000D-02 -6.82660503317037200D-01  2.69666940272995400D-01 -8.59641130249661900D-02  1.11454374550824200D-01
84 30  6.60408070227726800D-02 -2.24385601578564600D-01  1.04016085178553000D-01 -5.65894204933919400D-02 -1.66074074683025300D-01
84 31 -4.40870746932761000D-01 -4.59811262510560500D-01 -8.61581304219941300D-02 -1.27334419280507600D-01  6.68974318913761500D-02
84 32 -6.32805835843810000D-02 -1.04196653682980200D-01  3.62058022508880800D-02  1.49425411602116300D-01  2.39676748386746600D-01
85  1  2.46329627090155800D-01  5.52019167205698700D-01 -5.58399188806236600D-01 -8.60512265350012200D-02  1.86231441150563100D-01
85  2 -1.14989125870963800D-01 -1.93620313832031200D-01  1.79380805241068900D+00 -2.26015798354939200D-01 -2.98432826284975200D-01
85  3  3.02165500794653500D-01 -3.73267450968010800D-03 -4.58052437827611000D-01  9.20707509785901300D-02 -2.57713238707240700D-01
85  4 -1.93181246432593600D-02 -2.00046320848261600D-03  2.61602101336658600D+00 -1.45072217219360900D-03  1.94255286057019500D-02
85  5  9.36914382102771200D-02 -1.64280109443057100D-01 -1.16162526248364400D+00 -3.89903495800194600D-01 -2.06747056008728600D-01
85  6  3.18705710534980800D-01 -1.11958654526249800D-01  1.90484582186408500D-01  1.34896326559049100D-01  8.91920322368867100D-02
85  7  3.77929201527444100D-03  3.37079778003938200D-02 -1.82118751319876900D+00 -6.91674488780685500D-02 -2.01668428266398100D-01
85  8 -1.53479613389667400D-01  6.35687724512019000D-01 -1.05149093173150200D+00  5.75119810751506800D-01  2.65226616497861900D-01
85  9 -3.29914059994931300D-01  6.46874434970694200D-02 -1.87340736205464300D-02 -1.48935438610802700D-01  6.45010652914169300D-03
85 10  2.53560355629178500D-01  5.02112889137124900D-01 -1.21405019552008400D-01 -2.76747959562053800D-01 -7.96795271002072700D-02
85 11 -1.16410153790483500D-01  9.46000002381399700D-01  3.10009442893053200D-01 -2.25747619605793200D-01  1.94315442090672800D-01
85 12 -1.89962501126720200D-01 -4.35294096395250300D-03 -4.54138796697445500D-01 -1.07749505818307000D-01  4.97657434858367100D-02
85 13 -1.98634770861122200D-01 -4.18832504615827400D-01  1.38930670106731100D+00 -3.50049326080233200D-01 -7.69665168142491700D-02
85 14  5.77900268328791700D-02  2.89748793706626900D-01  6.67775624925190800D-01 -2.06509442983532300D-01 -3.81622295669115700D-02
85 15  3.76534121292422800D-02  5.08817437670298400D-04  4.53502795749849600D-01 -5.70683258821877600D-02 -1.66979574869869600D-01
85 16  3.43763771154232700D-02  8.01375479737921800D-02  8.60980250984098900D-02 -1.66168384008913500D-01  1.07960137278761900D-01
85 17 -8.26196798863293400D-02  8.53493016209009000D-01  5.30801537701938600D-01  3.63501898591973800D-01  1.46458033076130200D-01
85 18 -5.05613210147746000D-02 -9.58967120613562600D-02  1.21054335576568900D-01  2.15251406065529400D-02 -9.79122576900201100D-02
85 19  1.03166594063792100D-02 -6.47362031786601800D-02 -9.46245241026371500D-01 -6.14837665634729500D-01 -2.63562502696468200D-02
85 20  1.71001396423933600D-01  7.18081933397086000D-02  4.51164918750778000D-01  5.00829720204290300D-01  8.14560642268937900D-02
85 21  1.20603877799969700D-01  1.44063910169230000D-01  1.54345951040058600D-01  1.03117969852983400D-01 -1.90508997508901000D-01
85 22  8.73910276559175900D-02  1.24285893517638800D-01 -5.08766784148786200D-02  7.28526390416183400D-02 -2.07303910187322400D-02
85 23 -7.99802952649265900D-02  1.00710686283658200D-01 -4.99274507674420100D-01  3.48398681702124300D-02 -4.19630789171470200D-01
85 24 -6.71859615077583800D-02 -1.77091571657769000D-01  4.29493665334265600D-01 -2.05205439885937000D-01 -1.99082656451635000D-02
85 25  1.22997264917474600D-01 -6.93719202790984800D-02 -3.90883549331115500D-01 -2.44998841214519000D-01  2.49233648033764300D-01
85 26 -2.19403747270866500D-01 -5.57002374363758700D-02 -1.29327683807085100D-01 -1.38176048336469100D-01  1.19562327934458100D-01
85 27  1.86137204020107100D-02 -1.96602031029498000D-02  8.14028122172047000D-02 -2.18972636102403100D-01  2.75106384677045000D-01
85 28 -3.14978726979272500D-01  3.98723423022275300D-02 -3.71483484392501800D-01 -3.69071473791111900D-02  2.62796487966223000D-01
85 29 -1.04003835472386400D-01 -2.31530465597972900D-01  5.14606230946971000D-02  1.03785653735794800D-01  3.69633556620763100D-02
85 30 -3.84782718994193800D-01 -2.53819291736058700D-01  7.15626544054686800D-02 -1.05141061090932100D-01 -1.33188482029415600D-01
85 31 -3.87762316830980100D-01  4.97496597425378100D-01 -4.33815473263675100D-02 -2.75929290362211500D-02 -3.82728246522686000D-02
85 32  8.57998854759362300D-02  3.03568425968112200D-02 -3.54940032321638400D-01  1.17140428713892000D-01 -1.18515421238619300D-01
86  1  5.78542166606446100D-02  1.12066063873414300D-01 -3.08366455347407100D+00  1.45851423333693600D-01 -1.28404243150082000D-01
86  2  9.02674632178663100D-02  1.98092647011096700D+00 -1.53500682430601700D+00 -4.80638047463006100D-01  2.14280772238660700D-01
86  3 -4.30924388720978800D-01  2.16643616482319900D-01 -1.11260883968811400D-01 -8.09481823192513400D-02 -9.55473027047486700D-03
86  4  3.64752685828161700D-01  7.49030090395892300D-01 -2.58480769610598400D+00  2.43235114382253500D-01 -2.01202929065744100D-01
86  5 -1.67138522148081200D-01  1.07628237343672200D+00  1.25288739050065200D+00  4.71734533711536100D-01  1.85888192242208000D-01
86  6 -2.40255471733274600D-01  5.43672794910655100D-02  7.88998106447696600D-02 -6.33793649609441500D-02  8.80828123998920200D-02
86  7 -1.02230739230853600D-01 -2.52666870251538900D-01  8.35995481002794300D-01 -3.10213555653171400D-01  1.45000622839544100D-01
86  8  6.66867038926935400D-02  1.46853133331292100D-02  6.77013506781300200D-01 -3.43061647828921400D-01 -3.92816821107485100D-02
86  9 -7.47546221377514300D-02  1.14036304248500900D-01  7.22368942682373400D-02 -1.49035604850422000D-01  1.04593006236987600D-01
86 10 -1.87008984251396400D-01 -4.03597008771043900D-01 -2.45315480274168900D-01 -2.11376087023474200D-01  3.56899559671768800D-01
86 11  6.87757239903009800D-02  1.39087074886290700D-01  1.97661193302451300D+00  3.32830372839800900D-01  3.37339003450211400D-01
86 12 -4.91971771475408500D-01  1.54632768025198400D-01 -2.18139773709212100D-01  6.69896922751174700D-02 -3.51851240616716500D-01
86 13  9.33755573833028300D-02  9.48873639945283500D-02 -1.36790106894652100D+00 -1.27847512705038300D-01  9.39584199366822100D-02
86 14  2.66591203550689400D-03 -1.38663231601530400D+00 -6.13223278767482500D-01 -4.89422576315184800D-02 -1.34421553461508900D-02
86 15 -2.27091744190972100D-01  2.40533899537121600D-01 -1.74591680182220200D-01  1.48232838621259000D-01 -2.52814831934938000D-02
86 16 -7.46104472495195700D-02 -9.77490101833293100D-02  2.49997409286556400D+00 -6.21757830819562900D-02 -2.26203509079200000D-01
86 17  1.61017416646462300D-02  1.92303575259332200D+00  9.21902981017141600D-01  1.16028984348215600D-01  1.76351839305113000D-01
86 18 -2.00921414457468800D-02 -1.56259697859365600D-01 -1.64581032518658500D-01 -7.87710075925992400D-02 -5.06472502995298800D-02
86 19 -2.15889971553051100D-01 -4.05071263355147800D-01  2.04236578184855700D+00  5.91108938832438900D-01  8.66977226896164700D-02
86 20  9.49797766972239200D-02 -1.34689834079982900D-01 -4.35037792629034900D-01 -1.15344369642121700D+00  3.59247928707879100D-01
86 21 -1.72552863981952300D-02  1.59005460003013100D-01 -1.62427293682861100D-01 -9.01279203080314100D-02 -1.99637025865797500D-02
86 22  1.10091622894610500D-01 -6.06392704783138300D-02  1.43592769522712900D-01  2.57290133682717000D-01 -5.06993545625120500D-02
86 23  5.31026604631489200D-02 -2.40330590063709700D-03  1.72992636197755600D-01 -7.68552477421891500D-02 -2.18747637979491800D-01
86 24 -2.88625354388598200D-01 -5.54497351606974800D-01  2.19074096180574200D+00  5.35490952773565600D-01  6.35934089097975500D-02
86 25  1.78408254169517700D-01  4.46614569924268800D-03 -1.92150296133175400D-01  8.20240044460974600D-01 -2.60589034440650800D-01
86 26  4.60787946170717000D-02  1.78145972300580200D-01 -4.41296095644174600D-02 -8.79802877866753100D-02  2.35925098072547200D-01
86 27 -1.47944810285871200D-01  6.56283767000352700D-02 -2.16082080889497500D-02 -1.64548568155918600D-02 -8.66853800696706800D-02
86 28  1.13842083799189300D-01 -2.71567037295184400D-02 -1.85657051491540900D-01  1.18565462620724100D-02 -3.15776592542807500D-01
86 29 -2.49050818273200100D-01 -6.73109057480514500D-01  2.32746307578517000D-01  2.25850075192142700D-01  1.40847477114328200D-02
86 30  7.77794332160999500D-02  4.20992288650531600D-01 -3.83774619861888800D-01  1.88751325667159500D-01  2.55657457307417800D-01
86 31 -4.24019169625781900D-02 -1.37736868018234800D-01  1.59191735754223000D-01 -7.44748680766708700D-03 -6.52771439509316500D-03
86 32 -6.89427050019195000D-02  4.83606969908439200D-01 -1.04632404206302400D-01 -9.29158005274622900D-02  2.67322458947034300D-02
87  1  1.43721258368081200D-01  3.39367777487356500D-01 -7.97321210910804100D-02 -1.67419345028025700D-01  1.67745401715592100D-01
87  2  9.64145298524203600D-02  6.04954035980311100D-01  6.62913750461927900D-01 -4.42197419664540500D-01  5.56498338115714200D-02
87  3 -1.88410247467142000D-02 -3.68088090648583500D-02 -8.58585338663650800D-02  9.13693551411588100D-02 -6.77951948501438800D-02
87  4  9.47796470365817400D-04 -1.49660114611114500D-02  7.12773497918548000D-01  2.65241169229262200D-01  1.02160393926159100D-01
87  5  9.64981637684998600D-02 -8.64171167705461600D-02 -1.19485400862802300D+00 -2.70276778815232500D-01  1.53398569517703000D-01
87  6 -1.12186160859066800D-01 -4.12124086586355800D-02 -1.22051686731228200D-01 -6.48823629574447800D-02  9.32978810741948000D-02
87  7  1.34350407834002400D-01  3.10261179623369000D-01 -4.84553944694287100D-01  3.77144304450644000D-01  7.29363281654380900D-02
87  8 -1.27177029616431800D-01 -1.17940675478171200D+00 -1.13158792557030900D+00  2.83970850137364800D-01 -4.93991448148913500D-02
87  9 -3.29074659719321900D-02  8.23066107868239300D-02 -3.56031624106807500D-01 -7.73926308788063900D-02  1.15627871172499100D-01
87 10 -1.63543701618719600D-02 -6.41417621482372500D-02  1.20618514603503300D+00  1.49966518334350300D-01 -2.15885838096142100D-01
87 11  5.94587085212951400D-02 -1.56702024437876400D+00 -8.45016916578047900D-01  2.86409810784297600D-01  3.18054069621942400D-01
87 12 -2.37050028925313500D-01 -8.10040406966299600D-02  2.95817438601964100D-01 -9.34257881487674400D-02 -2.84160969722155200D-01
87 13 -5.78697895134259500D-02 -1.47583558883550200D-01 -3.80838139222364900D-01  2.40226541081509500D-01 -2.60782672899411000D-01
87 14  7.91635976297001700D-02 -3.48611109442930300D-01  1.08119549620059300D+00 -1.51746965637123700D-01  1.91616279653750700D-01
87 15 -1.27369385848501600D-01 -6.42468938052484900D-02  2.94686861463292700D-01 -9.80189905016910600D-02  2.39859245146462300D-01
87 16  1.67681890543614700D-02  4.04722315161001100D-02 -2.21392495286169600D-01 -7.14575234878572100D-02 -2.92224558629392000D-01
87 17 -1.94158220131578400D-02  6.28896584128072600D-01  2.60248300047350100D-01  1.26232220113493100D-01 -1.38770542603232200D-01
87 18 -2.14361803597786900D-02  1.60206722963011400D-01  2.75444783132412400D-01  1.37493045356891000D-01  2.18982387148708900D-01
87 19  1.41766616427745400D-01  2.82122303368518900D-01 -7.15429157830623200D-01 -1.89889696428888000D-01 -5.63856233140202700D-02
87 20  1.13731207572557600D-01 -9.92044645596746200D-02  9.15463267562114400D-02  1.28731173983579200D-01  2.47637428380311100D-01
87 21 -1.20169143451246000D-01  2.16264785752306300D-01  1.04470768927952000D-01 -2.26115656946183800D-02 -9.99289554531665300D-02
87 22  1.22540521147784700D-01  1.25137632276031000D-02 -5.16265153390488600D-02 -2.37349872541680700D-02  3.17162175187832400D-02
87 23 -1.24533899300032600D-01  9.28176817812491200D-02 -1.54361954133170400D-01  2.18914869323071000D-02 -1.00333814664990400D-01
87 24  5.27916794798239900D-02  7.43761237475062800D-02 -4.24926029951573700D-01 -1.22862335525841300D+00  9.08727682110062800D-03
87 25  2.24039323061479600D-02  2.29996166658859300D-01  2.66606537167492300D-01 -4.38288261117294000D-01 -5.89125894066752200D-01
87 26  9.02092591634895600D-02 -5.61275059396048900D-01  1.69718799440475600D-01  1.02108724382637800D-01 -2.20073279165287300D-02
87 27 -8.01013964661089600D-02  9.14668394419271800D-03  1.48002878848323300D-01 -3.96150374848147200D-02 -3.91992584865769700D-02
87 28 -2.22436132091710100D-01  2.61635390578287100D-01  2.31346234474115900D-01 -8.36932359535738400D-02 -1.74228304745131800D-01
87 29 -2.46869242411795600D-01  9.13889897738859200D-01  1.02697455795588200D-01  1.07569140272592400D-01  2.00008044635476900D-01
87 30 -1.30088472496967900D-01  4.59020968753802500D-01  3.69581847533098900D-01  6.26460936699826900D-02 -1.83396063304544100D-02
87 31 -2.36857467630022900D-02  3.36339384963435800D-01 -5.03275807384865300D-02  4.11384076796938000D-02  8.03799657827513700D-04
87 32  2.97651176196613100D-01  1.95217219085766000D-01  2.06557561065333100D-01  5.31955553794766000D-02 -1.77440174479132700D-02
88  1 -2.01995022089047800D-01 -4.14131615205866000D-01 -8.54033709858165000D-01 -1.19666970279830300D-01 -1.84160320700778600D-01
88  2  1.95681185720078100D-02 -1.14928883554855200D+00 -4.95349003200108200D-01 -5.70770861412503800D-01  6.73702666106279900D-02
88  3 -2.14407290819320500D-01  1.47037024208693900D-01  4.01324621203243600D-01 -3.10003761043147500D-03 -2.43216845277243800D-01
88  4  5.63412669487071100D-02  9.95860686799257400D-02 -1.30651201697615400D+00 -1.48665456982445000D-01  3.50908451921725400D-02
88  5  1.80078227880832600D-01 -1.72526199866486400D+00  1.44896073880893200D+00 -1.22518462718184600D-01  3.09002151018348700D-01
88  6 -5.05189871142213700D-01  1.96187720123863600D-01 -2.59565692417776000D-01 -9.10373169738945400D-02  3.35691049718743900D-02
88  7  2.06489737471994100D-01  4.32989828620961500D-01 -1.84899446836261100D-03 -1.68780557129574200D-01  2.26376704589471400D-01
88  8 -1.86316627595216100D-01  1.60088710595739100D+00  1.64945904359374000D+00  1.60208236305968700D-01 -5.95173962579770100D-02
88  9  9.84611204461976800D-02 -3.89437241882216300D-02  1.93725589016556600D-02  1.78469848659854600D-01 -1.66785518997085400D-02
88 10 -2.57734559779529100D-02 -7.85897690452339600D-03 -4.54137740245383400D-01  2.39219434163413900D-02  1.70133553060905300D-01
88 11 -1.59868437822309400D-01  2.86090674211095700D+00 -4.72401519767470000D-01  6.46823246746329100D-01 -1.73189212174211900D-01
88 12  2.53489272176787300D-01 -8.03000600025740900D-02 -3.51373046586075800D-01 -3.97542416823117200D-02 -1.08601314658394200D-01
88 13 -5.43914850198264700D-02 -6.71000443655709900D-02  1.37834802484909600D+00 -3.62411021963053100D-01  2.43924893921506600D-01
88 14 -2.23166701153153200D-01  1.66924243074184800D+00 -1.64021318429524300D+00  2.33601376749693600D-01 -1.35295570554848800D-01
88 15  3.33310681720669300D-01 -1.98015111165821400D-01 -1.64403906451188200D-01 -1.41714132357788200D-01  1.32468205577135600D-01
88 16 -1.08412510224742700D-01 -2.26525802016234000D-01  6.18880370618406100D-01 -1.43743957111697800D-01  4.82189037560860300D-01
88 17  1.76307916540906800D-01 -1.33623583494977800D+00 -9.76598253711936000D-01 -2.16822154532252000D-01  1.80245384133702400D-02
88 18 -6.85086520154366400D-02  5.04841136020651200D-02 -4.14994940978599100D-01  7.15970723470593800D-02  1.40110193669962600D-01
88 19 -1.56614138673563700D-01 -3.00325708762210300D-01  1.03623585671564200D+00  1.54792570878979400D-01 -2.63968154253265300D-02
88 20  2.29181647178199100D-02 -1.72534404172096200D-01 -4.02016707122515800D-02 -6.65767597625817100D-01  4.63950773933830200D-01
88 21 -2.13853821786373700D-01  7.37268235171214300D-02  1.72189267963505700D-01 -1.16630301827934700D-01  8.91805649859737200D-02
88 22  2.74497368419607700D-02  1.20840244597107900D-01 -1.90458100463977700D-02 -1.20779111133336800D-04 -2.86406957457693400D-02
88 23  2.67018632847023100D-01 -2.38377937101254200D-01  1.69955304708636200D-01  1.68637504410115200D-02 -3.12195935034837600D-01
88 24 -3.65530102754173800D-02 -7.53761298101747200D-02 -1.22354036357506400D-01 -2.05092656335432400D-02 -7.81386564766921000D-03
88 25 -1.15715185020160000D-01  1.50632879237133900D-01 -4.83042815352134700D-01  1.48603503591865700D-01 -3.26144076568445100D-01
88 26 -1.39264305411362600D-01  8.21848729639481900D-04 -2.88403051417432700D-01  1.62899583211771800D-02 -1.12781181727823400D-01
88 27  9.64912234066459700D-02  1.06150665878696800D-02 -4.39711615291702000D-02 -1.18778072290659500D-01 -3.68460281551642800D-02
88 28  1.46234624944901200D-01 -1.09388596789736800D-01 -4.02871374623188700D-01  7.50065727346819100D-02 -1.22794772462728000D-01
88 29  2.58906652743777900D-01  8.09803920760236400D-01 -3.88173207025549200D-01 -2.13482883701651100D-02 -2.32346410727759800D-03
88 30 -9.63871302760283500D-02 -2.48582394888342300D-01  3.64115053369476500D-02 -1.44631041055950100D-02 -1.46723906385546500D-01
88 31  2.65095281116194800D-02 -3.26294002543888900D-02 -2.29966325894370500D-01  8.47541100968882300D-02 -1.36127903565803600D-02
88 32 -5.16413724020800400D-01 -3.34609354475502100D-01 -2.97272000899664200D-01  9.90384995265275500D-02  1.74009183812175000D-03
89  1 -2.64503798462845800D-01 -5.64229209251331700D-01  3.68938428161639800D-01  3.77581475549871000D-02  8.62610611491926300D-02
89  2  1.31419261914696600D-02  8.93123304032563000D-01 -1.88502775055850800D+00  4.84774534325222200D-01 -1.45616190078232300D-01
89  3  1.60724993120088900D-02  1.29543690766224500D-01  9.45661873608375500D-02  6.64072172294967600D-02  2.41504211148193200D-01
89  4  1.64520637472591500D-01  2.97405704096214300D-01 -1.25276747150361900D+00 -4.24145576800615900D-02  2.43737545304386200D-01
89  5  2.32447386315682000D-02  3.87238442531891000D-01 -1.22176450414964300D-01 -3.25830976539414700D-01 -2.06183675048783500D-01
89  6  7.10947369097464200D-02  1.35088938139036400D-01 -2.55243822954184900D-01 -2.37410304760414600D-02  4.79993920275700700D-03
89  7  2.96119750031905800D-01  6.90965063086486300D-01 -8.14156010944132500D-01  3.58922042067067700D-01  2.55164617847752700D-01
89  8 -5.98398468836316400D-02  4.89651953089097600D-01 -8.61495680642550800D-01  3.70864024910731400D-01  1.44341807061339800D-01
89  9 -7.43205999762632400D-02 -7.00212070850753900D-02 -2.41118791756390700D-01  6.24629682918096100D-04  1.92318008221397700D-02
89 10  1.18230013776225600D-01  2.80421520031261700D-01 -1.18542598800119700D+00  4.43356881227696500D-02  1.79413703735850500D-01
89 11  4.67071874196421700D-02 -9.33937635271321200D-01  2.65570971983295100D+00 -5.38293872124774500D-01  4.81325796923831500D-01
89 12 -4.37970823650110600D-01 -4.33549732737216800D-02  3.33014774010889200D-02  2.07177059884938900D-02  8.83676822429521900D-02
89 13  2.04555790262475100D-01  3.97669809465060800D-01 -1.82495547447424900D+00 -2.32252519269190200D-01 -3.55406355506049100D-02
89 14 -8.75077491338844400D-03 -2.11515799764770000D-01  5.16623447340093000D-01  1.75600817918453900D-01 -1.50742273952393200D-01
89 15  2.10741280219219800D-02  1.29668145930471400D-01  7.91471851426104300D-02  7.72916860682377600D-02  2.13685606316291500D-02
89 16  6.23679040259199000D-02  1.30289272950810200D-01 -3.86510993001332000D-01  1.93442490171602100D-01  9.25945715317777500D-02
89 17 -7.28546481700394200D-03 -8.37463968232436500D-01  5.57836043536993100D-01 -6.24943929830083500D-02 -2.38603617324251600D-02
89 18  1.60399398261756900D-01 -1.36539036529330900D-01  3.44325360184737100D-02 -1.96910743599110200D-02  9.11321518151442700D-02
89 19 -2.10649095773703500D-01 -4.16081912114125500D-01  1.34043233063174800D+00  5.71299819144359500D-01  7.52598343259475400D-02
89 20  1.46572129026368900D-01  5.36413093411437700D-02 -3.42803912942580600D-01 -7.12759694257937300D-01 -2.78197006307034200D-01
89 21 -6.84374397488184100D-03  8.03086769762081800D-02 -1.39532410137325700D-01  9.97884921216040900D-02 -2.97305294397640400D-02
89 22 -7.00579626818398600D-02 -1.47514475436949300D-01 -5.09946302116700100D-03 -1.27872355689631500D-01 -1.43722564420806600D-01
89 23  1.47107041334031500D-01 -3.38447691322559800D-03  3.74224200996374300D-01 -4.04814220562250800D-02  3.21125709865717300D-01
89 24 -2.99245424059501400D-01 -5.92589161970751500D-01  2.37011361266116700D+00  1.20049674244760500D+00  1.12014567163268200D-01
89 25  6.02116898618203900D-02 -8.08299281280347000D-02 -4.72212233555903200D-03  8.66182929746755800D-01  2.80667093290068800D-01
89 26 -1.30412413804637900D-02  4.92575636644211900D-01  3.44725295389069000D-02  2.40027213400897900D-02  5.16443498001832200D-02
89 27 -7.56470711402724700D-02 -3.08965665182526100D-02  6.65253351579593900D-02 -1.10384304824335900D-01 -6.66116939864922800D-02
89 28 -3.49682684436805200D-02  1.01579962430172800D-01  1.00070654260311700D-01 -1.01899536041739700D-01  2.19365325507094300D-01
89 29  2.07952764996317600D-01  5.86043716047358900D-02 -6.01527748310252800D-02 -2.79469647938554100D-01  1.24994604251643900D-01
89 30 -6.00417563392943900D-01  6.88520251853490400D-02  6.87510068741925800D-02 -3.15340637556542800D-01 -5.90972142671148100D-02
89 31  2.17412444348757000D-01  1.58816453456205800D-01 -6.82533836406158800D-02  3.20719356226497400D-02  7.10442519164371900D-02
89 32 -2.64937906051266800D-01 -1.21162996520439400D-01  7.10737430616927200D-04 -5.33863965651701700D-02 -1.46005124077611900D-01
90  1  1.36853346187910100D-02  7.51948198394347000D-02  4.10394310558927300D-01  3.32631375010200600D-01  2.08200340421714700D-01
90  2  1.52698331549518500D-01  2.55385291683720800D-01  1.09639317954373800D-01  4.11576370569389500D-01 -2.00730760776893800D-01
90  3  3.43934656902506500D-01 -1.43203896125613800D-01 -2.63430813365339200D-02  1.47299931380891400D-02  4.02430148680489900D-01
90  4 -5.85381953395337800D-02 -1.27201096771594500D-01  2.61127311724018800D-01  3.85316477279103500D-01  3.66894735521264800D-02
90  5  2.19870986221585200D-01  5.48160854574898600D-01  6.17872801528622900D-01 -4.63300419627435700D-01  3.63317870515312800D-02
90  6  9.01478815710975700D-02 -1.26479668622628600D-01  1.45770931278777100D-01 -2.54218712669599800D-03  9.27516629182912100D-03
90  7 -2.55534202135212400D-01 -5.54131090243622500D-01  1.40969680603417600D+00 -2.27058692528623200D-01  2.36450269360779700D-01
90  8 -1.28771692118105100D-01 -5.34951429039945500D-01  2.34712350626835500D-01  4.41659098595773500D-01  8.95041157241552200D-02
90  9 -1.91417705291989900D-01  1.01913589567834800D-01 -5.69201652786891800D-02  5.32855429427891600D-02 -2.46692434076188700D-02
90 10  2.53102900203724800D-02  7.05418279747706000D-02  1.00270649956436800D+00 -7.92628326584946700D-02 -1.33547990124796300D-01
90 11 -9.35265713735214200D-02 -1.25766967190543500D-01 -1.54850107428676100D+00 -4.11674023142604000D-01  1.25378638960325300D-01
90 12 -3.62229591863036700D-02 -8.91556797740222100D-02  1.64317027180325900D-02 -7.43358158459389000D-02  2.95731437731921300D-01
90 13  3.92789203485302300D-02  7.53493744654222700D-02 -5.28412837353309600D-01  1.11693762848357000D-01  1.94456074309347500D-01
90 14 -8.85147090512459400D-02  4.41961164181091700D-01  3.84042513066614000D-01  1.92993169736841800D-01 -2.60095112006468800D-02
90 15 -1.54006829424220600D-01  1.80016340624866600D-01 -2.28356970401399300D-01 -1.71742428691714900D-01 -7.48813458549193600D-02
90 16 -1.26154017331984100D-01 -2.19274552288772400D-01  1.21500156532109600D+00 -3.04121568087411400D-02  1.98260552016181500D-01
90 17  7.55104601260985100D-02 -1.85381217436632200D-01  2.92857666440742900D-01 -2.23979520410382000D-01  1.50043263989339300D-01
90 18  3.84282237853819700D-02 -1.88471487774721500D-01 -2.40110771177087700D-01  1.98431533029484300D-01 -1.01955629046799900D-01
90 19  1.47659898521740500D-01  3.02329547512343100D-01 -8.54208611533237900D-01 -9.68302171504713700D-02  1.12038792774251100D-01
90 20  2.42138290364402500D-01 -3.95305293064209700D-03 -2.82426714499927100D-01  1.12381108844860100D-01 -3.23057932657727800D-01
90 21 -3.43207781242403500D-02  3.45843345593381000D-01 -1.37336032128004700D-03  2.68806443331907000D-02 -1.09408117876438900D-01
90 22  8.25274735432486400D-02 -2.07356280568300700D-01 -9.95489615176511100D-02  7.90582504677399800D-03  3.73036411485841300D-02
90 23 -2.81920777593677700D-02 -9.11156338921561200D-03  3.33957801207348600D-01  9.19033513135752600D-02  4.02833508425885800D-01
90 24  1.35398854211562200D-01  2.34230661428795100D-01 -1.12670927594829800D+00 -1.04106321762979200D+00  4.09391783565997500D-02
90 25  1.13108954538032700D-01  8.43062808762222400D-02 -9.73653068068400800D-02 -7.59665808966200300D-01  1.03798187910040800D-01
90 26  2.13520809992919400D-01 -3.23498044209783500D-01  1.67664871654271000D-01  9.72765773180121100D-04 -4.59097024441705400D-02
90 27  4.49369366709901600D-02 -2.07869921356079500D-02 -3.93740557545532800D-02 -9.26368258557799500D-02  6.22423699103792900D-02
90 28 -7.25372466009977400D-02  1.02948766906183500D-02  4.93072270167850300D-02  7.00342227428179000D-02  3.86738566917055800D-01
90 29 -5.75403426272468900D-01 -4.13383778136137600D-01  3.65010529804191500D-01  1.45951594430868300D-01 -3.10152843216175700D-02
90 30  3.34561402056633100D-01 -1.49361110537858400D-01 -2.15755752570766200D-01  1.42585612117579700D-02 -1.82257631040685200D-01
90 31  2.11923435786128100D-01  8.33890389786792900D-01  3.97798242174091700D-01 -1.91276495893684400D-03 -1.19076534045145100D-01
90 32 -4.98168365119636500D-01 -4.78227259345130400D-01 -2.80251785479573400D-01 -1.81841862395250800D-02  2.02188628861017700D-01
91  1  5.92873076722892800D-02  1.27596303438550400D-01  7.25679178503445800D-01 -1.39158305942192500D-01 -6.00071199576365000D-02
91  2 -1.38031630950717800D-01  5.77073696663467900D-01 -8.61596676372620600D-03  1.24180295793636000D-01 -1.28714512565520800D-01
91  3 -1.02320635965218200D-02  1.38946576162043500D-01 -1.84224697780574800D-01  1.07995429125331400D-02 -1.50934301712034000D-01
91  4  1.43131548130536100D-01  3.78356807553683600D-01 -7.55851530366025900D-01  1.83935165092083200D-01 -9.94876759860084100D-02
91  5 -2.85748232625305500D-02  1.53005448897447400D-01 -6.51837018121525100D-01  1.55721800260057600D-01  2.47934477821696100D-02
91  6  9.95455199194099200D-02 -1.24338967701579400D-01 -2.62330289805320000D-01 -1.16973311920754500D-02 -1.58899597901762100D-01
91  7 -7.05984990177869300D-02 -1.71172850195027900D-01  2.51024556529295900D-01 -1.76825908491165600D-01 -2.89163189790466100D-01
91  8  2.40210323813304900D-03 -4.22362254632009200D-01 -5.02444157061634700D-01 -2.34651117470146000D-01 -1.33138151069125900D-01
91  9  1.58401187380536900D-01 -2.52630363114109600D-02 -4.52532869438847600D-01  7.18774581919510700D-02 -1.39266933724911600D-01
91 10  6.76646510304351100D-02  1.90314193340948000D-01  2.66770565778058500D-01 -1.75398926739077200D-02 -3.06090084986137500D-01
91 11 -8.97079343099993300D-02 -1.23562709739618000D+00  5.98265398288705700D-01 -2.04491665774064400D-01  1.00955496654220400D-01
91 12  3.17566636748568200D-04 -1.01273063290968800D-01 -1.56783732482273600D-01  1.19534335509677700D-01  2.18160084930915800D-01
91 13 -5.69867464813967100D-02 -1.20399316325254600D-01 -6.02626571623583100D-01 -2.36641890487509100D-01 -5.63209205116848500D-03
91 14 -1.00566202905412600D-01 -3.51251997557633800D-01  4.89495181375377600D-01  3.27627606744466900D-01 -5.65872267585546000D-02
91 15 -3.87670367465838800D-02  9.53542635051381500D-02  1.39663401655125100D-01  8.24581097861629300D-02  5.75843319968569200D-03
91 16  3.75950541962662300D-02  8.25461779897202600D-02  5.69124377713306200D-01  2.43822940910740900D-01  1.13620814538939500D-01
91 17  6.89119137177498500D-02 -1.11162584250586500D+00  3.32756962767399900D-01 -2.89754828200540500D-01  1.11307353749831600D-01
91 18 -2.35158815431927800D-02 -8.77914722066383800D-02 -2.58795174384719000D-01 -5.03831775255360800D-02  1.10687325408459200D-01
91 19 -3.46891544572337700D-03 -1.00220904935462800D-02 -4.99225140075053400D-02 -2.96169697096914800D-02  2.65294986882471500D-02
91 20  1.56877942779320000D-01  9.02680332843333900D-02 -1.65257915052671500D-02 -2.09545835419641000D-01 -1.13352904633051600D-01
91 21 -9.32331883234883600D-02  1.61662034590745800D-01  1.62144201305460000D-01 -5.47930879985887900D-03  8.72689982233591600D-02
91 22 -8.17896894235000900D-02  2.89307088396680300D-02  3.45868068892464200D-02 -7.89720066043771200D-02  1.13215443963849800D-01
91 23 -1.49020005847387100D-01  3.58045618835378000D-02 -2.02893670163336800D-02 -9.18143338229742300D-02 -7.75748765264151200D-02
91 24  1.82330421390351500D-02  1.60283199255804000D-02 -8.43878198631098200D-03  1.92560219230611100D-01  2.15129402088785600D-01
91 25 -8.95768783330605600D-02  1.76871759442865400D-02 -1.78564237839103800D-01 -1.85754951285778900D-01  1.15856836496610800D-01
91 26  2.05922018168469800D-01  1.09944970217417400D-01  1.24706235614895600D-01 -2.68571134228325200D-02 -1.07445232199413600D-01
91 27  1.34302345622246300D-01 -8.27560450620408300D-03  1.83429275157471500D-02 -6.01156246926840300D-02  3.83483983850474500D-02
91 28  1.00130882827671200D-02 -4.83614866678146500D-02  1.87217280830894000D-01 -9.52309821753822100D-02  2.33097647790778100D-01
91 29  3.13854303592088800D-02  4.45445538525466000D-01 -1.33378243383850100D-01 -9.27530266916411400D-02 -4.56856423782818600D-02
91 30 -6.25469731472573000D-02  2.96339715235698700D-02  2.44957765507910900D-01  2.86828437244241000D-01  1.17864065113643900D-01
91 31 -4.56046716766598400D-02 -2.99505124579986800D-01  8.85128560727753300D-02 -1.83262173893228500D-02 -1.83377914653350800D-02
91 32 -2.86979714018889000D-01 -9.57529641378728000D-01 -1.20988349509602600D-01  2.34464492677515300D-01 -3.96439532798178700D-02
92  1  1.61166462448082000D-01  3.72329436419014100D-01 -1.00109504989128200D-01  1.82774580336538100D-01  1.00569143929227100D-01
92  2 -1.14660645542043400D-01 -2.29708995432494100D+00 -2.95769901866301400D-02  8.69033676752528600D-01  1.18533163362480000D-02
92  3 -3.90740553538834200D-02  2.72207390176349900D-02 -2.79321252619427400D-01  7.16147760972543600D-02  9.80053404617727700D-02
92  4 -9.77607241794821200D-02 -1.98998570999619800D-01  1.56086396043454100D+00  1.91377820233071000D-01  1.43770855359322100D-01
92  5 -5.65159768509945900D-02 -9.23135410012617100D-01 -3.36042014847501900D-01 -3.48211464924890200D-01 -7.45467288843907600D-02
92  6  5.30435812571328600D-02  2.15031476272583100D-02  1.33209129381996600D-01  1.05376068975712100D-01  1.35841791605990600D-01
92  7  9.52876318458730500D-02  2.39081004204653800D-01 -1.73770665497809800D-01 -4.06884471162131400D-02 -1.21817203095215200D-01
92  8  1.18063092663191800D-01 -1.85128807327337400D-01 -1.92801752117958100D-01  3.11006251785122600D-01  1.49397393643272300D-01
92  9 -4.52181392612136700D-02 -1.04179254382059900D-01  9.58554078635756600D-03 -1.65011035694299800D-01  1.62874937522178900D-01
92 10  3.48228056817661200D-02  1.14534679880105900D-01 -4.80183019638203800D-01 -1.96902403839548300D-01  6.01082987041028200D-02
92 11  2.35056619842846000D-01  2.21078199001488700D-01 -1.68174072433532100D+00 -9.14881077592332900D-01 -1.26274755041044500D-01
92 12  1.48122104163402500D-01 -2.18473491223584600D-02 -2.67542036109720500D-01 -1.14510584471093100D-01 -9.47838031269618800D-03
92 13  2.00941701404128200D-01  4.06737266667717400D-01 -5.88803196742216000D-01 -3.35747042135829200D-01 -8.32737578542656500D-02
92 14 -6.30005827084822600D-02  1.06093428271242400D+00 -1.70772199287866700D-01  5.33626065267928000D-01 -2.73032393482814000D-02
92 15  1.07620444196998500D-01 -8.03172048487163500D-02  2.77579588246249700D-01  3.16895581959538500D-02  2.72157519339526400D-02
92 16  8.98974904641972100D-02  1.93377993167304200D-01 -1.56007148209350200D+00  2.16289435455021200D-01  2.51042184314204400D-02
92 17  1.19526380116955200D-01 -7.84003384097492500D-01 -1.41227950247003400D+00 -6.06464910642377300D-01 -7.03109967272106100D-02
92 18 -1.31118481327493500D-01  2.01429478054703700D-01  1.47529517964696500D-01  5.25866543843980900D-03 -4.10756865213266700D-02
92 19 -6.79362822686952300D-02 -1.66901699163546300D-01  2.10338709889998100D-01  1.97449820125777600D-01 -1.35737028618087300D-01
92 20  8.46831618057060200D-02 -2.18920486423336300D-02  7.38300589713793800D-01 -7.32886071003277400D-02 -1.38592202013422000D-01
92 21 -1.39498271099882800D-01 -1.07639676462497000D-01 -2.91471453424279900D-01 -3.91044217405430200D-02 -7.36148065436239200D-03
92 22  4.64659023949060500D-02  2.59441913063972700D-02  3.37356177645309900D-01  3.00794692177078600D-02  1.43829352883858100D-01
92 23 -6.96424411445445000D-02 -7.41869117393136900D-02 -3.04368169612167600D-01 -3.72303584502007900D-01  2.32760777716937200D-01
92 24  1.31961641705209700D-01  2.46854000066696600D-01 -1.17557642269801100D+00 -2.59591154235887600D-01 -1.45336476817368300D-02
92 25 -1.17735121056785000D-01 -3.75536579158022800D-02 -1.06253694427525500D-01 -2.29642213533945400D-01  1.43237202931159000D-01
92 26  6.65013794818210800D-02  1.17978369322600300D-01  3.30714836315709600D-01 -3.26340867939573200D-02 -1.51401792532364000D-01
92 27  1.84035879326321300D-01  3.75420053894796000D-02 -3.62132514759505100D-01 -7.12313452050593200D-02  1.04410272548400400D-02
92 28  2.28745300455843400D-01 -2.39186327710683600D-01 -8.46664096068408300D-02  4.38770818628844500D-01  1.36934873388777600D-01
92 29 -1.38304635762302500D-01  7.98687072509849700D-01 -1.20802839092361000D-01  1.08062359200939300D-01  1.73996169557553600D-02
92 30 -1.54309497982888800D-03 -2.02708689309796900D-01  1.89449573018365300D-01  2.46948011775742300D-02 -8.49945393486835200D-03
92 31 -2.27842409532985600D-01  5.79351020910534600D-01 -3.49296071943341700D-01  3.57650361823799300D-02 -3.93216126900263500D-02
92 32  2.87362339213216200D-01  1.90263240573900800D-01  2.68052195486754100D-01 -1.16845375887850000D-01  1.06240432510814900D-01
93  1 -4.40918694527096600D-02 -1.10804048208129500D-01 -4.94918393235298700D-01 -6.84070271260640600D-02  2.57193680135696400D-02
93  2 -1.29077804124311100D-01  6.73857671714625400D-02 -6.46979827781795300D-01  1.70483572455375600D-01 -2.63697421470812200D-01
93  3  1.27593851337140800D-01  1.36103570133670900D-01  2.05377226275702000D-01  1.08151657154491500D-03 -2.07398181450639100D-01
93  4 -1.49839323916762500D-01 -2.59650013829019400D-01  1.37572686750440400D+00 -1.54972822355875100D-01 -2.17392261429545300D-01
93  5 -3.53783909212481700D-05  5.80021072671231200D-01  5.43543821170743700D-01 -2.59854599893229500D-02  1.04560987728403000D-01
93  6  1.77413915811607700D-01 -2.81974903540010900D-01 -1.63583998078293000D-01  4.07052803978234800D-02 -1.02888298380237400D-01
93  7  1.44369228437822300D-01  2.10615972543753100D-01 -1.47835492476696600D+00  9.92187424943727200D-02 -1.28507002062004500D-01
93  8 -8.76354531108569300D-03 -3.50367293903289500D-01  6.71730962225946300D-01  6.83004498007241300D-02 -4.96572213510092200D-02
93  9 -3.16460180372075600D-01  3.66117401723085400D-01 -1.39392920316976400D-01 -8.32765686991868400D-02 -1.03327315271275400D-01
93 10  3.44622143853274800D-02  1.19638898826239600D-01 -2.06213795579534700D-01  1.20350118734644500D-01  1.30724565175771400D-01
93 11  1.47200673502295300D-01  6.17960024649286100D-01 -6.67535692525620300D-01 -2.82937895787223300D-01  2.14178931326165100D-01
93 12 -7.18022740639025400D-02 -1.42376657262262800D-01  9.24435409380980500D-02  1.05082505364797400D-02 -2.39032814291367900D-01
93 13  1.30629064026223100D-01  2.86757230041365300D-01 -2.91232584328276800D-01 -2.36969523131485400D-02 -1.50989969562388700D-01
93 14  1.96852530963039100D-02  9.22115647064829800D-01  3.61761335709123200D-01  1.79102356486210500D-01  1.65841834569668300D-01
93 15 -2.12494323421989500D-01  4.66524888523208000D-02  2.26819770980880100D-01  2.48600047119021000D-01  2.92634198719105700D-01
93 16 -2.41047174520114900D-01 -4.82848915556208100D-01  1.52132128439199000D+00 -7.44054423307349100D-02 -1.45371255585047000D-01
93 17 -5.25856658702253700D-02 -7.89260278715740200D-01  9.92092008082081300D-01 -1.16618728860316500D-01 -1.18655513326154300D-01
93 18  2.71521302305248000D-01 -1.52865788979094000D-01  1.87257694261283300D-01 -1.71366179624179500D-01  3.03269483448708900D-01
93 19 -2.40232669107137700D-01 -4.98844336801387000D-01  1.23027721500069500D+00 -6.47716180724821400D-01 -1.22963598679360600D-01
93 20  1.55334598818855100D-02 -9.89647142123841200D-02  1.45301920868957300D-01 -1.46107334119088200D-01  2.85843328537534900D-01
93 21 -1.88034478724955400D-01  4.83092155310781600D-01 -2.57270312534132500D-01 -9.87403839555992500D-02  1.26411658446837800D-03
93 22  9.74762673711308700D-02  9.72869823794147400D-02 -1.51830136115392200D-01 -9.31296964729998000D-02  7.74315299866369800D-02
93 23 -7.40885746060481300D-02 -3.34295538058915600D-03 -8.29430084944201100D-03  1.30290467188881200D-01 -5.09764567689696400D-02
93 24  2.36871158401573100D-01  5.01901617513245100D-01 -1.17009703827360800D+00  8.55945553121594400D-01  4.34929514287574100D-02
93 25 -5.32074645456224300D-03  3.48585852133399300D-02 -2.00154682498109900D-01  5.19656791317557600D-03 -1.60395009425147500D-01
93 26  2.58390144436406700D-01  5.57422341644649300D-01  1.78229075747678500D-01 -4.78732521170240100D-03 -5.21438715461533400D-02
93 27  5.69311967578554300D-02  2.76443045940900100D-02  1.31136516073903600D-01 -1.14241896405752900D-01 -2.64000630427304100D-02
93 28  2.30607849065900500D-01 -2.04207786023170400D-01  1.30967692806371700D-02 -1.29998881732407900D-01 -5.04544357012930800D-02
93 29 -2.52818434273902300D-01 -5.80389603009403600D-01  1.93133174816682300D-02  9.43024411469249900D-02  9.61343235640594800D-03
93 30  3.63503760871371400D-01  2.21064334678311100D-01 -5.14017619244843800D-02 -9.38186745185899700D-03  2.04188376642963400D-02
93 31 -1.09215614371290500D-01  9.58141832001171200D-01  4.75963531049998800D-02 -2.89163660940734000D-02  2.46258736882683500D-01
93 32 -2.11909333890704300D-01 -1.14248996191766100D+00 -1.42321596614592000D-01 -3.72964824723806800D-02 -1.75404578804314000D-01
94  1 -1.01417539424197500D-02  1.38913526483047800D-02  2.08320600077900800D+00  2.08475915707923100D-02 -2.33890213983206700D-01
94  2  9.50206103776763000D-02 -1.31852282129324400D+00 -2.21846426548963000D+00 -5.77629248302472200D-01  2.42245358356396700D-01
94  3 -2.68441029170041400D-01  2.61956708136434300D-02 -1.25301116286109000D-01 -1.27917464887865300D-01  1.37585322412468200D-02
94  4  1.35363641203541400D-01  2.52841998977803800D-01 -1.15450570950183700D+00  4.89385210712489700D-02 -3.90705794309330800D-02
94  5 -4.81902633455995000D-02  8.08805501782184800D-01  1.99999029267230500D-01  4.11429077005879200D-01 -3.31333676417704600D-01
94  6  2.91009803576748000D-01  4.03238728409574500D-02  2.34761402254343600D-01 -1.38546567985931200D-01  5.89686040865469200D-02
94  7 -1.08534839167438500D-01 -1.37314763137292500D-01  2.35324560231416100D+00  2.11651513359942500D-01 -2.53511088757741000D-01
94  8  1.19537210835736200D-01 -1.63576902287537900D+00 -4.40520390089274800D-01 -4.80172567067875600D-01  3.53109664141476900D-01
94  9 -1.43905745027660700D-01 -2.09203919113818000D-01  2.13157694509997500D-01  2.03663864877096700D-01  4.17980894199564100D-02
94 10  2.91617854981178000D-01  5.30198737973103800D-01 -2.19097650398395000D+00  2.55091054281119400D-03 -4.11019951354502400D-01
94 11 -9.27039760537031300D-02 -1.37856377893749400D+00 -1.11662733403459200D+00  8.30967657318431100D-01 -2.48489518224085300D-01
94 12  2.48644424569236200D-01 -1.54906345151138400D-04 -3.14660884820646600D-01 -4.82154248696155300D-02  6.95347223215993000D-02
94 13 -8.58235783933916600D-02 -2.01545662128759800D-01  2.17441284836032600D+00  1.41287548690215600D-01  6.70715209880532300D-04
94 14  6.98577750411335000D-02  3.26262698668146300D-01  2.27580686593805200D+00 -5.63499888051750200D-01 -2.50932136029030800D-01
94 15  7.57640554217829700D-02  1.75168080607248900D-01 -4.21045082845784300D-01 -2.05530131250947400D-01 -1.76750709502973200D-02
94 16  2.36882849807711200D-01  4.55246794549736300D-01 -4.47794134030994500D+00 -1.20511018262084500D-02 -2.23096249207076600D-01
94 17 -7.81730571008926700D-02 -1.69373796852852200D+00  1.97239995639799100D+00  3.72910690522367100D-01 -7.38608772678483000D-02
94 18  5.17984677434349200D-02  2.20624095244120000D-02 -4.75957665240594900D-01  1.13424673036918500D-01 -1.72148415050522800D-01
94 19 -1.46084226711599500D-01 -2.77805106853582000D-01  1.34206170056640400D+00 -1.93262452530457800D-01 -1.42177807503443700D-01
94 20 -4.00549126688481000D-02 -1.05515449786165100D-01  6.69106390053638100D-01 -3.18213157027936500D-01  2.91339456141827900D-01
94 21  2.06709884873126200D-02  4.14889231473869100D-01 -5.83770610298139600D-02 -3.39371551062305600D-02  1.49770588084303200D-01
94 22 -1.15833432978072900D-01  2.27703676226533600D-02 -8.78882993266375700D-02  6.86625972162385700D-02  4.33933080019280200D-02
94 23 -2.47204937064513100D-01  2.03811629062585800D-01 -3.85802343252796500D-01  1.91414741518521700D-01 -1.16256307429791300D-01
94 24  9.76265884916945300D-02  1.52205476915270600D-01 -9.03918472728339500D-01  6.97908488594606200D-01 -7.76363452296843700D-03
94 25  5.31507761918533700D-02  1.07049633877810200D-01  1.99792162671894800D-02 -6.20228754273002700D-01 -3.33315179010138300D-01
94 26 -2.01897756248762100D-01  8.25370550582616400D-01  2.64095900049242300D-02 -6.44545072459483000D-03 -3.51314880756441000D-02
94 27  4.15769388002376900D-02 -7.92495893278395100D-02 -7.73080668008132700D-02  1.15803108160916100D-01  1.44888780236630300D-01
94 28 -1.17602587234778500D-01 -2.72861930018518900D-02 -1.78057287316651600D-01  1.23736389505331300D-01 -1.86970309992900200D-01
94 29  9.57356341152921400D-03  2.73151029530148800D-01  1.61070404279556900D-02 -1.45078388655676300D-01 -2.10683935683526000D-02
94 30 -1.31476325898602900D-01  1.17076480837607000D-01  1.05623890928041400D-01 -1.78916062161360700D-01 -1.29808541959120800D-01
94 31  5.76560566934214400D-01 -1.29998868613000900D-02  2.79457895693249000D-01  1.23039517197699300D-01 -1.11679151274218900D-02
94 32 -2.30802768048782300D-01 -8.48791637484460500D-01 -2.21494097871492000D-01 -9.90125535587248500D-02  2.29637746694634000D-01
95  1 -1.54874048073071900D-02 -6.21012331589259600D-02  9.08536064879514700D-02 -1.53372024389099100D-01 -2.81860690038417700D-03
95  2 -1.31922392380022000D-01 -3.82392151097789300D-01  1.79554022014959800D+00  2.92380813261953200D-01 -1.91878635242695300D-01
95  3  1.74392659560153300D-01  1.74859756825423700D-02  2.51059699161778700D-01 -3.21833544162752000D-02 -4.93312781090730800D-02
95  4  1.72694665321425900D-02  3.68361815594758300D-02  2.42673470541768100D+00 -3.36769710056604600D-01  1.38500138233589200D-01
95  5  3.93178249984550200D-02 -5.67792355863051800D-01 -2.26642397195792200D+00  2.53018342910411100D-02  9.51449378236551600D-02
95  6 -1.07576694921890000D-01  1.24317570982351300D-02 -4.59648971175582100D-01 -7.70079179727300900D-02 -3.29951237177771800D-01
95  7  7.79199958667815700D-02  1.16653244464448400D-01 -3.24530240228603800D+00  2.38403614989168100D-01  2.11026919191561600D-01
95  8 -4.76866454898616500D-02  1.33537239173883100D+00 -2.23344660986984300D+00 -4.84841946257943000D-02 -6.91458388308572600D-02
95  9  5.02251157905132100D-02  1.89207230403446700D-02 -4.99253207139678700D-01  3.91860702727178800D-02 -2.97221440885790800D-01
95 10 -8.50404181302757000D-02 -1.40948608118312200D-01  1.02574772062540100D-01  1.21564876333476800D-01  1.90995900996085500D-01
95 11  1.48377521394046600D-01  5.63324237731718900D-01  3.19932858769779700D+00 -2.12499845155299200D-01  2.84558350518713600D-01
95 12 -2.81352653979584900D-01 -3.20569653912869800D-03  1.82695148399505200D-01  1.81434251107110500D-02 -1.90384261527816600D-02
95 13 -1.75721755610497600D-02 -8.49928876000772000D-02 -2.78406007108523100D+00  2.01601217141088400D-01  5.68310291079895900D-02
95 14 -4.79326866308078300D-02 -8.11737800313510600D-01 -1.56287854654710900D+00  3.80487063381762200D-02  4.58921444821777900D-03
95 15 -1.55804046966057800D-01  1.51214832517840100D-01 -2.54439487534694300D-01 -1.37923279600160000D-02 -2.32350920121918200D-01
95 16  6.59273009425841000D-02  1.77097271779258300D-01  2.03596462138964800D+00 -2.07030347309039000D-01 -2.13937793037119600D-02
95 17  3.81289242732883900D-02  5.81344851504495300D-01 -1.41507925763989500D+00 -7.29815662297823300D-02 -1.95622226821832600D-01
95 18  2.96727804623987000D-01 -1.01105577802153000D-01 -2.06009838864824200D-01  4.39703377093843900D-02 -2.78575291454950100D-01
95 19  1.81988481973216100D-01  3.59811089552392800D-01 -1.51388646944374000D+00  3.21023178698178300D-01 -1.93931402339724400D-01
95 20 -7.72390312378015800D-02 -1.83767963738935100D-01  4.13758651402666500D-01  4.08575597915849100D-01  3.38001542939163300D-01
95 21 -2.31592835358040000D-01 -4.35617076653221800D-01 -4.04037021632513300D-01 -1.05479508216274100D-01 -4.14412421281185700D-02
95 22  1.46920750344393100D-01  1.44968773576657700D-01 -4.56866377966873400D-02  1.79283934127938000D-02  1.80216717144365500D-01
95 23  1.33963731380234800D-01 -3.14180448524601500D-01 -1.73713062331009800D-01  6.21081939585295000D-02 -1.61743760124219600D-02
95 24 -3.62183562532620100D-01 -7.26929865845671700D-01  2.61073462977306200D+00  4.26891584616071200D-01  1.50927527683992100D-01
95 25  2.07491323026409100D-02  3.84329552511376700D-02 -4.05827737577127100D-01  7.78867459545477600D-01 -9.85063823085530100D-02
95 26  3.29615568853237900D-01 -5.89122336478317300D-02  1.95598195930980900D-01 -1.58043792290750200D-01  9.80129738107202600D-02
95 27  6.00308184800309500D-02  2.92760439871442300D-02  3.77904516187241200D-02  1.05907449638132700D-01  1.70521315195877100D-02
95 28 -6.58185902916518900D-02  4.87664587720642700D-02 -3.29059125336638500D-02 -4.05030049581663100D-02 -1.59689185862722200D-01
95 29  3.75820427893988300D-01  7.72487923161150000D-01 -4.07329133665083300D-01  3.41625565939551900D-02  1.55547840798737300D-01
95 30 -3.11270232614155300D-01 -1.24463120065927600D+00  3.30783474281680600D-01 -3.79131141397855100D-02 -5.31460106524864600D-02
95 31  9.31871377240606800D-02  1.47186488657104800D-01  4.29172081978431200D-01  1.45530151060906800D-01 -7.34866497257010000D-02
95 32  3.34330559216934100D-02 -1.39326028969853500D-01 -2.95521329385938800D-01 -4.71521175070639900D-02  1.94424552364770400D-01
96  1 -1.20287921253912600D-02 -1.15038863578446500D-02  4.91704167508978300D+00 -1.42324554698376800D-01  3.13047503736440000D-01
96  2  1.03419072701124900D-01 -1.98152702881351800D-02  3.56705762888167600D-01 -3.62128865620353100D-01  6.04452164588077600D-02
96  3  1.50033871613358100D-01 -2.10479088072164100D-01  3.47069777296226900D-01  5.18259365563161300D-02  9.89536364253932600D-02
96  4 -2.08091936321936900D-02 -6.26354601285443200D-02 -1.98411059987971200D+00 -2.22193381031301500D-01 -2.33631966158798700D-02
96  5  4.81083701961777500D-03  1.43308469188511000D+00  1.13683653502438200D+00 -4.03592017797225500D-02  9.86467867734375400D-02
96  6 -2.53957959157551800D-01  1.55311172384113300D-01 -1.73712041712681200D-01 -1.10441191850619200D-01  1.68936595135862600D-01
96  7  4.59842640766224600D-02  1.25196389470034800D-01  1.69745586179367100D+00  2.62393906284544000D-01  1.83783964300084500D-02
96  8 -3.51931850027363500D-02 -1.38213281045445600D+00  1.24274074300240600D+00  1.05285814201280200D-02 -1.25186924581605700D-01
96  9  2.32373067233525700D-01 -1.07186142651919100D-01 -1.57090273920600300D-01  8.40035317932446800D-02  2.30350073104584400D-01
96 10 -8.81792355442210200D-02 -2.04593479504961600D-01 -3.68515332356316700D+00 -1.17416849982134200D-02  1.46684826210909600D-01
96 11 -1.03238293641163800D-01  5.90067825516654900D-01 -1.54796576669662500D-01  3.16326410528222700D-01  4.57888980489032600D-02
96 12 -1.32775199859482900D-01  8.69863018105800900D-02  4.74022675193198900D-01  7.68577596291148100D-02  1.71867476661388800D-01
96 13 -5.67993657566473600D-02 -8.27779505957440000D-02  1.20866053528833000D+00 -2.17398891768366000D-01 -3.22562871177076800D-01
96 14 -8.83686841223301800D-02  2.34491271184584400D+00 -5.89797210298346500D-01 -6.21525644569600900D-03  3.37365496889494100D-01
96 15 -2.47959854475499500D-01 -8.94056424139957100D-02 -7.76389441568390400D-02 -1.98574743675805400D-01 -3.28428641297741500D-01
96 16 -1.67486253650382800D-02 -4.62237140238921200D-02 -7.25788001110156800D-02 -1.13563175182866900D-01 -3.91632602338993400D-01
96 17  1.29967294626899000D-01 -2.05567572730194700D+00  4.36403860271246300D-02  5.96759124363540800D-02 -5.06041650363870000D-02
96 18  9.74264919349385600D-02 -4.68223268985518500D-02 -2.53399254226765800D-01  2.29322602598310400D-01 -2.63947914755870100D-01
96 19  1.66037064215811500D-01  2.85285513601970400D-01 -1.37470728719162500D+00 -1.69319829447925600D+00 -2.56476190502456000D-02
96 20 -7.15582403249098000D-02 -1.30600896986819100D-02 -1.24772785413864700D-01  1.25799205729043500D+00 -7.83400480876944800D-03
96 21 -1.83020973654408600D-01  7.67715993746442500D-01  2.19733298155992000D-01  1.21586685206173000D-02 -5.77888879810091500D-03
96 22 -6.37977972251614800D-03 -1.84339247111049100D-02  2.62601741254285000D-01  7.89946023165681200D-02  1.80576892539418900D-01
96 23 -4.41356658944418800D-01  2.60779766405000200D-01  2.58324686596016100D-01 -2.90583396360249300D-01 -5.69557310654485900D-02
96 24 -1.07254525923428500D-01 -1.68649254339403800D-01  9.81838267062128500D-01  4.40289657033806700D-01 -7.34442597151201100D-03
96 25 -3.98034608065266800D-02 -8.16088351493286500D-02  2.04622351250774700D-01  7.88669900183989200D-01  2.07490419013442100D-01
96 26  2.91271824817308300D-01  1.67320229324945200D-01 -3.25781322607619800D-01 -3.75790895487969600D-02 -9.81594642423934200D-03
96 27  4.73950359730358300D-02 -6.74255851356166100D-02 -1.27072920449316200D-01  2.30488449954021800D-01 -1.04726546388912300D-01
96 28  2.83576760947257800D-01 -1.78850214558345400D-01  4.59654175738193800D-01  5.04288296042711100D-02 -1.38374585278889600D-01
96 29 -4.62129367458630300D-02 -4.59909190415162600D-01 -1.11317024425268500D-01 -5.33046594139261100D-02  7.88254822685283400D-02
96 30  8.43200779571595500D-02  5.19375405338618100D-01  2.39784322293487000D-01 -2.65624564478922500D-02  8.81374491652957700D-02
96 31 -3.19205457618285900D-01  1.18839211558639600D+00 -1.48963618325035100D-01 -7.37220787941649800D-02 -2.71302725415736600D-01
96 32 -3.24924628597599200D-01 -8.48508711758706700D-01 -2.21916998318212400D-02  1.40718410032230200D-01  1.37921491345454900D-01
97  1 -1.93417516480135800D-01 -3.45082600866868600D-01  3.43875774167166600D+00 -2.01801714417972700D-02 -3.10769785274518300D-02
97  2 -1.49386201339379700D-01  3.20426334166421600D-01 -2.76413419214312400D+00  4.31777575186985100D-01  3.78558030337488700D-01
97  3 -2.02176830557017600D-01 -1.76381199780470900D-01  7.82596510284467100D-04  4.45631786772285700D-02 -1.26344255179956700D-01
97  4  2.04279099645574800D-01  3.38339691254678900D-01 -6.68766956661763200D+00  1.28826448656464600D-03 -1.94090629583853400D-01
97  5  4.31147088276508400D-03  1.45209151552424900D+00  3.21793285396808300D+00 -1.28098344735490400D-01 -8.51532183586657900D-02
97  6 -1.55983688567199900D-01  2.41136906925864700D-01  2.08899093226885700D-01  8.15861826530540500D-02 -9.17877063875144100D-02
97  7 -2.53400351686194600D-01 -4.22526979698914800D-01  6.55531003583752900D+00  6.83961162131840100D-02 -1.66068032901402300D-01
97  8 -2.54082459187944000D-02 -1.56001234987643400D+00  3.40893871330571200D+00  1.86460691908952700D-01  1.13299056815968100D-01
97  9  1.43233120860797400D-01 -2.56532177676767000D-01  2.00539544008561300D-01 -1.03407324054438300D-01 -1.18098002530068500D-01
97 10  1.87722604288357700D-01  2.96168757830383700D-01 -3.34123334229004000D+00 -1.28291976400317000D-02 -1.53760326702455000D-01
97 11  1.89114235027320700D-01  1.17299117224027900D+00 -3.91474876744244900D+00 -5.67956011196546300D-01 -4.34184019087893500D-01
97 12  2.76658342598118200D-01  1.57525676489776300D-01  1.07250448666985500D-01  3.04625379305099600D-02 -2.11538419284090900D-01
97 13 -3.91329847828858300D-01 -6.55013315888096000D-01  7.90390049411148200D+00 -1.04636030906115000D-01  9.70088174909154400D-03
97 14  3.10615236989351600D-02  2.91892009363572000D+00  1.82278499880042300D+00 -1.87306020406818700D-02  2.18848226379608200D-02
97 15  3.15159236979712200D-01 -3.37044059617673100D-01 -2.29455054434329900D-01  2.85535192375399100D-02 -3.65714663723105300D-01
97 16  9.13150973065597900D-02  9.94792966250605300D-02 -5.06507954172775900D+00 -1.74063736180149400D-02  1.36156586737344200D-01
97 17 -9.48700634586300100D-03 -2.34575641251025800D+00  2.63700136469758700D+00  1.25375385020835300D-01  1.97869285871334300D-01
97 18 -2.98590471734487900D-01  1.00721185863150400D-01 -2.90287448127014900D-01 -5.02123221555856700D-03 -2.65960540179938000D-01
97 19 -5.64293770041096700D-02 -1.02853096499788400D-01  8.62814637801251800D-01 -2.11450568672417100D-01  1.51584441332035900D-01
97 20 -4.48661216006918700D-02 -2.04369101690113200D-01 -3.85464819101395800D-01  4.05999572787397900D-02  3.79304632411423900D-01
97 21  1.61271653983078500D-01  2.13956093418816700D-01 -5.10601102956980000D-01  1.78385691096207700D-02 -1.48901175366115300D-03
97 22 -1.63495573559600600D-02 -3.11599205114987200D-02  5.35245310380453200D-02 -2.68373107506168900D-01 -6.44670440726909900D-02
97 23 -9.42306993332425200D-02  1.58697743405935300D-01  1.38427593453194100D-01 -7.50285869245645700D-02  2.07536996646305900D-01
97 24  1.06514018512200900D-01  1.96322487672099900D-01 -1.32514312227891300D+00 -1.11376238194435900D+00 -7.85285937600463700D-02
97 25 -1.84586964996924700D-02  2.69135154897132700D-01  8.08420926669581600D-02 -4.11749850056819800D-01 -5.01609183204920200D-01
97 26 -1.33938478356162300D-01 -4.15316870900542800D-01  5.95615063866810600D-01  4.82834871008467900D-02  2.97244704253557400D-03
97 27 -5.12559341433842900D-02 -5.00718605653852100D-02  2.62338411576370400D-02 -1.52245564136496300D-01  1.22804633179858100D-02
97 28 -5.37199212474366800D-02  4.14394579294508800D-02  1.04567865125840900D-01 -6.54835135798567300D-02  1.48989990798972700D-01
97 29  1.22406808900443500D-01 -8.07297926633837900D-01  4.52307549838866400D-02 -2.53979056862240400D-01  4.92006299492811600D-02
97 30 -1.97943422940027200D-01  9.45503279450728000D-01  7.65361888668788700D-02 -1.97271831839128200D-01 -6.02756625944182400D-02
97 31 -1.39413413269412900D-01  6.48565004777141500D-01 -1.56843887026510900D-01 -8.06549871309407300D-02 -1.98240358455712100D-01
97 32 -3.31028337225610500D-01 -8.17654623934495700D-01 -4.35415028191184600D-02  5.80044163021780800D-02  1.04370296145807500D-02
98  1 -3.52059753861325300D-01 -6.79615747393724200D-01  3.03188282165253100D+00 -2.73625055606786700D-01 -4.13973781785551000D-01
98  2  3.53819428752989600D-02  3.11133222119182800D-01 -3.54914235369979400D+00 -4.20563296526625700D-01  1.81906177151783200D-01
98  3 -2.18434018899048500D-01  3.65278417472662500D-02  6.98032891368468900D-02  7.44251248016346200D-02 -5.89205513714472700D-02
98  4  1.56803837939704300D-01  3.45449914943823500D-01 -1.92583336871668200D-01 -1.96932788253611000D-01  3.33119799373855900D-03
98  5 -7.98336397726599300D-02  3.48970717377874700D+00 -1.36270590169772900D+00  1.95758943125500600D-01 -1.58692036311836900D-01
98  6  3.67748697367149000D-01 -2.09056661055313700D-01  5.79759153912901000D-02  9.24850866698008900D-02  2.19516198189940700D-01
98  7 -7.38056044846545200D-02 -1.90799191372474300D-01 -4.31620906382889100D-02 -5.29552764827748500D-02  9.22355992925364800D-02
98  8  6.98813608940606600D-02 -2.35494612859566900D+00 -1.94072094708772100D+00 -1.98703413793557800D-01  1.89129490659203800D-01
98  9 -3.64602927243799300D-01  1.75473436584595600D-01  6.11765982161855500D-02 -8.83890513907774300D-02  2.56206835123866400D-01
98 10  2.48932199704369700D-01  4.72058764543444400D-01 -3.46783049625267000D+00  7.97692437604957300D-02 -2.48066618934668700D-01
98 11 -3.13521885978562500D-02 -1.51239279337836300D-01 -1.53787813147263600D+00  2.64093205161106000D-01 -1.47081900453703700D-01
98 12  1.41635906126887800D-01  5.44599432681618700D-03 -3.88758095767691400D-02 -7.83681521055986500D-03 -9.90627457973059200D-02
98 13 -8.24017911473972100D-02 -1.82779050427244600D-01 -4.00878712621213800D-01  8.41015858492543900D-03  2.01831552426264500D-01
98 14  3.38939572335483400D-02  2.61114920888685100D+00 -2.20471144120662300D+00 -1.58238204704711900D-01 -7.83033926050595700D-02
98 15 -2.68784580942324300D-02  1.05181850699290400D-01 -2.26531743883903200D-01 -2.28649033837336100D-03  8.81137865172474400D-02
98 16  8.66293491787960700D-02  1.77106906561443200D-01  2.21428889019600300D-01 -1.18107187320955900D-01  7.67878778761956300D-02
98 17 -2.14385871484749500D-02 -3.10492462602947500D+00 -1.66168069323036600D+00  2.04544767345476600D-01  3.02948782417643000D-02
98 18  6.57399092895601900D-02 -9.60347875313241200D-02 -2.61751459010052600D-01  1.70359106256983000D-02  1.16013700446524900D-01
98 19 -2.41791605235169200D-01 -4.49186674072160800D-01  1.69873600782438600D+00  2.53418159777536900D+00  4.46898463895648900D-02
98 20 -1.65003441882971300D-02 -1.42164881345096600D-02 -1.39850334028927800D-01 -1.08502718968056400D+00  1.53014860949090700D-01
98 21  3.10845616024432900D-02 -1.16857372491793600D+00  3.40046861506427500D-02 -1.61839676445140300D-01  1.17538309928972200D-01
98 22  4.43013665161703900D-02  3.68688543074488400D-02  1.61388643261619600D-01  1.53616376285954500D-01  1.22958681539492000D-01
98 23  2.93021342949394600D-01 -4.15980024488884300D-01 -5.81453202399576600D-03 -2.12017574699526300D-01 -2.24760831341248100D-01
98 24  6.93099395520176500D-02  1.25691869637227100D-01 -3.21687620320576900D-01 -1.48060642713242600D+00 -1.58795927081650300D-02
98 25  5.99453375344308100D-03  1.20699233147772600D-01  3.28407162452160100D-02 -5.22164954897518400D-01 -3.10029048822752800D-01
98 26  1.45415979333716000D-01 -6.67142637641458100D-01  1.43791019115847300D-01  4.29976432782181500D-02 -6.67659557038255700D-02
98 27  2.37683124256070500D-02 -1.71317508540196800D-01 -1.07211326156557500D-01 -6.28714190488922400D-02 -8.68027819100015800D-02
98 28 -1.61558311629511700D-01  2.48361093539513400D-01  2.35647367812519700D-01  9.83695804233562200D-02  1.60069646650603400D-02
98 29 -2.87167691087363400D-01 -1.52347464678671800D+00  1.48062425106357100D-01  3.92070470613179700D-02 -1.25184292050617800D-01
98 30  2.08650434270861100D-01  5.28335277454428000D-01 -4.78458536472945200D-02  5.88633856974568300D-02  1.74883741062005500D-01
98 31  3.16055249338778600D-01  6.67001427498358100D-01  8.88559907608863900D-02  3.60235486063773300D-01  3.79133539932963500D-02
98 32 -3.85791831927540400D-01 -1.08865362243496900D+00 -6.53148544177051100D-02  3.58213920866057600D-01 -1.10710516548764500D-01
99  1 -2.19933509341602300D-01 -3.17568455323335900D-01  1.02634807719652300D+01 -3.11555794154236300D-02  1.59067543837202400D-01
99  2  4.75999034387381400D-02 -1.75097259804979600D-01 -9.25316808239720400D+00  3.03648784925440400D-02  1.49015644398600500D-01
99  3  2.16418799416449100D-01 -3.65434443815050700D-01  4.76575329512159600D-02  1.48911085078836700D-02  1.90229205271483800D-02
99  4  7.05779258236099800D-01  1.17369173532978400D+00 -1.71517191670886100D+01 -1.10835205647888200D-01  1.27756042710589500D-01
99  5 -1.10461245451440900D-03  6.69106547286084400D+00  6.87768972980603500D+00 -6.39399397186388000D-02 -2.29444171740564400D-01
99  6 -3.37340517855480400D-01  5.66784689596043000D-01 -1.87243376251655500D-01  5.26868641056751100D-02  7.31863913682439900D-02
99  7 -6.88756616244093000D-01 -1.14316174797970800D+00  1.72317519666845700D+01  8.52260611009070900D-02  1.36313163977770000D-01
99  8  9.52034720351185500D-03 -6.41190030322499700D+00  6.69262071356475800D+00  4.77245372935937800D-02  2.44719108442785900D-01
99  9  3.28429642551681900D-01 -5.73148750994471300D-01 -1.94825176306648300D-01 -8.29647648550424500D-02  9.37506768724737500D-02
99 10  2.63398543941268500D-01  4.13546270044156000D-01 -1.05657070142496200D+01  2.91850615716893200D-02  2.02749108075652600D-01
99 11 -8.17177441693981600D-03 -9.82280599021649700D-02 -8.59963571725903400D+00 -2.55552975915977300D-02 -1.78246732613560700D-01
99 12 -2.10095786026878200D-01  3.88342518640440400D-01  2.51986214092878300D-02 -2.60281514220592400D-02 -6.74814765396831700D-03
99 13 -6.63469194007064600D-01 -1.10464262624870800D+00  1.69132869726806700D+01  4.38471622487432600D-02  3.92211339513983600D-02
99 14  1.52333403313093000D-02  6.18961189076798500D+00  7.19897130845838000D+00  1.00551074122279600D-01  3.15644668000193300D-01
99 15  2.35067175535205000D-01 -5.50711843535396800D-01  5.83009722250632500D-02  8.11280195658910100D-02  2.30464293901696800D-01
99 16  7.06331771880008100D-01  1.17782720218668200D+00 -1.74647348510414200D+01  4.78188528109275400D-03 -1.35415335942035600D-03
99 17 -7.27141750463669300D-03 -6.41716552455793100D+00  7.15196407912678800D+00 -1.26358599191796800D-01 -3.84010112969448700D-01
99 18 -2.05143008724158000D-01  5.89153121693597600D-01  7.16169280560223500D-02 -5.77168409223015500D-02  1.99226461733822200D-01
99 19 -9.49127028281286100D-02 -1.61187981239006100D-01  1.79804195480947000D+00  1.62327012500454300D+00 -6.49458623370909700D-02
99 20 -5.26187405140041800D-02  7.08513406136931500D-02  1.77645562096999300D-01  3.48015527591051900D-01 -1.54280233696093400D-01
99 21 -1.09266481128220500D-01 -5.20650908791354300D-01  1.16655281435794700D-01 -2.85578382576311900D-02  2.58873670215700000D-02
99 22  2.67047123606085500D-03  5.34038878765173400D-02 -1.26100769064313100D-02 -6.88101807260776800D-03  1.31193680984519500D-01
99 23 -4.31678811605400700D-01  3.00485130620885800D-01 -9.28540861391261900D-02  1.16621292821971700D-04  3.83570621547511700D-02
99 24  5.79229849671508900D-02  8.95553105124222700D-02 -1.47607602594838400D+00 -1.03298489907162100D+00  7.34863579318837300D-02
99 25 -4.01265816980575300D-02 -1.19008663160579900D-01 -1.62977407488287500D-01  5.06749773593067400D-01  2.08602024406545800D-01
99 26  1.64336740066203700D-01 -2.43437101749662900D-01 -1.58284319970590100D-01 -9.38277658170133800D-02 -2.52219002521844600D-02
99 27  1.19049666069193200D-01  2.57325057054139900D-02  7.09962480523897800D-03 -2.69214103091387800D-03 -1.33793062360680400D-02
99 28  4.58500760856519000D-01 -4.45121454620451000D-01 -4.60685268130843200D-02  1.65321132755166200D-02 -2.50788950094687900D-02
99 29 -2.73100368579297800D-02 -2.21514574885679800D+00 -2.90212350537550000D-01 -2.50759006317580900D-01 -5.04464620784800300D-02
99 30 -2.74461194804748500D-02  1.90538178733425500D+00  2.48454131054073800D-01 -2.91600764069221300D-01  9.81254693327797000D-02
99 31 -2.57840245073662200D-02  2.46479855981261300D+00 -5.70708079644992000D-02 -3.07648874262634500D-01  1.40601820730184800D-01
99 32  1.07753909262406400D-01 -2.53441577465710300D+00  1.36413248155619600D-01 -3.71678846303541300D-01 -7.97756048459868400D-02
 0  1  2.46328817240517500D-01  3.44848146866376200D-01 -1.03505749717334700D+01 -9.58679221805289100D-02 -1.97924144940024600D-01
 0  2 -3.10734620417993900D-02  1.74764141548172300D-01 -2.46589824046178300D+00 -7.84231898081699800D-02 -2.35313331901941800D-01
 0  3 -3.28453194635341000D-01  5.63766526537280100D-01  3.54076654362226900D-02  3.26291798309962200D-02  3.92763378148130900D-02
 0  4 -9.66932455231751700D-02 -1.29410334337963400D-01  8.77819966937529600D-01 -1.74363038550140800D-01 -6.83103274558191200D-02
 0  5  2.88480933876216700D-02 -2.37623739683575900D+00  2.06215808238248800D+00 -2.52397523838698300D-02 -5.53835653705662500D-03
 0  6  2.36984525103355000D-01 -2.31446168566296400D-01 -3.75288608437758600D-01 -1.10560981946825400D-01 -1.21031746212298800D-01
 0  7  1.54373500809756300D-01  2.49949443701607100D-01 -1.15907698635847500D+00  2.09832213421914300D-01 -1.07057898077788000D-01
 0  8 -3.60379826519386400D-02  2.87674027593048400D+00  1.91632208742814100D+00  5.11897453482028600D-03 -4.86358607523161800D-02
 0  9 -1.61612293013579500D-01  2.10248153765893700D-01 -4.29359040271855300D-01  1.30117193380672400D-01 -9.05370618654301500D-02
 0 10 -1.97630441559470800D-01 -2.68764881014128400D-01  1.00623098074235500D+01  5.56558010000500600D-02 -1.94005524313993500D-01
 0 11  7.49051558768824900D-03 -1.67733449762363000D-01 -1.36212221474735600D+00  6.67141549367215200D-02  2.59496634811332600D-01
 0 12  2.66793488822032600D-01 -5.26290123633366100D-01  1.93676088751917400D-01  3.37839300655474100D-03  1.07879693439573400D-01
 0 13  7.87655571954053300D-02  8.83757680305963200D-02 -1.02615535732832100D+00 -1.04539501953360500D-02 -6.41804383033922500D-02
 0 14 -7.52179068550430500D-02 -2.62395540694139100D+00  2.01374004069491400D+00  5.36838740099593200D-02 -1.62454486918892200D-02
 0 15 -2.15284708557164100D-01  2.31530157249055000D-01  2.20488038773585300D-01 -1.46391259636647800D-01 -1.87243408197179600D-01
 0 16 -1.18950681074632300D-01 -1.73359485359110400D-01  1.17993310486397100D+00  9.10480179132041300D-02 -1.30078540660431900D-01
 0 17  8.92315773733984000D-02  2.24622107403898100D+00  2.43229551585797000D+00 -5.09434793123962800D-02  4.03990322956592200D-02
 0 18  2.41664141848985300D-01 -2.82063174144646300D-01  2.48181916428439800D-01  1.26867439446110400D-01 -1.82474046450833800D-01
 0 19 -4.85846442294993400D-01 -9.01332708898477300D-01  4.13825455543972600D+00  2.27033282986982600D+00 -2.91626669021553900D-02
 0 20  1.77465420469166700D-02  2.13058658214086500D-02  2.09115777998794900D-02 -2.05208610534422300D+00 -3.65326582234846500D-02
 0 21  3.31864105920419800D-03 -8.56330860702350100D-01  9.92183869381727400D-02  6.95206319775582800D-02  6.01666827125887600D-02
 0 22 -1.29687314690147300D-01  6.28190966117699300D-02  1.10000812121000000D-01  1.10899563542636000D-01 -3.63549872592028800D-01
 0 23  3.30271632593627500D-01  3.32782399983995400D-02 -7.14499027526453900D-02 -1.30902679042837600D-01 -1.56532076378250100D-01
 0 24  4.23878128075736700D-01  7.86708417717082200D-01 -3.48885244568450500D+00 -1.71633970198797000D+00  9.25257016808501600D-03
 0 25  6.84010572341638300D-02 -2.88925845108345900D-02  1.07478430715323700D-01 -1.90475353695620300D+00  9.71665416925997500D-02
 0 26  9.46521380770917600D-02 -5.80091212096318100D-01 -1.24179241055757400D-01 -9.07311136714581400D-02 -1.44371405202103800D-02
 0 27  1.05168254191669700D-01 -3.82914273707978200D-02 -7.09425512395255900D-02  1.34199097521875800D-01  3.92676766823689200D-01
 0 28 -4.04088219374851200D-01  1.14114525511617400D-02  1.99918528149941100D-01  6.29488098862223000D-02 -9.21187530916529700D-02
 0 29  3.26335889822972200D-01 -3.17641960066728600D-01  7.11737972253118500D-02 -2.31804364480188800D-01  1.31453566903185400D-01
 0 30 -4.06457656805750000D-01 -8.26172942128035000D-02  4.86486243797194700D-02 -2.45228087310683600D-01 -8.94962496189662100D-02
 0 31 -2.08186350086975100D-01  1.35312381586885000D-01  1.51080623586593500D-01 -1.45060968794251500D-01 -1.40001901661283900D-01
 0 32  1.67911569047643500D-01 -5.28394519327019800D-01 -1.07398635034111900D-01 -1.50920590516059300D-01  9.55801465575180900D-02
 1  1 -4.12251234065452600D-01 -7.33111091272195000D-01  6.45397577261838200D+00  1.21051397115959900D-01 -4.00954061318361400D-02
 1  2 -9.84719281552221400D-02  6.15451049627116800D-01 -4.01358033785921800D+00  8.83596486377206500D-02  1.93496908333526700D-01
 1  3 -5.05466609467197400D-02 -1.42950247386806600D-01 -8.43186821416378700D-02 -2.89330349239712500D-02  1.00113267633820700D-02
 1  4  1.91443571035293400D-01  3.23130678378370800D-01 -4.75133559437004700D+00  1.23411192244034000D-01 -7.16955887144445600D-03
 1  5  9.13338725877705500D-02  4.22543563357451700D+00 -1.80788422935184300D-01 -6.73955274926813600D-02 -4.68350602104908700D-02
 1  6 -1.35831222460725200D-02  6.04181824565613500D-02  3.31220655228814300D-02 -1.86659616455797600D-01 -4.57818896197366500D-01
 1  7 -1.38149792821741500D-01 -2.30147905736832800D-01  4.00754285998425200D+00 -5.34806782295192800D-02 -5.55877765743770000D-02
 1  8 -1.41826396486319600D-01 -4.74418594149631100D+00  5.64212093129705900D-01  1.05102286563984800D-01 -4.13345890487937400D-03
 1  9 -3.24817358096711100D-02  3.66151947145507600D-02  2.46803116748403700D-02  1.71238438915938700D-01 -4.65315206548224700D-01
 1 10  4.02609397229422100D-01  7.19354708626003100D-01 -6.96105908963196600D+00 -2.70228006407535200D-02  5.70212535585542200D-02
 1 11  2.81423348713173400D-02 -1.92647186960837500D-01 -5.06407049691231600D+00 -9.72337441048896900D-02 -1.10556569453568900D-01
 1 12 -9.68713649971524200D-02  2.07427934450721900D-01  6.78881849831301800D-02  2.88503964660814500D-02  7.69465465251777000D-02
 1 13 -1.29756643961953000D-01 -1.93917216904631200D-01  4.26462819650366500D+00 -2.84786333017215500D-02 -9.66136463517396600D-02
 1 14 -1.02818290973973900D-01  4.17211007486214200D+00  4.18835731517201300D-01  1.22831082722761700D-01  2.67302680042756800D-01
 1 15 -1.63984258780949000D-01 -1.03318421261808900D-01  2.70742038493514700D-01 -8.45302491742574400D-02 -3.14712804864425900D-01
 1 16  2.08416520756292200D-01  3.63925131647488300D-01 -4.48527819593395500D+00  1.05210308698257100D-01  6.16640674999076100D-03
 1 17  8.36462048488423000D-02 -3.24567667581988900D+00 -9.54006066577299000D-02 -9.81597325160677300D-02 -2.47063698604162200D-01
 1 18  1.12853279907145200D-01  1.34210418697015700D-01  3.99373728370204400D-01  6.47947680211168500D-02 -3.06111493715024800D-01
 1 19 -1.94943893370351000D-01 -3.86493130286965500D-01  1.22915626443847700D+00  1.02068813719135200D+00  1.57195121248986800D-02
 1 20  9.84527347663601300D-02  4.03347433652444700D-02 -1.45068497001235800D-01 -4.79833608372177100D-01 -7.85437675424762200D-02
 1 21  8.95180507725014400D-02 -1.70800345405109200D-01  9.64807366801142300D-02 -1.29266466614534100D-02  3.51381532628467000D-03
 1 22  9.41283133516919300D-03  4.26701685622438400D-03 -7.96183336136572400D-02  1.54930786202923000D-01  9.51186475706981800D-02
 1 23 -4.28355076509316900D-02 -5.22831399197635100D-02  2.16650937056700400D-02  9.78640644467819200D-02 -2.24431770232511500D-01
 1 24  2.10098803957616100D-01  4.14468510831695200D-01 -1.46130005630285400D+00 -1.23140314681745300D+00 -4.69164744271533000D-02
 1 25  6.13758219014605600D-02 -7.55448772914465000D-02  1.75913144952266000D-01 -2.58900959914842700D-01  2.03602954575919300D-01
 1 26 -1.51714045468358400D-01 -3.35192429126935100D-01 -1.84433610642581300D-01  1.33743245436924700D-01 -1.70449042793075500D-02
 1 27 -1.16698341157618700D-01  9.95525291361032500D-02  1.13261832478224500D-01  9.03290426542762400D-02 -2.76878663159825300D-01
 1 28  1.63076465580850400D-01  1.13802197578974800D-01 -4.73237566709706100D-02 -1.20171569929365000D-01 -1.17500633410967700D-01
 1 29 -2.31194889434316900D-01 -9.94662260196773100D-01 -1.27675469774609100D-01  2.51773261447138300D-01  2.85564973254117300D-01
 1 30  3.71720048425621200D-01  1.77417807211207500D+00 -2.36776321029026900D-02  2.20829013606558800D-01 -2.26337446222743800D-01
 1 31  1.50573040130237900D-01  1.05880101214426900D+00 -2.80109537591184300D-01  1.07478372807031300D-02 -1.63253787766488100D-01
 1 32  1.03083280215562800D-01 -1.60228840784230100D-01  3.52692173382212600D-01 -6.16152848374900800D-02  1.53035293533526000D-01
 2  1 -3.29779315301082600D-01 -6.27520449232546700D-01  1.78783875356074700D+00 -3.51503220721607900D-02  1.21222533170817500D-01
 2  2 -3.67855691354827500D-02  7.37055895040078700D-01  7.90747599456476800D-01 -2.60849029577755000D-01 -5.39764036895389900D-01
 2  3  7.04613291378689600D-01 -1.64849254483298200D-01  7.61043986196317700D-02  2.03131639278159500D-02 -2.93313297384673600D-02
 2  4  5.38952948475265100D-02  4.23294386628159700D-02 -1.04173362469191500D+00 -1.94135954402748900D-01 -3.44304762586517700D-01
 2  5 -4.89274021740369300D-02 -5.25784423283191500D-01 -4.81898719954027600D-01  3.24181696556481100D-01 -5.16614061256219600D-01
 2  6  3.87697296285115500D-01  1.28916764971102900D-01 -7.70647102074558300D-01  4.62504681766204900D-02 -3.30234133206194400D-02
 2  7 -2.53506608473595700D-01 -4.77765354362892000D-01  1.81866451506483100D+00  2.31276717958275900D-02 -1.39950176774398200D-01
 2  8  3.89063773692044600D-02  2.01733310217311000D-01 -7.71268850690227400D-01 -2.84039706384909900D-01  6.57918448422823500D-01
 2  9 -4.90817411812053200D-01 -1.67101036610769000D-01 -6.19499202117883700D-01  4.22984897720095300D-02 -4.08288214013282300D-02
 2 10  4.56557985099574000D-02  2.32187557146432900D-02 -1.64298936420405100D+00  6.50039891478732100D-02  3.24076316965516000D-01
 2 11 -9.02005348096824700D-02 -1.30633782881918500D-01 -1.10432631875553200D-01  1.58224252011120200D-01  4.13776836396845400D-01
 2 12 -6.04014079786456800D-01  1.90237243389610900D-01 -1.23343874178097300D-01 -9.12239827529830400D-03  6.34628627591656800D-02
 2 13 -1.41455869203810000D-01 -2.09025179693383100D-01  7.26370885110805300D-01 -5.87480262661978500D-02 -3.20410196497505700D-01
 2 14 -5.89085373106648400D-02 -8.40485954075897000D-01 -1.12945744206888000D+00  2.22059843899457700D-03  4.72517447510409500D-01
 2 15 -2.97229329625246200D-01 -1.75288117885164800D-01  6.70164795271711600D-01 -4.93919338077965200D-02 -8.79248003370320400D-03
 2 16 -1.66613881993770200D-01 -3.85366733310607800D-01  1.18895084467092200D+00  1.55930398225904500D-01 -2.39854874401024700D-01
 2 17  3.31975498576669500D-02  8.80452724232973700D-01 -7.16325308150506400D-01  5.42356072790673400D-02 -5.37345511906664400D-01
 2 18  4.38118602184521300D-01  9.92269097221438200D-02  7.27009741124565600D-01 -1.41511591886486100D-02  9.12228615544119000D-03
 2 19 -3.04040663195700300D-02 -7.17888584283560400D-02 -7.04082557283872000D-01 -1.14635544858532600D+00  4.24980949327442100D-02
 2 20  1.91191649543399500D-01 -1.76715444765511300D-02 -2.45484910277963900D-01  3.71872550923314700D-01  1.37510216744200600D-01
 2 21 -1.24298424416949100D-01  6.28681600014606600D-01 -3.21152886263793800D-02  8.82423475674295600D-02 -9.20199330196639100D-02
 2 22  3.77758545223456300D-03 -2.17021142110920900D-02  1.09292885345947300D-01  2.67130510102946300D-01 -3.17257123894512200D-02
 2 23  1.13277754490428800D-02  2.03979369404083100D-02  1.31127163269110900D-01 -1.36343292134855500D-01 -3.01166558811565500D-01
 2 24 -1.82533225280400600D-02 -6.73467475250546200D-03  7.47904146215441900D-01 -1.43095922830705600D-02  2.81859052527811900D-02
 2 25  2.52799399158332800D-01  8.31060115200677900D-02 -1.13567378626690600D-01  3.32329874270415200D-01 -1.15483322492229900D-01
 2 26  4.83683454268048300D-02  3.46585586578823900D-02  6.45813047317100600D-02  3.49979387778890600D-02  1.94778429722055600D-01
 2 27 -2.29776368499944500D-01 -2.92980250766618900D-02 -1.21117269219055900D-01 -1.05358575558967000D-01 -2.75878966315164300D-01
 2 28  1.62813387056421900D-01  1.13065579258742100D-01 -6.98570065629829900D-02  1.31176718955620400D-01  1.61591872226494000D-01
 2 29  7.58010041410116300D-01  9.78789557692232500D-01 -3.62439912707375200D-01 -3.77210230382038900D-01 -1.38649388010299400D-01
 2 30 -7.46031351161110400D-01 -7.55941794523584500D-01  2.66689976996433400D-01 -3.63138743236639500D-01  3.45596318037025800D-02
 2 31 -9.08398963982173300D-01 -1.04003376160523900D+00 -4.24814276141745800D-01 -2.67921909586980100D-01 -2.35162502033678800D-02
 2 32  8.24053070187327300D-01  5.22137732616769800D-01  4.00529303379081200D-01 -2.50689947440222700D-01 -5.79128937727209400D-02
 3  1 -4.70648263361705800D-01 -9.19307958865791200D-01 -2.36569979383359400D-02  7.21044464142247000D-02 -3.17223203919680500D-01
 3  2 -6.16644456306476800D-02  4.72882194543325500D-01 -4.94952231577855100D-01  1.86416350743750700D-01  5.35654166782757100D-01
 3  3 -4.21544268123721100D-01 -1.14109898659036600D-01  1.37439979429243200D-01  1.03626626581893600D-01  4.95206529053503100D-02
 3  4  8.97693069825362100D-02  1.78794466591623500D-01 -5.77847642880976700D-01  2.68389003948852600D-01  2.27017155417226800D-01
 3  5  5.14916378737615100D-02 -5.72441030349287400D-01 -2.33949273036648500D-01 -3.29915379348923000D-01  3.00522811209216600D-01
 3  6 -2.48621703847793500D-01 -5.19011073614226000D-02  5.64317555949371500D-01 -7.71674501369792000D-02 -5.81136275113063700D-02
 3  7 -4.53673044436019600D-02 -1.46586951528268900D-01  2.42542949205362700D-02 -2.01165099448086900D-01  4.44106215406873800D-01
 3  8 -1.14747108834256000D-01  1.58954653803482700D+00 -6.55955539515021900D-01  3.73792395798804700D-01 -4.20143660132086600D-01
 3  9  2.40101130812039200D-01  1.80042529320046700D-01  4.39371874051055000D-01  8.32323441559703900D-02 -2.08448555023196100D-02
 3 10  2.14847635488376700D-01  4.52363563545677200D-01  2.08502312452304700D+00 -6.53926829287614500D-02 -2.27798822720603000D-01
 3 11  3.49973622812895900D-03 -9.98925647003349200D-01  1.34278326908856600D+00 -3.46048292467947700D-01 -2.67245485120448700D-01
 3 12  2.82734627325077900D-01 -1.54891422046304300D-02  3.28148870777841900D-01  3.57840403502760000D-02  7.92588075088562100D-02
 3 13  5.60862383716386600D-02  9.29139571133178300D-02 -6.74389242385625100D-01  2.12109374731324400D-01 -4.26447015520398400D-02
 3 14 -5.49836918037734200D-02 -2.47314417023077000D+00  4.26335273791017300D-01  3.47322279635476200D-01 -3.82023268074126500D-02
 3 15  1.44189912553435700D-02  2.37833355520696300D-02 -1.05280400244547300D-01 -2.91389027841012500D-02  7.05594642442569800D-02
 3 16  1.47714910508535200D-01  2.96130943501264000D-01 -1.23161640975675500D+00 -1.99633805318841300D-01 -1.91793113907394300D-01
 3 17  6.80069792962142200D-02  1.69309645930489500D+00  2.22408237304762600D-01 -2.12479438322428200D-01  1.05278435683733900D-02
 3 18 -1.32885155910102200D-01  1.22357312341729500D-01 -1.44165160884153700D-01  2.96094182561787000D-02  1.69641597320654200D-01
 3 19 -3.20915594839942400D-01 -6.65051516690100300D-01  1.66453355751307600D+00 -5.43881523835793000D-01 -2.10159408986419100D-02
 3 20 -1.01116083966399100D-01  3.16657504113663800D-02 -1.09536557138554100D-01 -5.70070801939621100D-01 -9.72437247671695000D-02
 3 21 -1.19546406265012500D-01  1.70345308636298300D-01  3.38344137181871300D-02 -5.20477393742231500D-02  7.51793018400575600D-02
 3 22 -2.31315624658339500D-02  1.25762730725755100D-02  4.97517195715070600D-02  5.59156937226398300D-02 -2.08634638864562900D-01
 3 23  2.92638174615840400D-01 -8.40035357512783400D-02  1.20772154612522600D-01 -1.27565296218563500D-01 -5.81085785992489800D-02
 3 24  1.27765934369968200D-01  2.57762397196026100D-01 -5.64234722189002300D-01  8.00362488676227700D-01  9.49955397368719000D-02
 3 25 -5.37697668221403900D-02 -4.20583621978070700D-02  7.80873667562781300D-02 -3.85640944915919900D-01  2.11489057613755800D-01
 3 26  4.21844850348129500D-01  3.11332226192581900D-01 -9.03201160586616500D-02 -1.20905348640703500D-01 -4.60510133430520300D-02
 3 27  1.66956361983755000D-01 -7.26109048315119500D-02  9.52344522900043400D-02 -1.01206918713674800D-01  3.38115295509309000D-01
 3 28 -2.63705148605508100D-01 -7.44101469038008800D-02  4.13450704425932000D-01 -1.31365556688943800D-01  1.73418257848577100D-01
 3 29 -4.41535098654630400D-01  7.90817705461061200D-01  3.17107571713365600D-01  1.25897928037562800D-01  2.03738934819458700D-01
 3 30  3.72344181270747600D-01 -1.44690245748834300D+00 -2.52797022931833900D-01  1.35211784102569100D-01 -9.67487255347637500D-02
 3 31 -3.66238475745712000D-01 -6.79523456508116700D-01  1.19623485533625000D-01 -1.03633610323173800D-01 -8.44975491601879200D-02
 3 32  4.17417501925720800D-01  8.00038311518922800D-01  6.89290734222520500D-02 -4.19753040233429700D-02 -1.30205799796041500D-01
 4  1 -1.17292812482820500D-01 -1.93005613632129500D-01  2.50960986393695500D-01  9.03634750485388700D-02 -4.26803035052382900D-04
 4  2  1.28083675862076900D-02  1.68692934442065900D+00 -1.26443032980187600D-02  2.31339881896918200D-01  1.84444711178143600D-01
 4  3 -7.28533150821013000D-02 -1.11591396096043400D-01  1.91900706396133900D-01 -3.27452329473956000D-02 -2.59314838746507900D-01
 4  4  3.33759208543920500D-03  1.76321237959638400D-02  5.28052015669591100D-01 -5.16249101195488500D-02 -1.11015927693626100D-01
 4  5 -1.13459743964169100D-02  2.04933269412853900D-01 -2.87035653989524800D+00 -1.47753182212290800D-01  1.14472802906008300D-03
 4  6 -2.24653790461605300D-02  2.13206510171002200D-02 -1.14326156067043100D-01  2.70654572347718400D-01  2.52017397021035000D-01
 4  7  8.47273659764284900D-02  1.20737686447387900D-01 -2.82474964228684300D+00  1.93066815907026900D-01 -5.06481720423683800D-02
 4  8 -3.52704021441343600D-02 -2.04827533346094000D-01 -1.48195131453964800D+00  1.56037833711036500D-01 -1.68423751968127600D-01
 4  9 -3.56092875386175400D-02  2.04033039506746100D-01 -1.46522762397021600D-02 -1.67373879032165200D-01  2.32869439670680000D-01
 4 10  1.12063815007629000D-01  1.64416091096937100D-01  2.50877131094709900D+00  6.14371278378493000D-02 -3.51357449932031600D-01
 4 11 -1.39270116050011700D-01  1.89151355410595200D-01 -1.19098405331399800D+00  1.62083652221074200D-01 -5.90941293029294300D-02
 4 12  2.19465118652241300D-01 -1.60370989349312300D-01  2.18036462746372000D-01  4.58020170424094600D-02 -1.07441564417602700D-01
 4 13 -1.33762940614355600D-01 -3.05551148551213800D-01 -6.11215557659601400D-01  5.79852775241929100D-02 -2.13268216472592400D-01
 4 14 -1.08388219549135200D-01 -1.47415292099040500D-01 -5.59463538832435300D-01  6.93508178492045800D-02  1.81462524742140800D-01
 4 15 -3.43926300025296900D-01  1.62463775283155800D-01 -1.29605829802199800D-01  1.97438330171410400D-01 -1.08859139857494200D-01
 4 16 -6.92687423830012500D-02 -1.17163520769710600D-01  1.92061295213032900D+00  6.56080383965245600D-03 -1.83830142686824200D-01
 4 17 -2.97614952367858700D-03  5.63843168323907800D-01 -3.82540621103157200D-01 -2.28284844094137100D-02 -1.91132034960094800D-01
 4 18  4.29803052851821500D-01 -2.38671017891726200D-01 -6.79427931246965500D-02 -2.19453665316214500D-01 -7.96764488731043400D-02
 4 19  1.53658807621888800D-02  4.00558581926223300D-02 -7.24326544072633900D-02  5.85412377468817100D-01 -6.22810916693427400D-02
 4 20  1.02371770423987800D-01 -8.65407644375596600D-02 -2.04378532030612400D-01 -4.17153777013485000D-01  2.06695798513563500D-01
 4 21 -9.15446742314697500D-02 -2.07699565825893600D-02 -1.93878975865892900D-01  5.52909727372346600D-02 -9.09212813178934400D-02
 4 22  3.56303085806587700D-02 -9.96781411769242500D-02  3.80281099008392300D-02 -4.73767866865968800D-01 -4.65430590770868600D-02
 4 23  1.12388543332237400D-01 -6.58454842551499000D-02  2.84086652481630300D-01 -1.86231229614840000D-02  2.82442341625484900D-01
 4 24  2.23808817923991500D-01  4.07642181669651300D-01 -1.67001739447708500D+00 -1.59487880014842300D+00  9.53172603691857200D-02
 4 25  2.30338930478974100D-01 -1.81057440037516900D-01 -1.37380805442513000D-01 -1.50827926328462600D+00  3.08397225984456000D-01
 4 26  5.17987901923229400D-02 -5.09254384473987000D-01 -4.37897309360213800D-01 -2.13270564147883100D-02  1.15997175690809000D-01
 4 27 -9.46701192760202700D-02  6.01691059518872300D-02 -1.01783599462114000D-01 -9.12057574976506000D-02  2.03725395639118300D-01
 4 28 -4.69740350217156900D-01  2.66014954578038600D-01 -3.48928597226681200D-02  4.58758698911974300D-02 -5.54599008537863400D-02
 4 29  3.54695690022526700D-01  7.15843625677119700D-01 -2.83995598628702900D-01  1.39470000569462400D-01 -2.13761368711018000D-01
 4 30  1.86453112647332600D-01 -2.39605197303126100D-01  7.91983885734385800D-02  4.45375035088596100D-02  1.80775551743201400D-01
 4 31  1.34170204350603700D-02  4.71848104380285200D-02  8.50371625965513800D-02 -1.05454165325385700D-01  1.60309575719159100D-01
 4 32  3.04346781858103100D-02  1.26326859784724000D-01 -1.07349006774364900D-01 -1.32544658626120000D-01 -6.37038000150086100D-02
 5  1  3.87065797033361600D-02  5.11345886559979900D-02 -1.18396991599701100D+00 -7.42844458460261100D-02  5.66881575877489100D-02
 5  2  6.67075471826824700D-03 -2.76443933261322700D+00  2.35114007992198100D+00  4.54719083128522500D-02 -1.30840551866066300D-01
 5  3  2.23957441251849400D-02  1.08444807740882100D-01  3.72998192313452700D-01  5.92012120215319000D-02  4.01891754144746200D-02
 5  4 -5.36938885169096600D-02 -2.81107886508313100D-02  1.34601730123523000D+00 -1.09370788610201200D-01  3.95105108798577700D-02
 5  5  1.65414001590471300D-02 -2.55346897053204800D+00  1.00334418833115800D+00 -1.64423155758063300D-01  1.55362548569981100D-01
 5  6 -9.80761601046265000D-03 -1.45554932559519000D-01 -3.03508561985880100D-01  7.37089902566641900D-02  1.21682417175537500D-01
 5  7 -2.02884809503391000D-02 -2.92173959121655900D-02  1.49629235584932100D-01  5.56989478127078600D-02 -2.86714278056241600D-01
 5  8  7.41718379118758300D-03  4.44923055262914400D-01  1.84817014252351800D+00  1.60354237226134700D-01  8.21060353507721600D-02
 5  9  2.19107039230417700D-02 -1.04016739273814900D-01 -3.06085378699975200D-01 -1.09945391140800700D-01  1.46025716255780100D-01
 5 10  3.49311523656103600D-01  7.30350463355101100D-01 -9.17129987873033000D-01  8.80277865609457300D-02 -8.19253032488431600D-03
 5 11  4.34658303188883900D-02  2.13864636814705000D+00 -2.26951073798182900D+00 -1.15614891565579300D-01 -1.97120039814027000D-02
 5 12  1.57964726929515600D-03  1.81323567121082400D-02  1.87627700294019800D-01 -8.47469499577278600D-02  7.39482009912652100D-02
 5 13 -5.61541944017490800D-02 -7.01724934474086300D-02 -1.12194647106312500D-01  2.20517924474337300D-02 -2.08577796560190200D-01
 5 14  1.51710411562924300D-01  1.37882088631231500D+00 -1.40899591866521000D+00 -1.56967775181298200D-02  2.25094829074076500D-01
 5 15 -2.61256289908518000D-01  3.61614608344412300D-02 -2.76038471431969200D-01 -1.28726792546672300D-01  2.59637733708994200D-01
 5 16  1.37351578835122000D-01  3.01841954432768600D-01  2.70595559387502800D-01 -2.85382293981057500D-01  2.67964048972334300D-01
 5 17 -1.10643665651825500D-01  3.26198435222772800D-01 -3.15495879125985300D+00 -1.78717109975156800D-02 -6.21811173694674100D-02
 5 18  1.78974747654230400D-01 -1.16793630284762800D-01 -3.99257306693837100D-01  1.28856051760174600D-01  2.11506314537212200D-01
 5 19  4.79190356382578500D-02  6.01513502322196700D-02 -9.53103359993097100D-01 -3.31838618886742300D-01  1.45159957615490600D-01
 5 20  1.08479785156577300D-01 -1.73929171939912300D-02 -1.35867918463857900D-02  1.48400343644973800D-01  2.96192594660570300D-02
 5 21 -4.33050798210820400D-02 -2.06128379571854500D-01 -9.10848442111372300D-02  1.13574505470667000D-01 -9.17173359516034000D-02
 5 22 -2.18571695190637600D-02 -1.39482213878099100D-02 -7.69525116095831900D-02  6.48751934920223200D-02  9.54924843985113900D-02
 5 23  4.12632892067364800D-02 -1.36755773605248200D-01  1.61082217348601600D-01  4.68512804678656100D-02  1.63990959485756900D-04
 5 24  2.39059139521829300D-01  4.80444337937149300D-01 -1.47537378304641100D+00 -5.93733726363386900D-01  1.59637152580963600D-01
 5 25 -6.40164740807104700D-02 -6.25784111574435400D-02 -4.24931023616965300D-01 -3.75278205641670900D-01  1.27524347298207200D-01
 5 26  8.98377893941482000D-02 -1.81283115627228300D-01  1.26043220450843900D-02  2.50047460100551500D-01  2.90000943648695000D-02
 5 27 -2.79047554465421300D-01  1.13498124249888400D-01  8.38263535390672000D-02  1.48990768028343000D-01 -3.00709775924959900D-01
 5 28  4.88601380406554100D-03  2.95823762120894100D-01 -1.15040602068751000D-01 -2.16728833654353400D-02 -3.52395712904889800D-02
 5 29  4.47648895858294900D-01  5.16753483096747700D-01 -8.65427382835330900D-02 -1.66816619853811600D-02 -2.09596984778504700D-02
 5 30 -3.10631014142683700D-01  6.44179551164776000D-01 -1.12883566909006000D-02  1.99967108300610500D-02  4.98520740599645900D-02
 5 31 -1.00862774620171900D-01  5.50289626804194900D-01  9.96167751391647400D-02  3.54625373116001200D-03 -9.22543598224076200D-02
 5 32  2.42330830712786500D-01  4.84114227199441100D-01 -2.82586726071226400D-01  1.06896176994142800D-01  1.10971232015491100D-01
 6  1 -1.90375064425092500D-02 -8.75116496950569900D-02 -1.56132647886988000D+00  9.64841341454189400D-02 -5.11803390291467500D-01
 6  2 -3.95141570733428500D-02 -9.42423094519296500D-01  4.90612563479345600D-01  3.77367226326559100D-01  2.13499513363028900D-01
 6  3 -4.02586525553989800D-01  1.89087012190960900D-01 -1.00474980620007300D-02  9.01210726396060300D-02  1.63728722712394200D-01
 6  4 -1.37766829553515400D-01 -2.37177951732697900D-01  2.40640871442060100D+00 -1.88599283877094300D-01 -1.02111245643739600D-01
 6  5  6.56583814666121800D-02 -1.68703749224003800D-01  2.82066165165756900D-01 -1.69100142181572800D-01  9.98460571603950600D-02
 6  6 -4.55010870496268300D-02 -5.43449701107681800D-02  4.24553029634974500D-01  3.70696386658368100D-02 -1.83043852287783900D-01
 6  7 -1.46662471176638400D-01 -2.68430782828349900D-01  4.90567546688136900D-01  2.23222283151495400D-01 -1.95845379904984700D-02
 6  8 -4.65756347835673900D-02 -8.11819790804109000D-01 -1.27756772099422700D+00  2.02648751803208400D-01  1.30981660590676400D-01
 6  9  7.19222043423219500D-02 -2.02903864932999000D-01  5.04137902827376900D-01 -3.01932124361705600D-02 -1.97627386251904000D-01
 6 10 -2.92319411206943100D-01 -6.56955260943524000D-01  3.91387676097591000D-01 -3.43070551058756500D-02 -3.15611924655902100D-01
 6 11  8.37986897862126300D-02 -3.49171080153014000D-01 -1.07947783605328200D-01 -4.14672804478359600D-01 -4.34446952810332900D-01
 6 12  3.37588779117471900D-01  9.68581736928607900D-02  4.60715991619543000D-02 -8.84647579017122800D-02  5.07314911663618200D-02
 6 13  1.29349560990738000D-02  4.82386306374977800D-02 -1.38167278722811900D+00 -1.10928890838772600D-02 -6.25872206473200200D-02
 6 14  1.57147634795721200D-03  4.86551353272127500D-01 -1.04152757701320200D+00  3.26488468688605800D-01  1.69685602124774700D-02
 6 15  6.16029131637242800D-02 -7.85714733762022500D-02 -4.09730501258100600D-01 -7.43295038927650600D-03  2.48032296122301500D-01
 6 16 -1.96443313698804400D-01 -3.67026676485146300D-01  2.16581601715291700D+00  1.74271757492396500D-01 -5.05160080327124600D-02
 6 17  1.87132682165567300D-02 -1.03702228033256600D-01 -6.67342146594117200D-01 -2.91965619653005700D-01 -5.46534367005376100D-02
 6 18  8.39614971503772500D-02 -2.93080604498390800D-02 -2.46673933887721200D-01  2.84392752698855200D-04  2.64262051188040200D-01
 6 19 -1.02407002440468800D-01 -1.62766315564379100D-01  9.45570595503005400D-01 -3.91095761679667000D-01  4.02381560650245200D-02
 6 20 -8.93393760054920400D-02  1.02055833659627700D-01  1.14786053340679200D-01 -6.70588601379915400D-01 -3.12064940178131900D-01
 6 21 -8.21510056922858000D-02  3.34376845682671500D-01  4.31919999110537700D-02  3.35758040618929500D-02  1.86583941816274700D-01
 6 22 -2.20159745878167500D-01  1.24572137072284500D-01 -3.90953261434234400D-02  1.45386690482616900D-01 -2.52896447655955900D-01
 6 23  1.47622823325887200D-01  1.05273624330068400D-01 -1.94949055926003300D-01 -3.29696105665045900D-02  4.21201086501072100D-02
 6 24 -2.48385036428554800D-01 -5.51087687771062300D-01  7.42493606232282700D-01 -1.81653008061092100D+00  2.11791542198338400D-02
 6 25  4.06780357668955400D-02 -1.20737827047201400D-01  8.77690660107953400D-03 -4.97332057164757700D-01  3.01609598722754200D-01
 6 26  1.69875564575228200D-02 -7.57646183905008400D-01 -8.02927603528593300D-02  1.56108978821840500D-01  1.03121230434895200D-02
 6 27 -1.66421101865330300D-01  1.32488164081920100D-01  4.11241306002053800D-02  7.00836520488241700D-03 -2.20401066703980000D-01
 6 28 -1.08448617068395900D-01  3.28849683772376200D-01 -1.26450763967687800D-01  2.97038704462939900D-02  4.85927581325933200D-02
 6 29 -5.42660931767010600D-01  2.95187221229287200D-01 -3.21684739463371200D-02 -4.98248674778324900D-02 -1.01170732789778400D-03
 6 30 -1.34809470868654500D-01  3.78571223876955100D-01 -1.44411068581126200D-02  5.62958697233862700D-02 -7.66241922497800000D-02
 6 31 -9.51779293407040500D-03  6.88847199382856200D-01  9.25815143054399300D-02  1.28428918022465800D-01  3.82339042315968000D-02
 6 32 -2.07477156638293800D-03 -4.66873665148835800D-01 -1.33897125141208900D-01 -1.25653535067842200D-01 -1.20395895912178200D-01
 7  1  1.39761208979987800D-02 -9.63050828184453700D-02  1.91855143304345600D+00  1.65199976421549600D-01  6.15915770754268800D-01
 7  2 -9.88506347309358500D-02 -1.03658660220743600D+00 -1.79934830383033800D+00 -9.32473448752398400D-03 -2.41543080933089400D-02
 7  3 -1.33622932824502500D-02  3.75166013757585400D-02 -2.34284689680884600D-01  1.29345792492539900D-02 -8.53782635876188900D-02
 7  4 -1.44818277472210500D-01 -2.97533814478274900D-01 -2.65576107039976500D-02  7.15921386339452200D-02  1.59792174291833300D-01
 7  5 -1.60489729708246200D-01  9.48908927201912700D-01  1.12766543952612200D+00  3.26401463174254600D-01  2.48781260137963600D-01
 7  6 -2.03253890866538700D-01 -4.55273692714245000D-02  4.22837055067300700D-02  1.98407899122787400D-02  8.76660646359631300D-02
 7  7  1.61039287727820000D-02  2.41168728834381200D-02  4.26748555062262900D-01 -9.42322351235669500D-02  3.61398832562945000D-01
 7  8  9.83817146860761200D-02 -1.36966977177383000D-01  7.19327691094922100D-02 -2.97436736552534800D-01 -3.47478660296466700D-01
 7  9  3.46555440460819400D-01  9.23219835646643500D-04 -2.43130874509762600D-02  1.44504897235662000D-01  6.55410036012489800D-02
 7 10  6.31813667291218200D-02  1.13014792712087100D-01 -3.05384449775931500D-01 -2.92643303459890200D-02  2.55839306028038600D-01
 7 11 -1.63972736292778900D-01  7.35036964683898200D-01 -4.32549231905019500D-02  2.90736636883355900D-01  1.13485150035450500D-01
 7 12 -9.82543346728141600D-02 -1.52308153626359500D-02 -5.55736062597458500D-02 -3.40695255531552000D-02  2.54435303281748800D-01
 7 13 -5.19074104604919700D-02 -1.37122978505577900D-01  1.42846877160021200D+00  1.62361349077731800D-01  2.27246776290822100D-01
 7 14  6.43017356928553100D-02  7.37374424616417200D-01  4.96217081544052400D-01 -1.97634386472617900D-01 -3.48439716289137600D-01
 7 15  2.46230889963653800D-01  1.02208826325484400D-01  1.05121723743031100D-01 -2.06364863758677200D-01  6.29859296737889200D-02
 7 16 -8.36219053276401100D-02 -1.29924113312148600D-01 -1.46173396432438500D+00  3.49841848689387600D-02  2.05491131490052400D-01
 7 17 -8.72956108274695900D-02 -1.45579018287994800D+00  8.34060842699970700D-01  1.91852455266696200D-01  2.64084039523377300D-01
 7 18 -1.02438963039003700D-01 -1.61645076484374300D-01  2.70363938522802500D-01 -1.58266184758330600D-02  6.63607454387373600D-02
 7 19 -1.11668205690828700D-01 -2.68829909097547100D-01  7.34707343384607500D-01 -4.86198397408935100D-01 -2.46885922189072700D-02
 7 20 -2.15158469226703600D-01 -1.52968593177430800D-01  2.96006191487900500D-01  7.45884232162429200D-01  3.76686125441380900D-01
 7 21  1.01641120797503200D-01  1.39635639649555700D-01 -4.00468923178715700D-01  2.67379095168838400D-01  4.57147822810425700D-02
 7 22 -3.13093877449880800D-01  9.82549267330209400D-02  1.09406660891514500D-01 -4.55360559843811700D-02 -4.94940743413593800D-02
 7 23 -5.54403284215665200D-01  6.03897358557024800D-01 -3.58910799257242700D-01 -1.08640374053674100D-01  2.42873428967268100D-02
 7 24 -1.38401408257185700D-02 -6.04547193138497900D-03  2.96182929183921300D-01 -3.02994509671030400D-01  1.76237034221302900D-01
 7 25  2.35846154344356100D-02  1.24106931717597800D-03 -4.75924366409412500D-01  1.33326588484133200D-01  1.04939895964099100D-01
 7 26 -2.35747724637484700D-02 -2.44262796250392900D-01 -7.06497235640105700D-02  1.36765847551812300D-02  2.02015283318690800D-01
 7 27 -2.15691868073872500D-01  8.08411783414463400D-02 -7.68622349851441600D-02 -4.73210213454034900D-02 -6.86806158184077600D-02
 7 28 -2.13658808831431700D-01  2.82339424649839500D-01 -2.98914230110505100D-01  1.11576053175844100D-01  2.54593852547484000D-01
 7 29 -4.44808261252587500D-01 -4.78394800893353900D-01  2.53343502950538400D-02  1.63429423249543500D-01 -4.27661664679534600D-02
 7 30  1.66024452764697300D-01  4.14884985073089300D-02 -8.13131784555727800D-03  3.01027152502440400D-01 -5.21669605922841300D-02
 7 31  4.76328053801829600D-01  1.28047132038583100D-01  6.91303025023766600D-02  1.36645938276028000D-01 -1.15808240939122000D-01
 7 32 -1.78057742411848700D-01 -8.31644411305995300D-01 -3.40675887350494000D-02  1.92138362558758100D-01 -4.29316085675150700D-02
 8  1  2.56469221578238600D-01  5.48666792874683500D-01 -3.41952052547948700D-01 -1.79933488052549300D-02 -1.25379823983083800D-01
 8  2 -1.83181551991131600D-01 -1.54984676681508400D-01  8.91681083070396300D-01 -1.63902574198745100D-02 -1.34938468480339400D-01
 8  3  1.58982570773225800D-01 -2.40441022928851700D-02  2.92306701802083500D-01  2.71631219605146300D-02 -2.84754798499064400D-01
 8  4  1.52674753852658600D-01  3.32032150702604600D-01 -1.49579092233292000D+00  7.47643845925544700D-02  3.60637810339933800D-01
 8  5  2.98329188314515300D-02 -4.26397735155255800D-01  1.10750953078824400D+00  3.37429620308716500D-02  7.69121762254222600D-02
 8  6  1.29130011760579900D-01 -2.06042187986003000D-01  4.79865464684955800D-01  1.62136662508484500D-01 -5.56197511932143800D-02
 8  7 -1.10518415459237700D-01 -2.39600858486256700D-01  6.14459934040664500D-01 -2.31574163055924900D-01  1.16007142234387900D-01
 8  8 -5.99604575288799000D-02 -4.74385353962820500D-01  2.23363022296625500D+00 -3.54487116695397800D-02 -2.47011333412882800D-01
 8  9 -8.44862497204013200D-03  2.55459958384923100D-01  7.28324923822334500D-01  2.82054039949556500D-02 -1.01035234760706200D-01
 8 10 -3.26142937836770000D-01 -6.41445892108199600D-01  5.58593466122719000D-01  2.77657497903588200D-02  1.08840120236580600D-01
 8 11 -1.37969239697380000D-02 -2.58742430686302900D-01 -4.81936776985863600D-02  3.17379257283285600D-01  9.45952498369129800D-02
 8 12 -3.70180589984376400D-02 -5.75771908384751400D-02 -1.88563983902743900D-02 -4.58890311156402500D-02 -1.75565374175842400D-01
 8 13 -1.29642884550579700D-01 -2.73995230596536700D-01 -5.72172379205404100D-01 -3.26527720606666800D-02 -3.97883958233044600D-01
 8 14 -1.54047870388012500D-01  9.07841326324316700D-02  8.52937949508780300D-01  5.86873486698174100D-02  1.83960734768695900D-01
 8 15 -2.27076879685056900D-01  4.31161449163616100D-02 -9.01857611064374700D-02 -4.31841212232235400D-02 -1.20512975062606200D-01
 8 16  1.29703064993722500D-01  2.51161018006940600D-01 -5.35495212797401200D-01  1.20221272924057500D-01 -3.22439045051203200D-02
 8 17  2.98885170841164900D-02 -3.34243781474663100D-01 -5.94951145764820000D-01 -3.79768775736721900D-02 -5.17852372998786100D-01
 8 18  4.75502101929333000D-01  4.23502710694522000D-02 -7.21876936358220000D-02 -5.40188606082834500D-02 -9.66004832954961400D-02
 8 19  5.92004310571922200D-02  8.61626034234191400D-02 -7.08179185827514800D-01  1.03228472086136800D-01  1.44765978583262900D-02
 8 20  4.17413126030431800D-02 -5.72409720659382200D-02 -2.25729568655487000D-01  2.56990695459367900D-01  2.88553924465381800D-01
 8 21 -2.66998866555256600D-01 -2.04327081365510500D-01 -9.67675829064511100D-02  1.69867097866199000D-01  2.01549847310206300D-02
 8 22 -1.90022082597219700D-01 -1.07552216737429900D-01  5.08447597222427100D-02  1.06648808134788500D-01 -2.34041070622719100D-01
 8 23  5.80004061342704800D-02  1.76040664488448500D-01  3.51500843684670400D-01 -8.15331193633877500D-02 -3.61206596005617800D-01
 8 24 -1.16260986139663000D-01 -2.10831498990989900D-01  4.04810734340336300D-01  3.12158583162573900D-01  3.63517199479448000D-02
 8 25 -9.57983298569342200D-02  1.33078856742650200D-01  7.41030507992430900D-02  6.05291658281701400D-01 -3.42473646240451600D-01
 8 26  1.12343806680559700D-01  5.85023996654732000D-02 -2.70702410422713000D-02  3.96567101641734400D-02  2.48728202449805700D-02
 8 27 -6.45295304091536200D-02  9.25106166387358400D-04 -1.60456523761232400D-01  3.16875867599530400D-03 -3.97104499194491600D-02
 8 28  2.11337591833363600D-01 -1.71627141913914600D-01  8.00788700981198300D-02  1.76341966166969400D-01 -1.86806882925635800D-01
 8 29 -4.30479747836448400D-01  1.13427881865406400D-01  4.03948000041826100D-01 -2.91538266837916300D-02 -1.32663821343180700D-01
 8 30  1.06852454006130100D+00  7.60722756836063700D-01 -6.83672380001082700D-01  3.15851991700006500D-02 -4.62401145540484500D-02
 8 31  1.28081370059590300D-01  2.78141861705535400D-01  3.81112746302364700D-03 -1.51897451156873300D-01  2.86660692179779900D-02
 8 32  3.42762273957024100D-01 -4.05517340260603900D-01 -7.77858016543465900D-03 -7.97268815512657700D-02  2.17998016660533800D-02
 9  1  2.97912988685791100D-01  5.50673341558090800D-01  4.49404460905660100D-01 -2.13260522777052400D-02  1.71738638031478400D-01
 9  2 -1.42194519883005400D-01  3.03670253179645500D-01 -2.18978498497744700D-01  2.84005750285631700D-01  2.61029467879444400D-02
 9  3 -6.38104897837293700D-02  3.77075429957850200D-02  1.45470676418138300D-01 -1.12182443144120600D-01  1.55672004007989700D-02
 9  4 -9.78736455019021800D-02 -2.40704510752725000D-01 -8.38270038244223000D-01 -3.06749046577513300D-01  7.53954756309962300D-02
 9  5 -5.18149455208931800D-02  1.03962873960491500D+00  7.07771856038465900D-01 -6.15169970423316500D-02  2.28249881305495500D-02
 9  6 -1.46885657372506900D-01  1.24060669241957200D-01 -2.64188578697710700D-01 -1.11389142929610800D-01  6.87827840258198900D-02
 9  7  4.94033533290158300D-02  1.04198022018377400D-01 -1.30031349712962300D-01 -1.71078238279877400D-02  2.48809123248006800D-01
 9  8 -1.04411932729296200D-02 -5.72062181797849400D-01  1.17417563012224700D+00  1.05256258478387000D-01 -6.42575871501573100D-02
 9  9  1.34628641651014300D-01 -7.03710545008567100D-02 -2.64693755320962300D-01  1.85156376503079200D-01  5.14315161377359900D-02
 9 10 -1.57659755656774500D-01 -3.01867726492589100D-01  1.41265281782446000D+00  4.16706925049959800D-02 -2.57404272429653900D-01
 9 11 -8.83892508464757900D-02  1.15478644490243700D+00 -1.06891539428961400D+00 -2.19575871359973600D-01 -2.96679047483980100D-02
 9 12  1.70818758789231500D-01 -1.41150854040832300D-01 -6.56531845197018000D-02  6.42958941867806100D-02  2.36767351035852800D-01
 9 13 -8.67230594498785300D-02 -2.08667703689962200D-01  6.86797513841009800D-01 -3.99140746539610800D-01 -2.48190827288854900D-01
 9 14  3.65236484811823400D-02  2.92153314243139000D-01 -1.18685385355792800D+00  6.94654130439528000D-02  3.87600156038935600D-01
 9 15 -3.77148973454256200D-01 -1.04511825846795900D-02  3.42459195401914100D-02 -3.19684360569004500D-02  1.74403417436283300D-01
 9 16  2.32673986915405900D-01  5.20472435747660800D-01 -8.63991044998656900D-02  7.58332833053489300D-02 -4.03727387451954500D-01
 9 17 -1.00817103394712100D-01  3.59028809095852800D-01 -6.38840609602149700D-01 -6.69553513300487100D-02 -1.93204475619263500D-01
 9 18  1.58239815390375700D-01  3.49646602288876500D-02 -9.54099815986293000D-02 -7.11660520834742900D-02  1.45844980129498200D-01
 9 19  8.61154470348517200D-02  1.61601468783884100D-01 -2.86902187329546300D-01 -8.20285675865552900D-03  2.73898818470904200D-02
 9 20 -1.27311673379575400D-01 -8.20961890151979100D-02 -1.95089284864929300D-01  4.79627210910334300D-01  1.55958124298467400D-01
 9 21 -7.40242171196182900D-02 -5.74821364834245000D-02 -3.16714367844744700D-01  2.51366958051093800D-02  1.73682812319735500D-01
 9 22 -1.98819508124844200D-01 -2.59253287412545200D-01 -1.97475850289880900D-01  1.59572381975513800D-01  7.79184095810646800D-02
 9 23 -4.03581313521047800D-01  3.25662903939983300D-01  4.56263308331057100D-01  2.71669196534321900D-01 -4.18996319701521000D-02
 9 24  9.52904045697658300D-02  1.47938363063074200D-01 -1.06468265252496500D+00 -9.45782298956349200D-01  2.96261196819426900D-02
 9 25  1.51446662701311800D-02  3.38543867554876700D-02 -2.13573249718257300D-01 -7.44648466057399800D-01  1.09435459812099800D-01
 9 26  5.54220964949587200D-02 -2.15122725516539600D-01  1.41023141723031900D-01 -2.94963720512486700D-02 -1.47714148842919800D-01
 9 27  1.77210520894168600D-01 -1.17251149739846700D-01  1.73662897622544400D-01 -2.36188650016397600D-01  1.80704845533870100D-01
 9 28 -2.71827463427813900D-02 -1.53522099191088800D-01  3.39326507905831000D-03 -2.00033029568972400D-01  4.24926182311067400D-01
 9 29  1.85092945236082200D-01 -8.01549616567892400D-01 -1.79353339688226300D-01 -4.07895667695726800D-02  8.49525542805049700D-02
 9 30  9.33534479588811200D-02  7.08590262549286400D-01 -2.15563586359635600D-02  6.11985981071078200D-02 -1.08681853043534500D-01
 9 31 -4.28459702258622700D-01 -2.26779568493424300D-01 -3.23831955457761200D-01 -2.11883276449166900D-01 -2.01979812795131400D-03
 9 32  1.59375500697640500D-01  7.64691633509242300D-01  1.27422932132854900D-01 -1.65251710648697500D-01  3.50791055440908500D-02
10  1 -2.86838610104203900D-01 -5.82157159829810300D-01  1.10500713787060200D+00  3.83957092653404400D-01 -2.32652672710425300D-01
10  2  2.35885197715724500D-01 -1.05452780275986000D+00 -5.55676085076581200D-01 -9.63425848662784800D-01  2.08057971230130400D-01
10  3 -1.52108984030456900D-01 -5.59489871996735000D-02 -8.81335140394679400D-02  3.62449434038598100D-02 -5.85206180751611100D-02
10  4 -5.93826547605066200D-02 -1.47368547637495200D-01 -4.83022627396972900D-01 -1.72155422060199700D-02  3.84221721795818000D-02
10  5 -3.25264341888211300D-02  3.52985659003607800D-01  7.09833313533668400D-01  5.83163855769672600D-01  3.08988344840906800D-02
10  6 -8.62217009736108300D-02  5.53228664895203900D-02  2.98272539052443600D-01  5.69342295206733300D-02 -7.98657528851860200D-02
10  7 -3.19137406721558100D-02 -5.86491738031278100D-02  9.38261748822810200D-01  3.82037935584967600D-02  2.56842956279373600D-02
10  8  4.92031931066834000D-02  7.46523501799215300D-01  6.85982833992896800D-01 -6.38022643830787700D-01 -2.95857709490605300D-02
10  9  1.05989831028260200D-01 -7.64040600792007800D-02 -2.18380788212377200D-02 -1.88669326343795700D-01 -2.11708683008339500D-02
10 10 -6.84701674688295000D-03  4.50160525191609800D-02  2.21503081351068200D+00 -3.83138071489111100D-01 -8.26375706877881500D-02
10 11 -1.04205087623995900D-01 -1.17089842814107200D-01 -5.44888613152722900D-01  7.71499820081389400D-01  8.68151823870698400D-02
10 12  1.64525357787551300D-01 -2.51340540174622300D-01  1.49106180068038200D-01  3.54313875541942600D-02 -1.52759238687793100D-01
10 13  3.36271616647252200D-01  7.21448781256195600D-01 -1.78134400503806600D+00 -3.97067770001943400D-01 -7.36577689334094900D-02
10 14  1.26907389782665700D-01  4.33745185386380800D-02  5.96649852588615600D-01 -6.92598589934424500D-01  1.14010693786479500D-01
10 15 -5.85170747726531700D-02 -5.54936190138264400D-02  5.31232809867015200D-01  1.21680286445858100D-01 -5.49269561118451400D-02
10 16  6.86324650247418400D-02  1.11678887519510000D-01 -1.36566192701410500D+00  1.01314999292678000D-01  1.76786842750673900D-01
10 17 -1.17625024152446300D-01 -4.23675686725416200D-01 -1.15304268581984000D+00  7.03799942768553700D-01  2.71327099268364700D-02
10 18 -1.38026532724882500D-01  1.10893822798046000D-01  3.17293149675116600D-01  6.56710175941124100D-02 -4.52839943686211700D-02
10 19 -4.63651394375991000D-02 -6.93341368601903300D-02  3.60238437577927600D-01  2.71932633900670700D-01  5.11940439889371300D-02
10 20 -1.68620361489298100D-02 -1.31150200885714600D-01  3.00090861430356700D-02 -4.29556415388926700D-01  3.81763910366688100D-01
10 21 -8.39481767921604000D-03  4.05031910425026100D-02  7.40811149375773700D-02  7.42376797141254100D-02  1.88625708149374200D-01
10 22 -2.62863387863497900D-01  2.01098632633022200D-02 -7.43316193904147900D-02  9.81244948579155600D-02 -2.30183253734871400D-01
10 23  1.79319307209089700D-01  5.08639465257817400D-02  7.60436793487798800D-02  3.56862463116745500D-02 -1.18023354705705500D-01
10 24  3.87239322133465400D-02  2.21055870721693200D-02 -8.87327304308496900D-01 -2.22573181949218000D-01  3.10160905056674800D-02
10 25 -7.84117814932346900D-02  1.47242662780644800D-01  6.01076408332353000D-02 -4.46195763216334500D-01 -4.96683262604344600D-01
10 26  1.71486980498309000D-01  4.60392913431004700D-02  1.52584065778449400D-01  4.97218738940120000D-02 -1.10079167063743600D-01
10 27  6.03572931697316600D-02  1.11116796185582900D-01  9.87523992516978200D-02  2.14578156292551700D-01  1.66894875125630800D-01
10 28 -1.23494701656572900D-01 -4.34001734690579000D-02  1.54521710986127200D-01 -1.35455580018117500D-01 -2.94296608174007000D-01
10 29 -2.53587700365221800D-01 -2.36540223748994200D-01 -7.96372952532449100D-02  2.50250222492280300D-02 -9.11347265516812000D-02
10 30 -2.81297472211583700D-02 -7.02322356251841100D-01  1.37171121934172600D-01 -2.11495625832830100D-01  2.93151921130686800D-01
10 31 -3.89670216905961200D-01  5.46837091373753100D-01 -2.04516130925746100D-01 -2.51623397754939500D-01  1.42639310367654000D-01
10 32  2.98886031342538000D-01  2.51480895561448100D-01  1.06020187734500600D-01  1.41982976804378400D-01 -2.50390377324615900D-03
11  1 -3.17231041860151200D-01 -6.34334075776672900D-01  1.54064988663584300D+00 -2.26229406774299500D-03 -3.30040613616515900D-01
11  2  6.19342220801877800D-02  6.56529932566502300D-01  1.24082667210409900D+00  1.05493190513837100D-01  1.83255372670237500D-01
11  3 -7.11859976329887000D-02 -1.12069375037250000D-01 -1.67724474635405700D-01 -5.82854238450574700D-02  4.44572678972341500D-02
11  4 -1.19180493554371800D-01 -3.22442799501110700D-01 -2.27092291784403800D-01 -6.27297239718262700D-02 -1.60879830839407700D-01
11  5  1.73642686843200700D-02 -5.31145599684711300D-02 -1.50310902502894100D+00 -1.25542082486091700D-01 -1.52686436654432700D-01
11  6 -7.83276218465029900D-02  2.31014058500936800D-01 -1.33318725575882800D-01 -3.16665965648495400D-02  7.45604986240592900D-02
11  7  1.61806160393921800D-01  2.64270149366047200D-01 -1.74637263403626300D+00 -5.81786295703613600D-02 -1.02842136019281200D-01
11  8  1.84562594629160100D-02 -5.45123540367547700D-01  8.24544984270932600D-01  7.88329780227612800D-02  5.63759467778796500D-02
11  9 -2.02927984279092700D-01  1.46552037501211900D-01 -1.68205574871535800D-01 -2.86458923799718900D-02  1.07816419068307800D-01
11 10 -4.39009659802788100D-01 -8.19961494373436500D-01  1.54158757439479500D+00  2.83423528733996800D-02  5.34415389141286300D-01
11 11 -2.05251331083392300D-02  8.81334875594344500D-02 -1.99686137147133500D+00 -3.34338688668630400D-01  1.46702459517156100D-01
11 12 -1.31684996889446600D-01 -1.50174626277093500D-02 -1.13102770450220800D-02  5.21788597420493000D-02  7.16444713199396700D-02
11 13 -1.99781769055060500D-01 -4.47244064909305700D-01  1.39926971367699600D+00  2.91655180974544700D-01  8.93435874943198900D-02
11 14 -6.29973490254016700D-02  5.82391976152551900D-01  2.47333239887784200D+00  2.85126675698936800D-01 -3.64458064751293100D-01
11 15  1.02687414094352200D-01  2.61770650656941800D-01 -2.49695834985282600D-01  1.16205498653938400D-01  6.17179512167812000D-02
11 16  9.01370119996652000D-02  2.05798518730020000D-01 -2.07883557903549800D+00 -1.10480057901412800D-01  2.32907755289282800D-01
11 17  9.44868862045512000D-02  8.13802310415617200D-01  8.06732425812987000D-01 -3.35426589787744800D-01  1.71925497568337100D-02
11 18  2.09781398432145200D-02 -3.81706896000484400D-02 -3.95823741097154700D-02 -5.50576820492347800D-02  2.24420728452034300D-02
11 19 -1.38468428757171200D-01 -3.19148375658362400D-01 -1.30228275679358100D-02 -1.08250933072153700D+00 -5.72796387305806300D-02
11 20 -3.42491097275798200D-02  8.20314739176275400D-02  7.78407523982315200D-02 -3.94402677874208500D-02 -2.22848501079553900D-01
11 21  3.16323735135865000D-01  5.09551645482817700D-01  1.89121515412577400D-01 -4.63192079995188200D-02  1.95374699428745300D-01
11 22 -1.49055491429226200D-01  4.29399041398996800D-02  3.01833207412387700D-02  6.75823745117385200D-03 -3.08364603787348000D-02
11 23  4.70198568198262500D-02 -1.61833964410909300D-02 -2.50173750574734200D-01  9.03287781188874900D-04  4.24257170134251200D-02
11 24 -1.16153732112827700D-01 -2.61342142234869800D-01 -3.14900627687118000D-01 -7.64679438357415700D-01 -5.80585696396141800D-02
11 25  1.00777538007638700D-02  5.65224126185170600D-02  2.67670969687133500D-02  2.56993645598194100D-01 -2.15147475499771700D-03
11 26 -1.78123618969205200D-01 -1.47580699684755600D-01  1.92479902410795500D-01 -1.59959990610206000D-01  4.46354285720789300D-02
11 27  1.15324562038126900D-01 -1.36579378465160600D-01 -3.75941615635612200D-02 -9.61097709575685600D-02 -3.82053863897979000D-02
11 28  5.05703737152831800D-01 -4.67498350763033900D-01  9.29528833609540300D-02  1.11438036372337300D-02  2.32899588010567300D-01
11 29  7.29488943567503800D-01  2.90962324121541400D-02 -2.35270723443335200D-01  1.70077013256014500D-02  8.64118061893578600D-03
11 30  2.45974122034307000D-01  9.68576966113468700D-01  1.69353719845305400D-02 -1.15202097130361000D-01  5.68486202122791700D-02
11 31  7.42620066791057700D-01  8.63968530172686600D-01  4.60213210450470800D-01  1.52623095925334000D-01  2.55309942656745800D-02
11 32  7.48181503114925300D-02  6.17736468301984800D-01 -1.17824388527097800D-01 -6.74048150469861000D-02  5.62818776309671500D-02
12  1  7.28969144803256200D-02  1.61044142741133300D-01  4.58077784839553900D-01  1.32890195958145800D-01 -2.31761045614012900D-01
12  2  9.64977446471119600D-03  9.72364759209670300D-02  6.83409230841826100D-01 -2.16353883689116600D-01  5.84993130948523300D-03
12  3  1.16501185785436500D-01 -1.22351117094920800D-01 -2.28242433954328200D-01  1.64648289202038200D-01 -9.98033522319305400D-04
12  4  5.00552850219306400D-02  8.13321082901479500D-02 -3.69939557968313200D-01  2.63012002711957600D-02 -3.53882774914370500D-01
12  5 -1.61426920791023500D-03  1.10686296654276800D-02 -2.76683387272729700D-01  6.13816046571346900D-02 -4.91723419440157200D-01
12  6  4.45740185663177900D-01  4.59832337769793700D-02 -1.01374829792068900D-01 -1.36132987792453600D-01 -1.39416382967461800D-01
12  7 -2.11175403996814900D-01 -4.35250101136950200D-01  6.73850491345056600D-01 -1.39307410101837800D-01 -3.42578318739333100D-01
12  8  2.10249276047960400D-02 -8.89325758870101900D-02 -3.73044298240651300D-02 -2.19495424511479300D-02  2.21543352172562800D-01
12  9 -1.99180829402748200D-01 -2.23625227698148000D-02 -6.10559396733487400D-02  1.48430421651644900D-01 -1.35038299745063700D-01
12 10 -9.52444276428640500D-02 -2.35283802685180500D-01 -2.09167004477979300D-01  2.27024459909800000D-02 -3.09592982678012500D-02
12 11  5.46782638009374700D-02 -1.02363888046569400D+00  4.85184426252186900D-01  3.21606501109706300D-01  1.13665354844405700D-01
12 12 -3.07601199780714300D-01  1.93935844936307900D-01 -3.90371236784558700D-02 -1.35260745361636700D-01 -9.87176913368361400D-02
12 13  2.25028120878785400D-01  4.95190916179253600D-01 -1.72123873473150200D+00 -4.69602924961681100D-02  1.51617877330458600D-01
12 14  1.29975904748120700D-02  2.28021802169177600D-01  1.12727095949386100D-01 -4.07860298434060900D-02  9.48999475748991300D-02
12 15  8.09163457424988000D-02 -1.75816293317398200D-01  2.89208782010040700D-01 -1.84075914800562100D-01  2.01714798963449800D-01
12 16 -1.54458057094273800D-02 -8.04360414953409300D-02  3.51046468977039600D-03  9.65175375098033400D-02  1.04246953998585000D-01
12 17 -9.55883937234903900D-02 -7.54330159998389500D-03 -6.18476324601243200D-01  1.48237024573319400D-01  8.08658257476275000D-02
12 18 -2.75895987544109100D-01  1.95030161796482700D-01  3.38252691274945100D-01  3.05605581179288600D-01  2.21605508762811100D-01
12 19 -2.84340587897020500D-02 -8.07773512627570200D-02 -3.02295764459344500D-01 -1.01097968413976300D-01  1.73475540384384700D-01
12 20 -9.41714381220611900D-02 -2.06253026688538800D-01 -2.49906752322473900D-01  2.61351247533450600D-01  3.84070652437571700D-01
12 21  2.45239216904647500D-01 -2.18284038470558300D-01 -2.03887574507800200D-01 -7.55495423908065400D-02  8.25683164702004500D-02
12 22 -7.01877407939266300D-03 -1.03465422696398600D-02  7.65488424102808800D-03 -2.70402067980142700D-01  6.85644518148523400D-02
12 23 -6.39546122970207200D-02 -4.60983951783139300D-03 -3.37480633668854600D-02 -1.38316549921771800D-01  2.11254662362032400D-01
12 24 -1.22000794414588200D-01 -2.58047632939787900D-01  8.12895912475641000D-01  3.49297128523961600D-02  1.31135569266702900D-01
12 25  1.70238748470547800D-01 -9.41632255625145000D-02 -5.09986700759870600D-02  1.12740030543775400D-01  8.37956226707028800D-02
12 26  4.15225736409987700D-01  5.30103614904372100D-02 -3.42173768627355700D-01 -1.15097509341557800D-01  1.02127583664375800D-01
12 27  1.29699256771825600D-02 -1.11797754852362900D-01 -1.04121583086102800D-01 -5.57690629238643700D-02  1.27408836142302700D-01
12 28  6.61694321551291300D-02 -1.93578268297431700D-01  2.46557070010520200D-01  1.68340375740004100D-01 -1.71553543647518600D-01
12 29  5.35558546169795000D-01 -3.24135621047989300D-01 -9.54935417150475200D-02 -1.74802382018695800D-01  2.07977674373372300D-01
12 30 -2.24785056661478700D-02 -1.39481530083388500D-01 -1.54324841033683600D-01 -2.21018027870086400D-02 -2.53618816453924600D-01
12 31 -7.47525729963905700D-02  5.53380176197967200D-01 -2.08063598955257500D-02 -6.24069920368696500D-02  3.00325718327270000D-02
12 32  1.77943924850097400D-01  4.26642915336374700D-01  3.26989508077949500D-01  3.89245912183572100D-02  1.18788491732869300D-01
13  1  2.32216373728829300D-01  3.71229135346995500D-01  1.95097376149620500D+00  3.01514329513157800D-01  5.46994949620343500D-01
13  2  9.71284689803618400D-02 -8.06994431844055900D-01 -3.87835155297046000D-01  8.00189753513217200D-03  1.70822389833695000D-01
13  3 -1.93672541800990900D-01  2.28501519672957300D-02 -2.35168210561134600D-01  8.41048064207997900D-02 -1.14219755313324700D-02
13  4  9.33816453403331800D-02  1.91225220380834800D-01  8.83893126615084200D-01  1.14914622405116600D-01 -6.19970301195769600D-01
13  5  1.98572735434852100D-01  1.76956855434402700D-01  8.21989943171007900D-02 -3.15161297852975100D-01 -4.62919166684809200D-02
13  6  2.77852653729171200D-01 -2.31560737060689600D-01  3.13226932756636500D-01  7.31489136797409000D-02 -1.61197372458208300D-01
13  7 -1.80503081027809600D-02 -1.10280049917166900D-01 -1.04750466048995100D+00  2.72551512427472600D-01 -2.57576333213871200D-01
13  8 -1.36321299855769700D-01  6.78369254895315500D-01 -7.09300902576006500D-01  1.52468597888899400D-01  2.93729852799146000D-01
13  9 -5.41478457806779900D-01  2.47748605007633400D-01 -7.81404421515192500D-02 -3.96765077811318000D-02 -7.06358533164518400D-02
13 10  4.85021387076548300D-02  1.44352611775527200D-01  4.06711465284792200D-02 -7.31160284962477500D-02 -7.37292295134313200D-02
13 11  1.42604089558551400D-02  3.81809716376793500D-01  1.50043030047785900D+00  1.47181952066580200D-01  3.00553040525169300D-01
13 12 -2.07579291227010900D-01 -9.29737492981579800D-02 -9.14766849675638500D-02 -4.49639628560128800D-02 -1.57811177477402800D-01
13 13 -2.23740162512076000D-02 -8.36686461770017600D-02  2.31084305390935500D-01 -2.64189114666407300D-01  1.62772457844224100D-01
13 14 -1.61757619608293800D-01 -1.76446308823436800D-01 -5.72967272349206900D-01  2.30976276637083400D-01  1.50873940562022700D-02
13 15 -1.82504163609459100D-01  1.67416769553257900D-01  7.34498736355759800D-02  6.28119661805454900D-02  1.17115655223559000D-01
13 16  2.68175332119393200D-01  6.17203729459882100D-01 -1.38705534514101900D+00  2.75554923772326100D-01 -9.35177556790726900D-02
13 17  1.77663900920178900D-01 -8.44848657761273700D-01  6.76218764756747700D-02 -3.40130916592072900D-01  5.83207162359213500D-02
13 18  5.29473168006368900D-02 -1.11268033036558200D-01  7.06675272865543700D-03 -1.84094893824539900D-02  6.22481171875027500D-02
13 19  2.67695188608506100D-01  5.27827580876653800D-01 -1.03573427082427000D+00 -2.33126328497135600D-01 -5.64905063190148100D-02
13 20 -2.95918492438855300D-01  1.24501260310713200D-02  2.07437709054787400D-01  1.23671712901743200D+00 -8.59466564196108300D-02
13 21  1.78881023930935000D-01 -2.33194247356605700D-01  2.21084174042887700D-01  1.13969571089399500D-01 -2.04061899691733000D-02
13 22 -9.35633811202257900D-02  2.62821263036689500D-02  1.91128029851653200D-02  4.59565921523028700D-02  1.66987189988492800D-01
13 23 -5.25412414956548000D-01  3.58425224968054800D-01 -1.79061129002973600D-01 -9.26836192141156000D-02 -6.10170914504701000D-02
13 24  1.99228851037142300D-02  6.02663783190931300D-02  5.65560570352988900D-01  4.48297815290593100D-01 -2.09894607196936700D-02
13 25 -5.19260150775666300D-02  9.07944651864072700D-02 -5.77492290592564300D-02  2.35088391343661400D-01 -2.57022823142529400D-01
13 26 -6.78398083779569900D-02  5.14620549044923200D-03  2.33441390245807000D-03 -3.75406327904172700D-02  6.01768001653893500D-02
13 27 -2.26361673749718200D-02  3.31769068030552300D-02 -5.12967943649798700D-02 -4.81077730346011500D-02 -4.89955614470764000D-02
13 28 -1.68024019022279000D-01  2.17019580469355500D-01 -2.74814650694956800D-02  6.85230837765386400D-02 -1.82572610217715500D-01
13 29 -1.11161377099123800D-02 -4.32589788005292200D-01  1.92104913105977500D-01  2.04706207909413000D-02  4.20856745751594100D-02
13 30 -3.53887050072212600D-01 -1.99136226829381300D-01  1.30031945338642800D-01 -2.44325491839886300D-01  2.71639636932552400D-02
13 31 -1.16118452485533100D-01 -3.74102639314689700D-01 -7.25278988280774100D-02 -2.01507280199533000D-01  1.63473576018193700D-01
13 32 -8.62703830433150400D-02 -8.65067339866838800D-02  3.14541341364300300D-02 -2.21010937227312700D-01 -3.39602019511912000D-02
14  1  3.69985495938415800D-03  6.02562253554968200D-03 -2.50444267962114300D-01  9.79981436572051300D-02 -9.00767812805509800D-02
14  2 -1.79279895578001600D-01 -7.98850215650994800D-01 -8.02623261624689900D-01  6.50260007978735100D-01  1.98477738969156500D-01
14  3 -1.18682324057933900D-01 -7.97954149112215700D-02 -1.47410019654214100D-01 -4.60319948677463400D-02 -2.75564527764688300D-01
14  4 -6.47757643346801300D-02 -2.08397422177787900D-01 -3.01349048247365700D-01  4.08495595540916000D-02 -2.99848882564304600D-01
14  5  2.13090261057294300D-01 -7.50893270158252700D-02  1.49930448153222200D+00 -6.52969348626621800D-01 -2.17433496849134500D-01
14  6  4.06339189301814400D-02  1.76799577918952800D-01 -7.77319209544849000D-02  3.35631776737701800D-01  9.43751981072244600D-02
14  7  2.93767812159274000D-02  1.33666888460229600D-01  2.15673750004567300D+00 -4.26735858629425800D-02  9.89562717590542600D-03
14  8 -1.98487502108817000D-01 -6.47043814912509900D-02 -2.86887498467237200D-01  5.65443374623152500D-01  1.88618719219418200D-01
14  9 -2.83318975195052700D-02 -1.60286821699913500D-01 -1.15872068455681600D-01 -1.45946092633068900D-01  9.84156650196942300D-02
14 10  8.46665033375075700D-02  1.45946349527550800D-01 -9.64242278439854500D-01 -3.90802615920747600D-02  2.80439856672981500D-02
14 11 -1.64842073882354900D-02 -1.16428898949741400D+00  8.03087930319416300D-02 -1.86199987364388900D-01 -9.08600304656816300D-02
14 12 -2.40637731461069000D-02  1.14923803611788100D-01 -1.91864958686893100D-02 -8.42144334541171900D-03  3.44396417970107600D-02
14 13  1.45578578102869300D-01  2.34997100425709100D-01 -2.27059813293767700D+00  2.27406010599807300D-01 -9.39279591525404300D-02
14 14 -1.35106210896253600D-01 -8.65092170106382500D-02  1.68495165807388900D-01  4.26979770534234900D-01 -6.34636574107954700D-02
14 15 -7.43823250883095700D-02  1.37845982499104300D-01 -7.51453644448892400D-02  2.92254696784662400D-02  6.28072910168283800D-03
14 16 -7.86609754673010500D-02 -1.53573552510077900D-01  2.36659908492816100D-01 -1.13286789209710500D-01 -8.94171107719017400D-02
14 17  1.05733139866276700D-01 -1.57275291170568600D-01 -9.95257388110829900D-01 -5.44186034322465300D-01  8.38014227290615900D-02
14 18 -7.71499747347760000D-03 -7.60864252555831400D-02  3.65120382184205700D-02 -2.05538875335464700D-01 -5.15597912585969300D-02
14 19  1.68050514406347700D-02  7.52588869084287200D-02  4.41120082305172100D-01  1.57960406407553000D-01  2.88915368631389100D-01
14 20 -1.11360814762702600D-01 -7.46186226438469900D-02 -4.10273534577524200D-01 -1.28155755372563900D-01  1.82873445937504800D-01
14 21  2.22285283267894200D-01  6.31552057461940800D-02 -2.33011579360856500D-01  4.16653570161140100D-02  6.02810767763064100D-02
14 22 -1.01946433792419700D-01 -3.15161981077588000D-02 -1.22877821724334400D-01  1.72594053733573300D-01 -8.44617331268128100D-02
14 23 -7.83901929337371300D-02  1.62851926060550300D-01 -4.03587751972485000D-02  1.56905847115491300D-01 -2.41897070798241500D-01
14 24 -3.96571863286432600D-02 -8.06351290591800200D-02  2.27973226100138300D-01  5.01896635330624500D-01  5.05595048910400700D-03
14 25 -8.95709918417229900D-02 -8.77805615555367800D-02  1.67270976977901100D-01  2.94043205993730700D-01  2.00641788144256700D-01
14 26  3.38841245849419700D-03  3.27080112479836800D-01 -1.76940577466391100D-01 -2.45021749732426200D-01 -1.43130136677962300D-02
14 27  2.59334763400222900D-01 -6.73979943700328500D-02  5.09844826872657800D-02  2.96443698385028400D-01  2.88716904666877400D-01
14 28  1.69714775408506000D-02 -3.05688382207727900D-01  7.50926654673110400D-02 -4.56043184326873100D-02 -2.65223968489597000D-01
14 29  6.37601589480834700D-02 -1.33556614044436500D-01 -2.91066273459814200D-02 -3.30350902580323500D-01 -2.09042580399569500D-01
14 30 -3.68612457876049600D-01 -2.17139036749180600D-01  1.54494775729604700D-01  7.52248142738732200D-02  7.79407239218609700D-02
14 31  4.68216689868896400D-01  3.36156933675382700D-02  1.77970620523311000D-01  8.92248660641724700D-02 -4.22053237248254900D-02
14 32  9.94897784804575200D-02  8.50923876313500900D-02  1.01522039058409900D-01  2.81768704672482200D-01  6.82781255835569500D-02
15  1  1.03952809178283400D-02  2.19993834482738400D-02 -5.03540580674880900D-01  6.40482837585512100D-02  4.27220245524929400D-02
15  2  1.15086399386032600D-01 -1.06817629433148200D+00  2.29202842414496500D+00 -4.28414943056098000D-01  6.97608332497713200D-02
15  3 -1.13168051032016000D-01  4.34072177822428300D-02 -1.68412954513808800D-01  5.84141302657376300D-02 -2.40647011845657800D-02
15  4 -3.40088869868969000D-01 -7.14550319694174400D-01  2.25498666564133000D+00  1.73628150205110600D-01  2.41733198398410500D-01
15  5 -6.62876112582654200D-02 -1.75597591322708400D+00  5.39301131894396000D-03  4.80852891557427900D-01  1.59203348937626700D-01
15  6 -1.11125659210811100D-01 -4.80776897268145300D-02  5.42753783856650900D-02  1.04419757900125000D-01 -3.18645977419828400D-01
15  7  5.48765048336129400D-02  1.27758081406091100D-01 -4.81314044867728900D-01  8.69330932605276600D-02  2.19877427461455900D-01
15  8  8.56509681417052200D-02 -1.41101247635558200D-02  4.87177615620504100D-01 -5.12448735690417700D-01 -2.34102081141703200D-01
15  9  2.03213258752799400D-01  3.08888223889030900D-02 -1.48820844407515200D-02  6.87559189566528400D-03 -2.66758284738705900D-01
15 10  1.54515672680888300D-01  3.24238453698254000D-01  2.42270776753579600D-02  2.18482834262837300D-01 -1.55343848607291600D-02
15 11 -1.59450874421602200D-01  6.04414155792710300D-01 -1.84901613800264700D+00  5.82163483564502500D-01 -1.17355020577218100D-01
15 12  2.40309994493071700D-01 -1.22954973915854000D-01  6.76808265144435000D-02 -7.06252243638767900D-02 -8.99852988437293100D-03
15 13 -2.53313051727464500D-01 -4.77225716405314200D-01  2.73210990127379100D+00 -7.45485971427840100D-02  2.37696342889889800D-02
15 14 -5.13332192977501100D-02  1.30597258641786100D+00  5.82327003537077300D-01 -3.84115415426750400D-01 -1.00735138103534200D-01
15 15  3.45893267055960700D-01 -2.45158128952425400D-01 -2.80167460724429600D-02  2.08304676543129600D-01  3.54380041613047200D-02
15 16  6.11634085699183600D-02  1.70351887013938300D-01 -8.97690297381294200D-01 -1.36390520175891700D-02  2.64992338240833600D-01
15 17 -3.44656707609630300D-02 -7.67941577172228000D-02  2.73495296914749000D-01  3.85282450127864900D-01  3.57534224248221100D-01
15 18 -3.43874771016580700D-01 -1.36594532316412200D-02 -1.51016273712794900D-01 -2.09717095489002900D-01 -3.21283229032486700D-02
15 19  2.12553112464770600D-01  4.27643289537886900D-01 -1.33635358869657600D+00 -1.02581762967443200D+00  7.11081492768990800D-02
15 20 -2.01400281317249000D-02 -3.06025056223491700D-02  1.06511272232950200D-01  4.16629705878690900D-01  2.04023097905081700D-01
15 21  1.49777907843675100D-01  3.72725518213308400D-01 -1.51396545415262100D-01 -1.57755071979984600D-01 -1.51712268313308300D-01
15 22  3.09467340293292800D-01 -1.78328327905048400D-01  3.99438093859635800D-02  2.47874603831282600D-01  9.21798660087526000D-02
15 23  1.41628177055561900D-01 -2.33808043064315000D-01  2.48231661552128000D-02 -9.71678255692383200D-02 -2.94184035181220400D-01
15 24  1.22720757615390500D-01  2.38255201520228200D-01 -1.11874573091003800D+00 -1.02511077160881800D+00  1.02252517138601300D-01
15 25 -7.27654851527398800D-02 -8.35221262355562700D-02 -2.58928180120540300D-01 -5.54550285006705600D-01  3.04672794087887500D-02
15 26  2.22707901024072600D-01 -2.41072662639486700D-01 -1.67366081651683300D-01  1.21529856768700700D-02  3.33572575664234900D-02
15 27 -4.55102432432946800D-02 -1.30169227629942200D-01 -1.58580045250007000D-01  5.75540844907035500D-02  8.61591605610144800D-02
15 28 -1.74220981769702000D-01  8.80618212086874300D-02  2.30075446891552800D-01  1.90383470142251500D-01 -1.77560455522977700D-01
15 29  9.80814044061751200D-02  3.24632876290326100D-01  1.49233461292457000D-01 -4.51532295476553900D-03  4.62758511669014200D-02
15 30  1.07668121116658900D-01  3.94192504530457500D-01 -1.00928385099353400D-02  1.43426403930795500D-01 -9.96046434987587100D-02
15 31 -3.68309597909829400D-02  4.52865774110735000D-01 -5.83801823139196700D-02  1.51567833054075100D-01  3.84176949902984500D-01
15 32 -3.10760356889456500D-01  1.07529152499145300D-01 -2.46221401260062500D-01  8.87834297031670800D-02 -1.90582618208318500D-01
16  1  2.58736637982485600D-02  8.47255079944880900D-02 -1.42920777910722200D+00 -5.90048333758528100D-02  6.00752203243363600D-02
16  2  1.29840824929809300D-01 -2.02168832098602800D+00 -7.15727142275763600D-01 -3.63876121199316100D-01 -9.22075874688477900D-02
16  3  3.61525024453269000D-02  5.60550850235208500D-02  6.44448442536678800D-02  4.20574975438437400D-02  1.43117926522525100D-01
16  4 -1.58164260835080800D-01 -3.15468108156872800D-01  1.35616478422324300D+00 -1.12485012526573100D-01 -2.37433133928123900D-01
16  5 -2.95720725070186300D-02 -4.65646768348459100D-01  1.81296194408195300D+00  2.22776800541138200D-01  1.43521077785099800D-01
16  6 -1.16226156083627500D-01 -2.72949217014722600D-02 -4.27853498887768500D-01 -4.73450811142696300D-02 -8.14475171188141200D-02
16  7  1.96572885209883400D-01  3.84209391314732500D-01 -5.34886330063263500D-01  3.72211361081266400D-03 -1.93775815283644600D-02
16  8  1.09306313204122100D-01  8.33962985032517800D-01  6.03595350438238400D-01 -1.34201806145754900D-01 -3.41680264532662400D-01
16  9  9.67313767303952100D-02  2.44948887802267200D-01 -2.40911756857903700D-01 -9.80448654152508300D-02 -1.40445106538793000D-01
16 10  2.12172981406996900D-01  3.80424216865546700D-01 -1.57361179567858700D+00  2.77266998367560700D-01 -3.05985093241070200D-02
16 11  8.59747198505975000D-02  1.61177925783272700D+00  7.57472828086915900D-01 -1.39879630742739900D-01 -2.91076496651415900D-01
16 12  1.55595598784504500D-01  1.35480897866912300D-01  3.35953034884254500D-01 -1.34463038953279600D-01 -1.73867654795372800D-01
16 13 -1.39794548401952400D-01 -2.72381993288917700D-01  4.05751304943062600D-01  1.86092110275345700D-01 -3.38721914494564400D-01
16 14  4.02305862904131200D-02  6.10017196340131600D-01 -1.35959174762812100D+00 -1.71670976737709000D-01  2.62894391236557900D-01
16 15 -2.03673482512991700D-01 -5.92209087235656600D-02 -6.18782240133526900D-01  8.43877805870308800D-02  3.66924762688731900D-02
16 16  6.66162142275072100D-02  1.69447655395119700D-01 -2.56317719133292200D-01 -8.84087635303216900D-02 -5.86252725593043900D-02
16 17 -6.37039673419241300D-02 -2.81096537011037600D-01 -1.37630006948077000D+00  2.21731691538417400D-01 -1.43701524037039700D-01
16 18  3.07799822182891800D-01 -1.64098298145851700D-01 -2.27087161113267200D-01  1.15720498684033900D-01  3.32161716392791400D-03
16 19 -1.40732125158158100D-01 -2.93195409006120500D-01  8.86800891327683600D-01  3.31297257391227200D-01  1.08902117237245500D-01
16 20  6.21052519533718800D-02  1.46388253586195700D-01  5.57034764221343100D-02 -3.59977775671776100D-01 -2.86840015430379500D-01
16 21  1.32266091681698600D-01  4.14888640423942100D-03  3.16195356219206400D-01  2.73713610671514300D-01 -1.17803606547091200D-01
16 22 -1.55910004124423000D-01  1.34126393677362800D-01  1.89745903511823700D-02  2.80289603848932900D-02 -3.87651368246284200D-01
16 23  1.40483563916797600D-01  2.47167804329485500D-01 -1.10734176904512500D-01 -4.47261953306910100D-02 -1.18307841631789900D-02
16 24 -1.66746247330253100D-01 -3.56132726473172400D-01  8.34952420504361000D-01  6.89391870540075400D-01  6.18948961267577800D-02
16 25  2.40293336571625100D-03  1.04547211908094800D-01 -2.42337948748911100D-01  2.21136713176427000D-01 -2.56082279246741700D-01
16 26  1.83731575469429200D-01  3.20207500347084800D-01  2.57270206388886800D-01 -1.54545779459848400D-01  4.15410834538122800D-02
16 27  1.13004696006036200D-01 -1.00440020323863100D-01 -1.71718196904539000D-01 -1.44742204890731100D-01  2.09427132174379400D-01
16 28 -1.40921297776932200D-01 -6.85058343974471700D-02  1.64994394586541000D-01  2.54083708173229300D-01  9.36367390863221000D-02
16 29 -2.33828962153947300D-02 -3.75498099491107200D-01 -3.32250605416501000D-01  3.08086685405335600D-02  3.65365400119739100D-03
16 30  5.89639711553616600D-02 -3.89409125749877800D-01  9.19662184016495100D-02  1.96245697603832200D-01 -1.19683048710219500D-01
16 31  2.18166577269664200D-01 -3.24480058676454900D-01  1.73984981550028500D-01 -1.58811827705469100D-01  1.77674326076896100D-01
16 32 -1.83731181069517400D-01  5.60953778432426000D-01  2.23212512459056100D-02  9.18212321350592700D-02  3.64507948610721700D-02
17  1 -7.74625740087969400D-02 -2.03358544943209000D-01  6.69034504733061400D-01  1.70561292449021000D-01  7.66539916269130500D-02
17  2  7.76657434763194500D-02 -7.75164678479887900D-01  8.05139159621040300D-01  8.65945909483134400D-03 -3.20445606028334800D-02
17  3 -7.85782483545567100D-02  1.10622808957391700D-01 -1.59698154762538500D-01 -1.45844062045125600D-01  4.74954259998344200D-02
17  4  1.56908257702027600D-02 -3.61703016951708700D-03 -5.41353976649826000D-01 -2.62602467813911700D-01  2.47750234230802300D-01
17  5  3.86623549648683100D-02  4.24537039071140400D-01  1.00568040558201700D-01  6.79257925083832200D-03  7.56793622345103700D-02
17  6 -1.70881595391089300D-01  9.52022331565783000D-02 -4.90848032441966200D-02  2.98221168860255400D-02  5.79097846063984400D-02
17  7 -7.08968954835334900D-02 -1.39710419344785700D-01  1.12613599533297800D+00  2.09901762851402800D-01  3.45673478042541900D-01
17  8  4.02250967885937900D-03 -1.32215276222886500D+00  1.61174286775930800D-01  6.90264541868120100D-02 -2.01699736363640200D-01
17  9  2.26385228503829100D-01 -2.46854921401889900D-02 -3.56464608704608700D-02 -5.50741292860111000D-02 -1.79449517551675200D-02
17 10 -2.42403811627986900D-02  8.98762612256124100D-03  5.94679409459301500D-01 -9.75882343792844700D-02  3.45497767399265100D-01
17 11  9.01380964712450900D-02 -1.32185888935714300D+00 -4.85038717031289600D-01  1.90373358672986000D-02  1.89296456314804000D-01
17 12  5.63682398047434000D-02 -2.45664696119548100D-01 -1.07268385880141800D-01  3.44968587884224800D-03 -3.62372978445894800D-01
17 13  2.05122066098174700D-01  3.34552567174555100D-01 -2.81132534697823100D+00 -2.98868274108094100D-01 -2.85225878317242000D-02
17 14 -1.81470263708271500D-02 -3.97298678034759700D-01  1.52135279398834600D-01  8.28503313310618000D-02 -2.21207883362091000D-01
17 15 -1.12794385705759900D-02  2.32487321932665600D-01  1.37288125065685900D-01  1.80014020581183200D-02 -1.14512122992289700D-01
17 16 -9.74700560413428300D-02 -1.82594709049314500D-01  6.30979075113808200D-01  3.49123506113068500D-01 -2.12118976465105700D-01
17 17 -1.36810212886251900D-03  1.83443743119532100D-01 -1.22674317820831600D+00 -1.06453082185136500D-01  2.46137602291782800D-01
17 18 -2.49033615044080600D-01  2.89601275229905000D-03  1.79162806196840600D-01 -1.70296046142908400D-02 -1.77335383915875300D-01
17 19  4.35261793609557100D-02  8.08702171687576000D-02 -5.02924168184570300D-01 -1.29597479630537500D-01  2.32065471540993700D-01
17 20 -1.05687484816177600D-01  1.02912261363920500D-01 -1.45989753423105000D-01  2.58136498249119400D-01 -2.51784139750665900D-01
17 21  1.33328746818411600D-01 -2.10998747171613500D-01  2.26231868254969300D-01 -1.53867791899279500D-01 -2.59465025467203300D-02
17 22  1.79814294446001000D-01  6.67512864953109500D-02 -1.23979162163259100D-01 -8.13081664371229600D-02  2.16813977606998600D-01
17 23  8.98501957414946200D-02 -3.06664173348492400D-01 -2.21496409458596500D-01  2.29362665602795600D-01  8.56342963906901700D-02
17 24  4.36242735356443700D-02  8.66247275699796700D-02 -4.26709982113124900D-01 -1.47536913695249800D-01 -6.91854764504472400D-03
17 25  1.44967556787422300D-01  1.40590807882795600D-02  1.55384572139422000D-01 -2.03629243985268400D-01 -1.62817659842435000D-01
17 26  1.51703356710533800D-01 -2.11335779190888000D-02 -1.10269868296198900D-01  1.40591681244668200D-02  8.35876159269152200D-02
17 27 -9.76467840513816500D-02 -1.57541174698552000D-01 -7.21083906989475900D-03 -3.58054215798551900D-01 -1.49812297845974900D-01
17 28  2.55372461952925900D-02  1.24275051650682400D-01  1.53879995720088300D-01  2.38692019759060700D-02 -1.50410669920159800D-02
17 29 -1.49940511196196100D-04  2.07281279585815300D-01 -1.49070011322993600D-01 -1.28673916954243100D-01 -1.74298427438802500D-01
17 30  2.76521216813930000D-01  4.38373021782631000D-01 -6.38267888336003900D-02  8.72321349276491800D-02 -2.17171683875380100D-02
17 31  9.84309979347799400D-03  3.05782625851546500D-01  6.21811665331575200D-02 -1.94160505683718100D-02 -9.17050575214234700D-02
17 32  5.73645871892455400D-01 -1.62153219254805200D-01  3.66327704351336700D-01  1.62891499655658400D-01  1.89398239067984900D-01
18  1 -1.29159721704829900D-01 -2.64477118553295200D-01 -3.47171657110078400D-01  2.69256604258903700D-01 -2.40674294250218500D-01
18  2 -2.18913577282305800D-01  8.03590183472515800D-01 -8.14107736118600700D-01  4.85217554317879000D-02  7.19766729190495600D-02
18  3 -2.04005853529445600D-01  1.32029180610396300D-01  7.74806054397242500D-02 -5.36461744473490700D-02 -4.27665553717346300D-01
18  4  2.28565697287516600D-01  4.72225571602862500D-01 -6.02056342502285100D-01  4.92327777232507200D-02 -1.60550674124518300D-01
18  5 -6.56773881053680400D-02  1.12145323295835200D+00 -5.82103729902633300D-02  1.21277812998842300D-01 -2.62847522388194000D-02
18  6 -2.79021415620502800D-02  5.41868938008695000D-02  2.04699065368297700D-01  9.46381906952010900D-02  4.12340662128486200D-02
18  7 -4.43835974117172100D-02 -1.05760155173158300D-01  8.83835164189070300D-01  2.60176896609920000D-01 -2.03754464063329300D-03
18  8  1.87831806270445100D-01 -7.96314307970752000D-01 -1.10273591842362600D+00 -3.70691592517521200D-01 -1.03495984156479000D-02
18  9 -7.71140478729795700D-02  8.74636462886273600D-02 -1.07585124650676900D-02  2.43387374917410700D-01  5.49527582348046200D-02
18 10 -2.36385687195333700D-01 -4.37537182898609300D-01  2.63995108508161300D-01  6.48904309000691000D-02  2.33461116227065900D-01
18 11 -1.63325662290030000D-01 -1.66128484586397900D+00  5.75984331204279800D-01  2.92627852706068900D-01  8.11707683402249600D-02
18 12 -1.90417138283579800D-02 -6.21290545118681600D-02  7.70444553341305500D-02 -4.42218218307665300D-02  3.78695419774688800D-01
18 13  2.58461482828051000D-01  5.03798856967368700D-01 -1.98155259482850600D+00 -5.85989089424363300D-02 -2.78715245186255700D-01
18 14  1.21961938466653900D-01 -9.86751491117109500D-01  1.04455585777473400D+00 -4.59525272026304700D-01  1.40782166134687000D-01
18 15 -2.71839546875436300D-01  1.31057380740749400D-01  2.31128468174591800D-01 -1.88314880226941200D-01  7.68454693351899300D-03
18 16  2.10761353980881900D-01  5.07458559804617300D-01 -4.78407743956846200D-01 -3.44277928671885100D-01 -3.23146065041628100D-02
18 17 -3.87748066642471800D-02  9.13670067487450100D-01  2.92004538558810600D-01  1.40228834253076100D-01  6.87818311115680800D-02
18 18  9.94673380888067600D-02 -1.68249169200373900D-01  1.19149948199466500D-01 -1.70656247108706000D-01 -1.01196553982877300D-01
18 19 -2.84345455325234800D-02 -8.81571257806633100D-04  6.74980497454175700D-01  4.47753807140076900D-01  9.56987045763185200D-02
18 20 -1.00533495500358500D-02  7.98856271909712300D-02 -3.45414747303092000D-01 -5.69299610326012200D-01  5.50532952778568400D-02
18 21  1.08560971146461500D-01 -1.11226514428417100D-01  1.38320263420005100D-01 -1.87208893539873700D-01  1.76894349357162200D-02
18 22  1.69519458604157800D-01  5.40090831049526400D-02  1.86202881163320200D-02 -1.54356053704701700D-01  1.42313322440606900D-01
18 23  1.72837265014197900D-01 -3.15150587454805200D-01  1.14543162367866400D-01  3.43370745277429800D-02 -1.85761288830778500D-01
18 24 -1.08923704906295300D-01 -1.90194270546013200D-01  6.64418916721741700D-01  6.83096018810037700D-02  9.23697670208030000D-02
18 25 -4.51010713585763600D-02  1.09162102939033700D-01  2.61944180355320300D-02  5.40810566002276500D-01 -4.90248315908631300D-02
18 26  5.66633355338619200D-02 -1.30501873194613900D-01  1.69689670421689700D-01  2.46049693247933600D-02 -7.77428815497251300D-02
18 27  5.31379122249320600D-02  8.46046988042013800D-02 -1.04719146746751500D-01 -2.23441332867801700D-02 -1.61864402984976700D-01
18 28  3.04438459089747800D-01 -1.42574056104770900D-01 -1.98386036228150500D-01  1.37004625012794600D-01  3.74453766377250600D-01
18 29 -2.32972486552334000D-01 -3.36620994972673800D-01  1.67938871326352400D-01  2.91926395515390700D-02 -1.36904826355572600D-01
18 30 -2.21003695355628400D-01  1.47526102669274200D-01  1.64607225537259000D-01  7.23649940627871900D-02 -1.79818417158779900D-01
18 31 -3.10543909911371300D-01  5.83240791945523800D-01 -4.14450496386294700D-02 -2.35022960923150500D-01  1.58090816795005100D-02
18 32 -2.34102841075357400D-01  5.54681190307454100D-01 -7.35911774464431400D-02  8.49735599887996000D-02 -1.39103482531772000D-01
19  1 -1.62427866579122600D-01 -2.67033155364848700D-01  1.76793994404515500D+00  1.09140380909261600D-01 -2.71418224147726600D-01
19  2 -4.71209729267557600D-03  1.06677143375492500D+00 -9.58675028172267900D-01  3.38111715814920700D-01  2.69589270642232300D-01
19  3 -7.00026232829955300D-02 -1.99586647359236500D-01  2.56627974796231300D-01  6.38752263451944600D-02  9.64573881890839600D-02
19  4  5.56607317847824100D-02  6.25790616875830800D-02 -1.29737165621222300D+00  2.21931557158813700D-01 -3.53893801092453800D-02
19  5 -1.50926790045705100D-02  7.59753507202761200D-01 -9.45659046413172300D-01 -8.49609411944099000D-02  8.58503937534201700D-02
19  6 -2.18310791640333500D-01  1.32460397886912900D-01  1.57270876437950200D-01  5.15381927666647900D-02 -1.18900837145256900D-01
19  7  3.04532054196324500D-01  6.45864464853868900D-01 -2.72962872472453300D+00  5.09180275113688900D-02  3.04768107216013800D-02
19  8 -1.46934730985674800D-02  6.56805614293476400D-01  3.70772971502045700D-01 -4.26801698516570300D-02  6.88487116590048600D-02
19  9  1.04326233599635300D-01 -1.73174945258639500D-01 -1.35657312435671700D-01  1.17125721937427700D-01 -7.53516820916362900D-02
19 10  1.59408985475197700D-02 -3.74704728794834700D-02  4.23530853218566900D-01 -3.26404480742106700D-01  2.41092763061708100D-01
19 11 -2.52210658696032100D-02  1.28620250948852500D+00  1.08124367009133700D+00  2.02553221757617900D-01  2.59193744615722300D-01
19 12 -3.50688506097238000D-01  9.14947614815168200D-02  2.79153914611906800D-01 -6.17268980548339900D-02  5.40714550697836000D-03
19 13  2.47665965582655200D-02  1.85803985067322200D-02  2.96240085574546600D-01 -3.59022123955043000D-02 -1.35097663264084200D-01
19 14  2.47935668766623100D-02 -2.60826072113516900D-01 -6.87633328771793300D-01 -7.25236384224614100D-02  2.09874858166932800D-01
19 15 -1.37265659293731700D-01 -7.26091988732012200D-02  3.24899988720095900D-01 -1.21284977908541500D-01  1.52330139792385700D-01
19 16  7.10337409404719600D-02  1.71964596998773200D-01  5.43145213043009100D-01 -1.20945114934201400D-01 -1.65439061748324400D-01
19 17  3.88666871487621500D-03 -1.48513244586176900D+00  7.38391550995749800D-02 -7.74076221669841200D-02 -1.30160537354930400D-01
19 18  5.09011819983356500D-02  7.92593553565941100D-02 -1.17097280162462300D-01 -1.11548604442387200D-01  1.13055731338731000D-01
19 19  8.25503785486189800D-02  2.06496364911601800D-01 -2.21206418013180000D-01  1.08448602360023700D+00 -3.50826963407614000D-02
19 20 -4.76990310668020400D-03  6.21632342608828800D-02 -3.06870670149125200D-01 -2.38266538291113700D-01 -2.22030648158412800D-01
19 21 -1.86605412913295800D-01 -5.87313501927622900D-01 -1.91900390489624200D-02 -6.09372388925916900D-02 -6.05345184414264600D-02
19 22  1.21471757334017800D-01 -6.79221977008029600D-02  4.24624503179036600D-02  4.22797712935747100D-02  7.57985518703986800D-02
19 23  1.51652770819006700D-01 -2.27451322689404800D-01  3.32964913902981400D-01 -7.47973314943628000D-02  1.31799491220052200D-01
19 24 -8.73816475292422100D-02 -1.87284431752548000D-01  7.51132253943993700D-01  6.61963903813956800D-01 -5.97621339724534500D-02
19 25  3.33003484291979700D-01  1.08354033180420000D-01  1.53381763549001400D-01 -7.43196630009086000D-02 -1.96052407140154500D-01
19 26 -2.83935831644222000D-01  5.92596765054738400D-01  2.69514516011810300D-02 -3.40150742707431600D-01  4.03316472724027700D-01
19 27 -6.31657300165956900D-02  8.87898081789135800D-02  2.14079649834472700D-02 -3.11568619417705400D-02  1.67724219591364700D-01
19 28 -1.65311061534564500D-01 -2.41315805680018400D-03  7.55980540639477600D-02  2.97597759491635100D-02  6.40775832479559300D-02
19 29 -1.78484489635488600D-02 -2.40423033604245900D-01 -1.18405025648314300D-01  2.94587261920563100D-01  9.52855965503386900D-02
19 30 -1.49923027076651600D-01  2.12573556017106100D-01 -4.22582892595663700D-02  1.49950798804229000D-02 -9.82048823125709100D-02
19 31 -2.91824001456002500D-01 -6.69068524063216800D-01 -1.85529989400056400D-01 -9.16539424450033000D-02  2.36245065978440700D-02
19 32 -7.25167313959322700D-02 -1.50752819446777200D+00 -2.29821349376297600D-02  2.05244177085718600D-01 -1.58768109965022900D-01
20  1 -1.41058706184803800D-01 -2.58216740379147300D-01  1.10923829068667900D+00 -1.68820907970726300D-01 -4.02230643304607700D-02
20  2  1.77345334122234900D-02  1.27709472102157600D+00  1.87742158642199900D-02 -1.54430960549749300D-02  3.02182049578705300D-01
20  3 -2.24690428467793100D-01 -7.74916211109124300D-02 -2.11096615769482300D-02 -3.55696342816139600D-02  1.63121646446748900D-01
20  4  9.61147773303991000D-02  1.57038943659467900D-01 -1.20435293861467700D+00 -2.20904578381657900D-01 -2.53724574654200300D-01
20  5 -1.22856880068754600D-01  1.28085647436203100D+00 -2.36125913967419300D-01  2.15297886028630500D-01  1.18310735832326300D-01
20  6 -2.79702061655479100D-01  1.61391325823152500D-01  2.61306432299653400D-01 -9.85368352068806300D-02  2.94651573473519900D-02
20  7  1.30743701464263400D-01  1.84845883130548500D-01 -9.23938427175347600D-01 -1.64953637944111300D-02  2.04245434546596300D-01
20  8 -7.04701572611646000D-02 -3.19061108780423500D-01  4.36742740887074900D-01  9.44836471895556300D-02  1.39843969329224900D-01
20  9 -2.00272862932967000D-01  6.04288936037423400D-02 -3.23680087951572100D-02 -9.42935107772084600D-02 -9.44061630813196300D-02
20 10  2.79252984149690700D-02  1.52805087936446800D-01  1.33321756032241400D+00  3.49222133749311700D-01 -3.36130473615050300D-01
20 11 -2.96002269283482400D-02  2.90937873152706200D-01 -2.24211599285979800D-01 -1.46210345014390800D-01 -1.08838149772406100D-02
20 12  1.30620924394582000D-01 -1.19737109417341100D-01 -2.17897615539592200D-01 -4.62771485370783900D-02 -6.87686798676038900D-02
20 13  2.21571688454932700D-01  5.10857417930318200D-01 -1.12413348963883500D-01  1.33020902660229100D-01 -1.62025020421898500D-01
20 14 -5.49867772775183700D-02 -1.28321151746632200D+00  8.23608448980247900D-01  8.61285624393629700D-02  3.37732712832608700D-02
20 15  4.60858432735177400D-02 -7.98591145567790100D-02  2.62933124640970400D-02 -3.39823581525225400D-02 -1.69260589481878700D-01
20 16 -5.54815237279235400D-02 -1.03824015286874800D-01  2.60211313237093500D-01 -3.12745842538431000D-01  9.27187973196140500D-02
20 17  7.90969829403759100D-03  8.46368379035461200D-01  5.23602411232213200D-01  9.12260918094448100D-02  1.50848502544617000D-01
20 18 -1.63123018550256500D-01  1.22745160056394400D-02 -3.04315307024668000D-01  8.71083122626401500D-03 -1.18207745380974800D-01
20 19  2.28351974069204800D-01  5.04893490603695800D-01 -7.96412153047570700D-01  1.68451809979810900D-01  3.86741533686861800D-02
20 20 -8.05989459508090700D-04 -1.36569810028379800D-02 -1.95807717146383300D-01 -1.96546438186695300D-02 -1.81683101994678800D-02
20 21  7.45564319184336500D-02  7.01938633300633700D-02 -1.30932712400676200D-01  9.93985290486465400D-02 -2.65052382549755800D-02
20 22 -7.28932907936714500D-02  6.06689046502307500D-02  1.56058980524192300D-01 -8.42171708177867800D-03 -1.35017012105485400D-01
20 23  1.10295146195016200D-01  2.47218659104697900D-02 -1.43980686730964500D-01 -8.91514569774066000D-02  9.43037843492202700D-02
20 24 -1.94142193882162600D-02 -1.47783729827395200D-01 -7.10113926264357800D-01  5.58273580475157800D-01  1.10147651469066200D-01
20 25 -2.07133619731374800D-01 -1.00108698553739200D-01 -5.04103603400628100D-01 -3.25110578346002400D-01  2.32167214951470600D-01
20 26 -7.11081914755891800D-02  5.34538494062892100D-01 -2.24159386489641700D-01  9.41149056134342700D-02 -2.90456567256092300D-01
20 27  1.96341661642657800D-01  1.32313948054745500D-01 -3.56653067475666800D-02 -2.21248963178235300D-01 -3.79367033790708300D-02
20 28  9.10363036161975900D-02 -5.30996002371268100D-02 -5.37288752895415800D-01  1.04295823495441800D-01  1.40889791357947600D-01
20 29  5.17017451071125700D-02 -6.63712859375285200D-01  1.00645592254727900D-02  5.93895254642584100D-03  5.97085150797122500D-02
20 30  2.41032038248566800D-01  3.04044744599139200D-01 -7.67231322869512500D-02 -1.87251850865143200D-02  6.58690406655484500D-02
20 31 -1.80881778217796100D-01 -4.83484851918380100D-01 -1.41806958997096400D-01 -9.35646405949035800D-02 -8.96935908747785300D-02
20 32 -2.03955363357040600D-01  1.57034904607965200D-03 -1.72089168256665600D-01  9.55127047136229300D-02 -2.01564164163866100D-02
21  1  1.05276851132280000D-01  2.47413046794309500D-01 -4.30317159929361500D-01  6.20226411912854400D-03  4.28156806904853900D-02
21  2 -1.02316376638103900D-01  6.39844841938233500D-01  6.87669501351939300D-01 -5.15809356586310500D-02  7.70236250336223300D-02
21  3 -1.61645957005890800D-02 -6.08590293330369000D-02  1.03651269042253800D-01 -5.83043686831536400D-02  1.72717453044202300D-01
21  4  9.75539876729304100D-02  2.78200892146681800D-01  2.09357540262600100D+00 -6.06066537338598900D-03 -7.13175713959563900D-02
21  5  2.02221949444283100D-02 -2.23415640847080600D-01 -2.08916852022594400D+00  3.15859811853092700D-02  1.92900452147302000D-01
21  6 -2.72663904894849500D-01  7.97634527475487000D-02  8.00946429868309900D-02 -1.37593005996176400D-01  1.55579119104407100D-01
21  7  1.39413837221260300D-01  1.89762141365967900D-01 -2.39515152042094300D+00  1.83956624616204000D-01  1.08028264465864000D-01
21  8 -5.63835828356530300D-02  5.18076570422688200D-01 -2.14448698365176700D+00  1.16067600539816400D-01  6.79082487062829500D-02
21  9 -1.50367131372580600D-01  8.24588826662973900D-02 -2.68571435524597300D-02  1.41544006609603600D-01  9.38346000423704200D-02
21 10  7.39252377449315500D-02  1.35253472210195200D-01 -5.84865437383401800D-01  2.63734770445371000D-01 -4.27645283224504500D-02
21 11  6.78510359639471100D-02  2.89303255162518400D-01  1.32317154361332600D-01 -2.79888123334266000D-01 -9.13116990411782700D-02
21 12  4.07261706671604200D-02  5.05855283740166000D-02 -6.57247427322928400D-02  1.34962883758514000D-01  6.08825698295163700D-02
21 13 -9.87798053007960500D-02 -1.22548929752968400D-01  3.03423080547028700D+00 -1.03838805310441400D-01  1.07344487254596900D-02
21 14 -1.91421054160055100D-01  1.32469830645546300D+00  2.35659418299052300D+00  4.15100628628232000D-01 -2.65412678297362300D-01
21 15  4.90987445691767500D-01 -2.25574767394402300D-01  2.26384250598766700D-01  5.68229063723916900D-02 -4.23395754624371500D-02
21 16  4.65425849313564800D-02  5.48062753275793300D-02 -2.55095900542685200D+00 -1.42409128342901000D-02  2.63620532968872400D-01
21 17  4.18825314620745400D-02 -5.59381748584296900D-01  1.98455773711142200D+00 -1.53197478380183400D-01  3.83093078136564000D-01
21 18 -4.22227426012075100D-01  3.91343478755095700D-02  3.10474537980827100D-01  1.17072811122002500D-01  8.84869478357682700D-02
21 19  2.04344430139310700D-02 -1.41962317431626100D-02 -5.08771493766534200D-01  4.86974135097145300D-01  3.10115753382525600D-03
21 20  3.88382332317577200D-02  2.49057630665118400D-02 -6.57494615668915000D-02 -9.64962181044680900D-03 -3.22715992389007200D-02
21 21  2.60206676324361100D-01 -1.92914665201649700D-01 -5.34278869725131200D-02  6.45056197236749800D-02 -8.58144690508445800D-02
21 22  2.13088493271695900D-02 -2.47874085655996000D-02 -4.80610868997550200D-02  2.45918481663353800D-01 -1.33169328007656300D-01
21 23  1.26357364443327700D-01  6.81196356432773700D-03  2.74804139909991000D-02  4.19384084753387900D-02 -2.33280994420273500D-01
21 24  4.52859258144578400D-02  9.56392108829753300D-02 -9.25196862990110100D-02  2.27727074087772900D-01  1.63265815532454500D-01
21 25  1.69351669105287700D-01  8.66818760927263000D-02 -5.45839778544633300D-01 -2.79854607821787700D-01 -8.12342353761535700D-02
21 26 -9.67412236117879000D-02  1.53349995717533300D-01  1.47167793762410800D-01  4.24548994567787400D-02  1.49242105882897900D-01
21 27 -1.91697005339677500D-01  6.68989862404769800D-02 -3.93269440257109800D-02  1.38258216425303800D-01 -3.02942011913318600D-02
21 28 -9.41610576073748600D-03  3.97103069520693500D-02 -3.39585677670160800D-01 -7.30239124693166700D-02 -1.52362307131258100D-02
21 29  5.93925725264165000D-02  1.57889489220178800D-01 -4.90897321864353700D-02  2.79729479733724400D-01 -1.34577231060002900D-01
21 30 -1.25470162649308000D-01 -7.47332469887717800D-01  5.38482579345267800D-02 -8.30721444360983800D-02  3.50288983520249000D-02
21 31 -2.30825602097398200D-02  1.04169383331118800D+00 -1.47894883535970700D-01 -2.25472457753857800D-02  1.60385212927495100D-02
21 32 -1.00836778282294700D-01 -4.49329272184727300D-01  1.80985604237804900D-01  1.44717914172018700D-01  5.25604092047254800D-02
22  1  2.24830913131855500D-01  4.61880286598871500D-01  6.94959160279165800D-01 -2.87991770570785900D-02  1.48797483659913800D-01
22  2  1.09089691621481000D-01 -9.48386810945299800D-01 -1.37725107711161400D+00  2.53456265407482900D-02  2.10814225449794900D-01
22  3 -2.17205250009919900D-01  6.39102456012893200D-03  5.58116920821446600D-02 -6.52788526129456000D-02 -2.97684001222301400D-02
22  4  3.74385800334270900D-01  7.72559903033775600D-01 -3.28925226844245100D+00  1.04908280369132600D-01  2.71428908363251300D-02
22  5  5.66189080490946200D-02  9.00915993206343300D-02  2.20124439940955000D+00 -5.93742725564276900D-02 -9.71443131835096600D-03
22  6 -8.04360263161570700D-02  9.01504576345062600D-02  1.83713135932171700D-01  9.75960984978262700D-02 -1.03553254989403500D-01
22  7  6.64740665771691200D-02  1.59575387684744700D-01  1.21066259740134500D+00  2.78658025293038800D-01  2.48046391401814000D-02
22  8 -1.21627544344885500D-02  1.28240968106735700D+00  2.34311618754144700D+00  6.01052468944522600D-02  2.53336852825586300D-01
22  9 -1.32468243560059400D-01 -1.20868609265527600D-01 -2.31975386215306800D-01 -1.69664696172196400D-01 -1.13063388385742700D-01
22 10 -4.24045722595160800D-01 -9.15238929203717600D-01  1.08618480640403800D+00  1.16284685305872400D-01  2.16700066574467200D-01
22 11 -8.40687520212963400D-02  1.92004437135539600D+00  6.66028983651604700D-01 -1.73029035316144600D-01  5.00210428682052300D-02
22 12 -2.91289769154163400D-01  2.41268726285960200D-01  1.94511740522615400D-01 -6.13285352326307400D-02  2.32245030530584000D-02
22 13  1.54627188987431900D-01  3.86294356742292500D-01 -1.33701854855667700D+00  1.25578675966104900D-01 -1.96926027303489200D-03
22 14 -2.05401900276316500D-02  6.49858372135277600D-02 -2.65163704284276100D+00  8.86929711594077500D-04  3.44104953532939900D-02
22 15  7.85577449917013000D-02 -1.12968240344997000D-01  3.14023600089461600D-02  1.39339052664240900D-01 -4.41997769929563200D-02
22 16 -4.23948486738437400D-02 -6.26021391389188900D-02  1.80447338705820900D+00 -4.54751578007736200D-01  2.13401657257119800D-01
22 17 -9.83738285196782100D-06 -1.07223459825267000D+00 -1.94667054553400300D+00 -8.45405784426464000D-02  2.39847199932170000D-01
22 18 -1.98939375373216700D-02 -2.19953262394848400D-01 -4.22751085876629500D-01 -7.79906274843572300D-02 -1.58358748852027100D-01
22 19 -1.96116508086515900D-01 -4.84971283777698500D-01  9.84054719363834900D-01  2.54915422741436200D-01  1.06265997247928900D-01
22 20 -1.24820211986457600D-01  5.29925860107976600D-02 -6.57670222161841800D-02  2.21854532024112400D-01 -1.21586968348576100D-01
22 21 -2.98429813276727000D-01 -1.51873512729102700D-01  1.20417324056097600D-01 -2.97335739809906300D-02  8.01453597815712400D-02
22 22 -5.04117858005803600D-02 -1.59579355011393300D-01 -9.30743957448769600D-02 -1.26915407952786900D-02  1.31983693447698400D-01
22 23 -4.15369085638949100D-01  2.83385392191250800D-01  1.81882638750029900D-01  1.45994158255332800D-01  1.82433644756026000D-02
22 24  1.68876555900351400D-02  7.11156995853915600D-02  2.56135409157587700D-01  3.98163791794644400D-01 -8.39322128805543600D-02
22 25  5.65373043729524600D-02 -4.93546936027856700D-02 -4.21435381022842200D-02  4.66049083780411400D-01  1.42288715575168200D-01
22 26  2.64138618699970600D-01  1.03750753715839500D-02  1.26320592564721100D-02  1.90051859230491100D-02  1.19131223572959100D-01
22 27 -1.38136409496007000D-01  1.10958716899685900D-02 -3.40054212923283000D-02 -8.32859506268660400D-02 -4.70357498857479700D-02
22 28  2.44250411903823200D-01 -1.97214662018075000D-01  1.56766750632044400D-01  8.60987200240881400D-02  1.31343775349528300D-01
22 29 -3.07349810601253000D-01  4.85059760602308100D-02  7.75605036620751200D-02  1.32991448412320000D-02 -1.00757670016141600D-02
22 30 -3.03478615455462500D-01 -4.56760353480250300D-01  1.75240379046931800D-01 -3.91699825764343800D-01 -2.39834108446991800D-03
22 31 -2.05016116391376500D-01 -7.20507230582745800D-01 -1.32092764465497400D-01  1.55694799478051200D-01  1.01860449870772300D-01
22 32 -6.30570044609247500D-01 -2.33291440926240300D-01 -3.47432309874004600D-01  3.19713300903960300D-01  1.68344685180312300D-01
23  1  5.79002811884997300D-02  1.19117491014231300D-01  2.07092619789718900D-01  2.04749939957628500D-01 -5.92811039739018900D-02
23  2 -5.67863586814792600D-02 -2.24451835381579400D+00 -7.91913741229609900D-01  1.61512428219052700D-01  9.95162650168283800D-03
23  3 -3.80018207059546300D-02  2.80501942042736600D-02  2.52515370755543700D-01 -2.46901257194646000D-02 -1.77466387581114600D-02
23  4 -1.61573305873013200D-01 -3.40912233602916800D-01 -1.21382170012826500D-01 -3.90849747471897800D-01  6.26914774355291000D-03
23  5  1.26422822573464400D-02  4.37197145340380700D-01  1.69207058486710500D+00 -2.34433847669072200D-01 -2.91886553616777900D-01
23  6  1.41846715288845900D-01  1.50039838327932200D-01 -1.77715098665785400D-01  1.24954492956523700D-01  1.66394988437976100D-01
23  7 -3.50680896700368300D-01 -7.21267013492352900D-01  2.47947538008430500D+00  1.06276891224635200D-01 -2.52817090206689500D-01
23  8 -8.97916796873919600D-02  1.82218612046849900D-01  1.09937771160788600D+00  3.83124075267920600D-01 -2.03377668844806500D-01
23  9  4.51693222324145500D-01 -2.48315553479339800D-01 -2.54089396846876600D-01 -4.81616068064299900D-02  5.82283101875671500D-02
23 10  1.97669001806682900D-01  3.99258974573771200D-01  1.22087625886862800D-01 -2.73380662286929200D-02 -2.03648124660647900D-01
23 11 -4.28599687548637700D-02 -8.87213869999235800D-01  1.38722927872060400D+00 -1.75967993050204500D-01  2.60213145630505300D-01
23 12 -5.69176870880967000D-02 -2.03295458542409100D-01  3.45469798784552800D-01  1.51409242088197100D-02 -1.46037829738623200D-01
23 13  1.44314039127533500D-01  2.61682512885012200D-01 -2.36462730766192400D+00  1.19132175856241900D-01  1.73471433240524400D-01
23 14 -1.13369263211405900D-01 -4.70128237130465800D-01 -9.05133369878160400D-01  3.62540430036350100D-01 -1.33464745934834600D-01
23 15  1.17314888358325100D-02  1.21733257099001500D-01  1.35382547342806800D-01  5.57606159043794300D-02 -5.99660561063126500D-02
23 16  3.36296062923753900D-02  5.60990403830334300D-02 -6.65732908170994100D-01 -1.75639271462365100D-01 -2.88499828092621700D-02
23 17  4.31439677935915400D-02 -6.16799233297239300D-01 -1.22704283464852400D+00 -2.25119776309557800D-01  1.43038782349503400D-02
23 18  5.74548172338261500D-02 -7.17586954687754700D-02  2.40393001716703000D-02 -1.46619627200567000D-01  3.93133360023837200D-02
23 19 -7.86674520469543300D-02 -1.45061604018550400D-01  6.37129472009729600D-01  1.69263611178185300D-02 -6.52248704789004900D-02
23 20  4.40371035081865000D-02  1.32056497721596900D-01  3.28724162704251600D-01 -2.17156951196616600D-01 -1.80720671112675600D-01
23 21  1.12112398693033000D-01  5.76579375793081300D-02  3.57684268766349000D-02 -7.90674018947302400D-02 -3.01278721191336400D-02
23 22  1.09195274013864400D-01  5.28210111948938200D-02  3.35472581930940600D-02  1.37219420592777900D-01  1.18110428686818700D-01
23 23 -9.21498702351999700D-02 -2.59605584516188800D-02 -1.03157407084499200D-01 -1.07560742308147500D-02 -2.52540313999639300D-01
23 24 -1.16099310327498500D-01 -2.60350231262876700D-01  8.14276160598309700D-01  4.20437862171411300D-01 -3.63858410334157500D-02
23 25  1.46075807191588500D-03  7.39386274314401700D-02  4.88079726772092400D-01 -3.12353265695623300D-02 -1.38914111083638900D-01
23 26  2.37679646634248200D-01  1.49355319327789200D-01  5.01938770518950700D-02  1.19493629306923200D-01  3.50210574599165100D-02
23 27 -1.54514686766839500D-01  2.87084189003537900D-02 -3.04041265196410600D-02 -1.16862950724064900D-01  3.84546487936255300D-02
23 28 -3.67931144509865100D-01  3.29476495716240000D-01  3.22022491985488500D-01  1.97790831170347700D-02  1.92680103313237500D-02
23 29  2.71671084399304300D-01 -7.73402505760923400D-01 -1.90627104827083500D-01 -8.43457751762509700D-02 -6.95593959515634400D-02
23 30  1.14032382016708600D-01 -6.09321184852173900D-01  9.88183335881504800D-02  8.26594658260868100D-02 -1.09181677547675300D-01
23 31  2.09313931230311200D-01 -3.47447643582127000D-01 -3.97299656850148400D-02  2.32467528594882200D-01 -1.32582725828290500D-01
23 32 -2.49576781660256300D-01  4.98153181890391600D-01  3.24530994390806900D-02 -4.45983876861872400D-02 -5.10827200718277200D-02
24  1 -4.72124324907511300D-03 -1.72605437978144500D-02  1.67507853911663400D+00  3.49176042873858700D-03  2.29563485193723500D-01
24  2  1.28730500376463300D-02  2.18876389088368900D+00 -1.02554308844649000D+00 -9.41170924060913100D-02  4.52838987783810800D-02
24  3  2.00926100603215500D-01 -2.46209999381597100D-01  1.65012482267744300D-01 -1.04120539156013500D-01 -1.11983960945384700D-01
24  4  2.85029920905621300D-02  3.63322134575443000D-02 -8.84959752022608900D-01  2.48760581154734000D-01  1.53373026519826200D-02
24  5  2.39112380101439900D-02  4.89379454112089900D-01 -1.09564526168239200D+00 -3.20950496368579400D-03 -1.53170324005219700D-02
24  6  3.08297307937995600D-02 -1.55126983932775400D-02  1.22840844716882700D-02  1.42015853366743500D-02  1.14744925480296300D-02
24  7  1.41822024105229200D-01  3.52015870046571100D-01 -4.01458824455664300D-01 -4.76749035132285100D-01  2.92895440834556800D-02
24  8  5.03467365959666700D-02  7.76103960167449200D-01 -1.35246673533167100D+00  5.08423030547148700D-03 -7.42961351335223000D-02
24  9  1.16483441074456000D-01 -4.21873059409332200D-02  1.56927538045729900D-01 -6.38369380311121200D-02 -2.16952297787757700D-02
24 10 -1.10839845008237700D-02 -8.30227346636214900D-02  1.07707700208028200D+00 -7.91122481378284800D-02 -2.14832789059286300D-01
24 11  1.14745918570077900D-01 -7.79629099559546600D-01 -1.97922134035852600D-01 -4.21499149374684100D-02 -4.05692802929352600D-01
24 12  4.34886225437079100D-01 -2.91934225077273800D-02 -1.94598879328233500D-01 -2.00030891605545000D-03 -2.64051927288140300D-01
24 13  2.96871289556360600D-02  5.30455895989565200D-02  2.51795404653995400D-03  1.38901112961004700D-01 -1.79453914745727000D-01
24 14  3.44572170551800300D-03  7.99109345419144300D-05  1.17267409115560600D+00  1.96676532539657800D-01 -1.56203586763685400D-01
24 15  2.54519366936202300D-01 -9.83157801725163800D-02 -6.25323826248309300D-02  4.28960038720626700D-02  5.21593023096750200D-03
24 16 -7.29830388719327300D-02 -1.39572726055446700D-01 -2.07380691082299000D-01 -1.62296623060142400D-01 -1.79057676764704100D-01
24 17  6.39569086326461900D-02  6.23214795940212100D-03  1.63082271913310300D+00 -2.85234747745014000D-01 -2.10446993705631900D-01
24 18  1.80968897272364700D-01  2.94780964332671800D-02  3.57525207443100100D-02 -5.56715917150642000D-02 -6.34689588969426000D-02
24 19  6.92990052236117900D-02  1.53751132116481800D-01 -2.14640826160918700D-01 -1.50172753510800700D-01 -1.17569103247526900D-02
24 20 -1.81085772194595600D-01  1.37347408207545900D-01 -3.88613315822785000D-01  7.01481120758580000D-01 -1.70784052416832800D-01
24 21 -6.67115661436986900D-02 -4.70527612486585300D-02  2.62061096818904700D-01 -5.67084810313754600D-03  2.47315348474678300D-02
24 22 -1.90606867443302300D-02 -1.34606627984995000D-01 -2.93727876629560200D-02 -3.43935135397297700D-02  1.32869958246317100D-01
24 23 -3.24921261300157400D-01  1.92051303053840900D-01  4.47411749322881600D-01  1.03838725481352600D-01 -2.01414171661650700D-01
24 24 -4.35129926391106800D-02 -1.05649873891653000D-01 -3.12178205095603700D-01 -5.56613568425891400D-01  1.91726794373975200D-01
24 25 -1.18009748798824800D-01  1.06543362158394800D-02 -3.33310185871486800D-01 -4.44049056031379100D-01 -1.83453337003147800D-01
24 26  2.66581345057545200D-01  1.32979912010753000D-01  7.99281101700771700D-02  2.48415632136045900D-01 -1.00424740232796300D-01
24 27 -1.47990891903249900D-01  1.41087344149997400D-01 -2.58949026959292500D-02 -1.62479415701513900D-01 -1.31249120625043100D-01
24 28 -8.97049398125119700D-02  2.20954060437555100D-01 -4.13804917841459200D-02  5.65744579540330200D-02 -1.66938068702360200D-01
24 29  2.75509447690153700D-01 -3.00342663595250700D-01  4.50488292023555500D-02  4.63362596888000000D-02 -7.15849849231008400D-02
24 30 -2.53554026659344200D-01 -5.25672917824432200D-01  4.71804563735028600D-02  6.19825547712527900D-02 -4.71367470511742500D-02
24 31  4.99234666415436200D-03  9.49747417344238200D-01  5.53677909815441300D-02  1.93947432250727200D-01 -1.34770439803986700D-01
24 32 -5.13117721516765500D-02 -3.71844130128213500D-01 -5.57941084269076400D-02 -1.69262401435244000D-02  1.47198020784905500D-01
25  1 -2.62303964170143000D-01 -5.25326445637893500D-01  9.98311495878188100D-01 -2.36700043876812700D-01  2.40134902816542800D-02
25  2 -8.35434867447657500D-02 -1.55461854493133500D+00 -9.48544334712358300D-01  8.54428407968467500D-02 -1.34498757432734500D-02
25  3 -4.99853844515033600D-02  6.34352601947772300D-02 -1.91373511942336600D-01  1.22572893845785500D-01 -1.53698836147580500D-01
25  4 -1.41654915927324500D-01 -2.40684621654507900D-01  3.61197029673878900D-01  5.80968102038238800D-02 -1.32355791412669100D-01
25  5  8.32194847626154900D-02 -7.80324156229514200D-01  5.61915429199161800D-01 -2.45856422377450000D-01  1.33651669435170000D-02
25  6  2.80747260968710000D-01 -2.94112427912227000D-01 -6.71381802650673600D-02  2.25521162213702400D-02 -1.14026789293697800D-01
25  7 -3.47145280160215600D-02 -1.10951089269355600D-01 -6.20385351353231600D-02 -1.60105731148392200D-01 -2.72450324312660500D-01
25  8 -3.75883912046037600D-02  1.08976666012196700D+00  7.30985299082489100D-01  5.79806778128608000D-02 -4.33730148336289600D-02
25  9 -1.51648011810848200D-01  1.95021026644476200D-01  1.47113823664700300D-02 -2.01904235604073700D-02  5.08794125916687500D-02
25 10 -1.86240156614702800D-01 -3.41650171339702200D-01  1.04152327412119000D+00  1.81921969256672500D-01  3.08931434206048500D-01
25 11  6.48046244681506300D-03  1.09948998333966800D-01  2.02558729799126000D-01 -1.60617371028142900D-01  2.39846443638488200D-02
25 12  1.65593418890273800D-01 -1.89578063254122900D-01 -2.35048372888050200D-01  3.21203333630054400D-02  1.81466131038902200D-01
25 13  1.06761684784056900D-01  1.13756353946791000D-01 -4.09836998399545800D-01  4.78764655859762900D-02 -1.97308171007024400D-02
25 14  3.27817557282962600D-02  1.41423396901905300D-01  6.00309123306077200D-02  1.97051395662286900D-02 -1.26854680046064800D-01
25 15 -1.52167805206865400D-01  2.79022485252930800D-01 -1.06191502891966000D-01 -8.33738772521991500D-03  7.15019231326463800D-02
25 16  3.94169703749604100D-01  8.49991029383885300D-01 -2.05642553973691800D+00 -6.70789818826399700D-02 -3.65737804995058800D-01
25 17  3.78522109382947500D-02 -1.59245316958310000D+00  1.70559190522638500D-01 -8.19665474384887600D-02  2.53410084188626600D-01
25 18 -2.31762334158913400D-01 -2.16477500297135000D-02 -3.46907628653179300D-01  8.01122534575897800D-02  5.56405158152806600D-02
25 19 -4.88659874609435000D-03 -3.59559196437289100D-03  2.03314656208025800D-01  2.96394661551752600D-01  9.92244489795229800D-02
25 20 -6.78649273399052600D-02 -1.01221465000172000D-01  2.15033647294060900D-01 -1.20825346833060600D-01  2.16501933749080500D-01
25 21  1.41779581909045200D-01  4.16044586759226300D-02 -4.79707379318439100D-02  7.56196058611926900D-02 -7.42018872313307000D-02
25 22 -1.41771862986158800D-03 -1.18974664842200400D-01  1.77776803790087000D-02  6.31762104414219800D-02 -8.00111830667216100D-02
25 23  2.06630995795944300D-01 -1.26619812729222500D-01 -1.41172365023496900D-01 -1.19359294534760100D-01 -9.34734177237102300D-02
25 24 -1.79032149277003000D-01 -3.87960157310023900D-01  3.88837011672702900D-01  2.51691040853442500D-01 -1.40327857338623100D-01
25 25  6.37579988184119700D-02 -9.55779484449356500D-02  1.25417183277891800D-01  1.11836088347529000D-01  2.44812777138694800D-01
25 26  9.93623144833027800D-02  2.68348950723167900D-01  1.16605512984958100D-02  1.65140023631409000D-01  8.93130487464383800D-02
25 27 -2.54453072377847500D-01 -7.31990467726285300D-02  7.89417779235674400D-02 -3.66633659079216200D-02 -2.78148247797378300D-01
25 28  2.11835438355468300D-01  6.63128094419096900D-02 -5.25121314620444000D-02 -1.25228149682234800D-01  8.03178172422753100D-02
25 29 -1.55164985806550900D-01  2.98553876984509900D-01 -2.30754985614914100D-01 -7.87623654352163400D-03  1.21685056878299500D-01
25 30  3.08860050740970300D-01 -7.55805544173540000D-01 -1.43473643761085800D-02 -1.21666031561930900D-01  1.23770558222649700D-01
25 31  1.58600433510491300D-01  2.53787462521402600D-01  3.28716156932813700D-02  3.16302379132276100D-02  3.70166269354555900D-02
25 32 -5.61291869263191700D-01 -2.85949902228149100D-01 -1.15837036482236000D-01  3.17192400211091500D-01 -1.60769541273317100D-02
26  1 -2.77030858110582400D-02  7.76309717593574700D-02  7.23393981663443400D-01 -1.18514844447409200D-01 -4.37603866326143300D-02
26  2 -4.84517822746863700D-02  2.21053054080672600D+00 -3.90032978996311600D-01  2.69018769877984800D-01  1.53804775977470800D-01
26  3  1.63740482092950900D-02 -1.70178824186766600D-01  1.31500320423902000D-01  2.18997662947165000D-02  1.75036609367287500D-01
26  4 -7.91775517869827300D-02 -2.25213485589625600D-01 -3.44829070115793500D-01 -1.22800009104984300D-01 -1.10280099144261000D-01
26  5 -1.11222427957032000D-01  1.30448847085090400D+00 -1.42466139688478300D+00  2.44667874661178800D-01 -1.00516340083632000D-01
26  6  1.45438095562112300D-02  8.59725305274211100D-02 -2.27852590660102900D-02 -8.59919492502111100D-03 -9.08899836780531800D-02
26  7 -6.43286403601873200D-02 -4.75696307042436700D-02  1.49319341904127500D+00  1.52968827607766500D-01 -1.47837123087279100D-01
26  8 -5.90564054643326000D-02 -8.80417622353685100D-01 -1.89269435820591500D+00 -1.55118892807835800D-01  1.25723621433205100D-01
26  9 -4.37729049657657500D-03 -1.21346330936627800D-01 -1.00313524124375200D-01  7.09738359941069200D-02 -2.17704952077524100D-01
26 10 -2.82665989753480500D-01 -5.59221843883500800D-01  1.06233716043422600D-01 -7.00405452430213100D-02  1.29230484409512800D-01
26 11 -4.20348827744787500D-02 -2.33530562191156900D+00 -4.98810046883055100D-01  4.61613052890109600D-01 -1.20587701109928900D-01
26 12  1.20172418551295300D-01  4.15282558632504600D-04 -1.01070369314182500D-01 -1.23123817018673700D-01 -1.31790794658592500D-01
26 13  3.96112808495704600D-02  3.28802573398160700D-02 -7.44506961928984600D-01  7.07337571922941200D-02 -7.97823719661666200D-02
26 14 -8.24527522142814300D-03 -4.03427993241830900D-01  2.57477411650874900D+00 -6.61224247749762100D-02 -1.71938889768739000D-01
26 15 -1.05043573723332100D-01  2.76982463492071700D-01 -3.52462823991603900D-01 -2.08854889608423500D-01  1.15659241315142300D-01
26 16  6.10925536518731200D-02  6.92333363831334500D-02 -1.04712419985147800D+00  9.45168986692209900D-02 -1.36988826346102900D-01
26 17 -6.11356553580744200D-02  3.48164060248600400D-01  1.20404919293721600D+00  2.49852356745736200D-02  1.94374057642842900D-02
26 18 -4.30696825539748300D-02  2.36322767896910000D-02 -4.11081197348463600D-01 -3.35657718754417200D-02  1.49394502062819400D-01
26 19 -1.09909881967683800D-01 -2.60872953182816100D-01  2.78075243578740700D-01  2.77822253973227200D-01  1.00945114908200600D-02
26 20  2.99499034452388600D-02 -2.90325140168154700D-02 -4.12999917577745000D-01 -6.89829218545236500D-02 -9.95542484119440300D-02
26 21 -1.07250333411344300D-01 -1.84001769364879900D-01 -1.11349181966832400D-01  1.07246336909298200D-01 -3.60224978500242400D-01
26 22  2.52978641590943900D-01 -1.59336892901654300D-01  5.93185220832294200D-02  1.56586640688183900D-01 -1.39036445404979400D-01
26 23  3.11744057765512800D-01 -1.72707612360532400D-01  4.77694351879685000D-01 -4.70893901214705200D-02  2.31012134846048900D-01
26 24  4.13457662754588700D-02  1.03338541885449200D-01 -4.12755640039998600D-01  2.34548011426452000D-01 -6.18351658663752700D-02
26 25 -2.22272758514509800D-01  7.10021274788441400D-02  2.27319305144353600D-01  5.75510595141897600D-01 -1.97280418173720800D-01
26 26 -1.17411163140493400D-01 -3.07034291748644400D-01 -2.26251955441689900D-01  7.72704093474923100D-02 -7.94594046984132000D-02
26 27  2.18899535092105800D-03  2.53592802019345200D-01  3.54499764082788600D-03 -1.05937522494116700D-02 -1.32074633605434800D-01
26 28  2.53180044365363300D-01 -1.21105410759928700D-01 -1.52660720963301100D-01  1.23128282815298600D-01 -1.00815293548689100D-01
26 29  2.44061874650340500D-01 -3.00268133208447200D-01 -1.40729838965319500D-01 -7.90174473020961900D-02  1.07289119745418200D-03
26 30 -3.72048202000877100D-01 -6.76777536315536800D-01  4.14262685958582600D-01 -6.78582891322266300D-02 -2.80972106356302800D-02
26 31  6.67845782568524400D-01  4.17411291860458300D-01  4.79000443034109800D-01 -5.02879529667825300D-02 -3.34803588535921600D-02
26 32  2.88420716245628100D-02 -1.52949809503374700D-02 -7.43990503318702100D-02  1.95368569313928000D-02 -1.07101444123923500D-01
27  1 -2.59030311494628800D-01 -4.44438693341581300D-01  9.01233133802755900D-01  1.24658074547109600D-01 -5.89845396047434500D-02
27  2 -4.10790309562466300D-02 -2.76998004973258800D-01 -1.35664335438163900D+00  2.82213817072824600D-01  1.52155735035221500D-01
27  3  1.19641578008452600D-01 -2.71797313043671600D-01 -9.02152604166935700D-02  5.25617214253923700D-02 -8.32027784597730300D-02
27  4  1.17708229137026500D-01  1.64708238739229100D-01 -2.54446888892193600D+00 -8.72745006436456100D-02  7.72204202946378000D-02
27  5  7.30216475131553500D-02  8.49640195490280000D-01  1.11352699099090700D+00 -2.57219515476446400D-01 -9.46194601186120100D-02
27  6 -2.47638873934861800D-01  3.42258334053472300D-01 -2.70119393912833200D-01  1.07895832384975500D-01 -5.04441215937559300D-02
27  7  9.87315547111364400D-02  1.79909349397919900D-01 -4.57370607922652200D-01 -3.04885599017861200D-02  2.59140319433945000D-01
27  8 -7.15133006180404900D-03  7.11504428526988600D-01  1.60548718105509700D+00  8.25160094830633100D-02 -2.69099379613584300D-01
27  9  2.17211207158091300D-01  5.18881724554932200D-02 -2.83336697267108000D-01  5.17445656657786700D-02 -7.03582232925111900D-02
27 10  4.90739365863700600D-02  1.89292766230437600D-01 -7.20012126193022500D-03 -6.88002483000273400D-03 -1.06144104120963200D-01
27 11 -5.35319841321166300D-02  2.00521387356943400D+00  1.93455932688929800D+00  2.25189836881106100D-01  2.84780495512411900D-02
27 12  5.12270701590892300D-02 -7.97051197103296300D-02 -9.51199824945227900D-02 -1.24311053988512900D-01  9.61417904136183100D-02
27 13  3.84167636378785100D-02  1.28558820246533900D-02 -5.79456774335057200D-01  1.45739028140854800D-01  4.08985256901950900D-01
27 14 -5.10527737225527900D-02 -4.24330217955302800D-01 -2.51413305876181100D+00 -1.65777160044687300D-01 -1.97995626897069600D-01
27 15  8.57842745525278100D-02  1.12211352344539900D-01  7.79557797516349500D-02  1.04533816918056000D-02  6.79213247090059600D-02
27 16 -8.56189148206119000D-02 -2.20780665355211600D-01  1.18855779858609400D+00  9.21244666382793500D-02 -2.35879646575785900D-01
27 17 -2.20362078985680000D-02 -4.80233580024816500D-01 -7.85545127836813000D-01 -1.45092315812933800D-02  6.61700714170641300D-02
27 18 -3.00589445214424700D-01  2.34419373797360700D-01  2.53847610578944500D-01 -6.16166558169394500D-02  1.38819365279990600D-02
27 19 -1.66144142492726900D-01 -3.44164601037597600D-01  7.57434069860078600D-01  6.75301581850689900D-01  1.02245707354201900D-01
27 20  2.73322184031437100D-01  3.61016097298187100D-02 -5.94734256964643400D-02 -6.80059409439955900D-01 -8.21143173278283700D-02
27 21 -6.35334345717995400D-02 -3.80746576879446800D-02 -1.23073767999695000D-02  3.74206251743425700D-02  6.89784388859432600D-03
27 22 -4.43184690629362000D-02 -1.07035292609395800D-01 -4.37256073743564300D-02 -1.48889360783912900D-01 -2.29713122143392700D-01
27 23  1.00700902976051500D-01  1.29012219167341500D-01  7.96906920448685100D-02  1.07707291638842000D-02  9.87430846828363800D-02
27 24 -1.14461489666264900D-01 -2.34054919137380700D-01  9.70712427567366200D-01  6.55993329544388400D-01 -1.48407627012234700D-01
27 25 -1.03975359639658600D-01  4.42271407627399200D-02 -5.12010439667188200D-02  2.68930451490843500D-01 -1.17234835315068000D-01
27 26  1.37100830092026000D-02  1.98468291579138900D-01  8.71904283176788400D-02  2.90530588229441900D-01 -2.50268186671742100D-01
27 27 -4.02624015576996500D-02  8.85452602395368400D-02 -1.38161271569177500D-01  2.34835723651964200D-01 -2.77589935654951000D-01
27 28  1.04987947002966500D-01  1.72601988651984600D-01 -1.68299269952476300D-01  1.93931921241848200D-01 -2.09617469859197600D-01
27 29  4.11276538961024900D-01 -6.86610290323962500D-01 -1.79315444022247000D-01 -3.92094785816974500D-02  4.84567684433015100D-02
27 30  6.14812450032842800D-02  1.96634349877575500D-01  5.69593649600372400D-02 -5.56096855551495600D-02 -2.00415809087068000D-01
27 31 -2.99997628361159900D-01 -3.15300662539900600D-01  6.95537303027395800D-02  1.69941322404217200D-01  2.57295047317515200D-01
27 32  5.55606962972942500D-01 -6.02112174214972700D-01  2.49999213395005800D-01  5.25450848271482000D-02 -2.22350188424345000D-02
28  1  9.56721979826046400D-02  1.82513414503060400D-01  6.67525224999123100D-01  1.17428658781061100D-02  1.75496506673546700D-01
28  2  1.57783114522051700D-01  6.29359477662956900D-01  5.50647438871104900D-03 -1.86272799059074000D-01 -9.52614076624110600D-03
28  3  9.16499117105455700D-02 -8.21237709443045400D-02  2.53842116770649200D-01  9.12609889274565600D-02 -3.75731524564949100D-02
28  4  7.09795824386509300D-02  1.64713821973331300D-01 -3.74294047081277700D-01 -4.14140022317406400D-01 -1.54034117136531800D-01
28  5  7.60717468641291500D-02  1.17917676587486100D-01 -8.40362904701745400D-01 -1.85765073849359900D-01 -3.06452837586400600D-01
28  6  2.13419749515980300D-01  9.30330880704201300D-02  2.42675745021125800D-02 -2.25500877516798600D-02 -1.68756673407923400D-01
28  7 -1.85436236672189100D-02 -1.05162390720714300D-01 -2.40287960094669400D+00 -1.05914971826145300D-01  5.72437951338571500D-02
28  8  6.14805401122322300D-02  4.66105556926475200D-02  2.61685852133186000D-01  1.07517086837668800D-02  1.85457300543044900D-01
28  9 -2.21660338711765300D-01  3.62030381687204400D-02  3.08042403648574700D-01 -3.37034844861240900D-02 -4.56457584029374800D-02
28 10 -2.02076147359788700D-01 -3.46888079158523100D-01  8.78148493364673000D-01 -1.16730036735876700D-01  3.02945793732127100D-02
28 11  8.15088057285220500D-02  2.43804169042027900D+00 -5.29188752736764700D-01 -5.60693713323469500D-02  7.53344005627688300D-02
28 12  1.32267610503404100D-01 -2.07602011066172200D-01 -4.96343317064840600D-01 -1.63588164601065000D-03 -4.39843535365682400D-02
28 13 -9.25122508591355900D-02 -2.29083609888327600D-01  1.75063400478291500D+00 -1.11698634965194500D-01  1.82411151123016700D-02
28 14  1.03963465397770000D-01  4.59250128222529100D-01 -5.87599321585042700D-02 -4.54742910825649300D-02 -2.38380326530182100D-01
28 15  2.90500979070315900D-02  2.09330228623150700D-01  3.65538160584945700D-03  9.36991224988567200D-02  7.58760687788806600D-02
28 16 -1.14369254306330900D-01 -2.49771919971519400D-01  2.82448843648729700D-01 -1.72806179770232500D-01 -3.68320860653324500D-02
28 17  1.32126924791289900D-01 -1.04839996235819800D-01  2.60808126772473800D-01 -9.15299203307504800D-02  2.03127564761956600D-01
28 18 -1.74133012090732600D-01 -2.89945526712247300D-02  2.75438111983701100D-02 -8.87897818005858700D-02  4.22986955751208900D-02
28 19  6.63263711631124900D-02  1.48189052893555300D-01 -3.21412604671563700D-01 -2.47172613965274800D-01  6.34705963006586100D-02
28 20 -2.13144906388819700D-02  9.36220598923443300D-02 -1.91246188617102200D-01  2.59106811295420600D-01 -1.34028095144069200D-01
28 21 -2.33173122590027200D-01  1.49571206338528400D-01  2.14418013928744200D-01  1.78705372238987600D-01 -9.73021798126374600D-02
28 22 -8.14031924263500200D-02 -1.24794095096876700D-01  9.31474432176136000D-02 -1.24104384992657500D-01  1.30544145543416100D-01
28 23 -1.51342424245593500D-01  2.07982787021777200D-02  3.79297849817351500D-01 -1.47457003498277400D-01 -8.01988917618032300D-02
28 24 -4.52201174019087800D-03 -3.42987143085468100D-02 -4.14152081284917900D-01 -2.80264876625030400D-01  2.00894783775235700D-01
28 25 -1.45881650827437200D-01  1.56040302014372400D-02 -1.06597444998011900D+00  7.77066171963380400D-03 -1.40545325941387400D-01
28 26 -1.23664103389214600D-01 -2.02578548409930700D-01  2.47375322271279200D-01 -1.19702965006600600D-01  1.12784329029792200D-01
28 27  6.91863597680831100D-03  1.61454161156741400D-01  5.33309785546304600D-02  1.48301933719467600D-01  1.27569262495158100D-01
28 28  8.79610626409501500D-02 -2.15530325136108100D-01 -7.19527895989605200D-01 -5.44987718107258400D-02 -2.23417786771367100D-01
28 29  2.20059719132823000D-01  5.94561764569981600D-01 -1.64479862432294300D-01 -2.06641883447262700D-01  2.45225353535167800D-01
28 30  4.13823420329882000D-01  1.89203705259640300D-01 -3.12656192390233200D-01  1.41167157783599600D-01 -1.55175027261706900D-01
28 31  3.01693465299056100D-01 -3.05573349315927000D-01  2.04835167769371500D-02 -1.32061911715302300D-01 -6.06341541577449000D-02
28 32 -8.13756435592539600D-02 -2.15985983769043800D-01  3.18234919553216300D-02  1.22734435295464300D-01 -1.66089847588791400D-01
29  1 -9.62438753025035900D-03  7.04279803290384900D-02  1.76629553005032600D+00  8.47983381657179000D-02 -6.29810315730481400D-03
29  2  3.42104558871889200D-02 -3.87627138638082000D+00 -8.23026496210820600D-01  1.68847373427964100D-01  6.56676454967029100D-02
29  3  1.69922687101817300D-01 -2.35590332598520200D-01  1.53267656970788800D-01 -2.12331998668795900D-02  1.23262578577159800D-01
29  4 -1.50661080494312800D-02 -1.27703588595378300D-02  2.50577666543303700D+00  1.11384373762931900D-01  1.00859897724089100D-01
29  5  1.46999342976365700D-02  2.98492397338349300D-01  1.12845524585456100D+00 -1.77146396053207000D-01 -1.74715253094547900D-01
29  6  8.07799077983698500D-02  9.39353452961795600D-02 -1.10967832776085600D-01 -1.49944817833884400D-01 -1.27382653321824200D-02
29  7  1.08825499063437700D-01  2.60213237865020600D-01 -8.77983038623230900D-01 -1.43367807127424200D-01  1.94192783701638000D-02
29  8 -5.82529402806462500D-02  4.45221384228396400D-01 -3.21152940355729900D-01  1.45077775173410600D-01  2.25829655246853700D-02
29  9 -3.38976488004864400D-03 -1.91932006446385800D-02 -2.23257140745250000D-01  3.13224340458511000D-02  2.24511732382109700D-02
29 10 -2.35149846855557500D-01 -5.28422947032194100D-01  1.48776719879370000D+00  1.78368245389275900D-02  6.15394258334517300D-02
29 11  9.13370548656919100D-02  5.99966345815712800D-01  6.80134754518827900D-01 -1.55991180122148800D-02 -9.72867912062664500D-03
29 12  4.00026081445727000D-02 -3.02739290239457400D-02 -2.85515570607616700D-01  3.08587260621976800D-02 -6.15709290486490000D-02
29 13 -1.28932045418667700D-02  1.97965366166363200D-03 -2.63603832047601200D-01 -1.35451287345467900D-01 -1.65678311438254000D-01
29 14 -3.20217952573104500D-02 -5.92835728413028000D-01  1.26023232511537700D-01  2.25532688209917700D-02 -9.36618890561244500D-02
29 15  1.37629819164468300D-01 -4.39679301083417200D-02 -1.95903174571466100D-02  6.88690348385449000D-02 -2.49334642851994300D-03
29 16  1.49228994906008200D-01  2.33681046179269300D-01 -3.58477579001578800D+00 -5.66224874721363600D-02  1.45582561778821700D-01
29 17  8.37613391428239500D-02 -1.44318155163387200D+00 -1.71434176748195500D+00 -8.55831207342807500D-02 -8.78919920387004100D-02
29 18  1.51042704324059600D-01 -6.31507122853599100D-02 -3.28155512918090500D-01 -5.07684660475051500D-02 -2.48621897566693100D-02
29 19  7.99994266069762800D-03  1.63797721554248900D-02 -1.33507036000547900D-01  3.69980460275298700D-01 -6.88937193485983400D-02
29 20  7.95130187072466500D-02 -3.46412471756911800D-02  6.31060497771001500D-01  1.34589085680297600D-01 -4.24050883655867100D-02
29 21  2.76754349877346800D-01 -2.54384981676887300D-01 -6.62582138125408600D-02 -1.10799640271790500D-01 -7.40529656895548000D-03
29 22  1.18204936840747100D-01  4.18370116165471000D-01  4.10492639768770500D-02 -2.22635783131659700D-02  7.44073623700249500D-02
29 23  1.81091683017859800D-02 -9.25165306718109700D-02 -5.19321799450050300D-01 -5.35622339421415800D-03  1.48834589019395900D-01
29 24  4.13551588362267000D-02  1.47103517126141600D-01  3.02377307437903700D-02 -3.14939894945820300D-02  1.06873960157945600D-02
29 25  7.99422826450586500D-02 -4.57562243884237500D-02 -2.91430026394733100D-01 -6.09424300519138100D-02  6.43663810386660100D-03
29 26 -2.59063884093104500D-01  1.81109957938970200D-01 -1.64902139720560100D-02  2.08213294554236500D-01 -6.99685801734280300D-03
29 27 -2.01216436536893900D-01 -2.91758459771710300D-01  6.58123349049582100D-02  6.63179927026516000D-02 -1.36289851573150000D-01
29 28  8.01364650034893400D-02  5.61533865696608300D-02 -2.77354834549792000D-01 -7.70275604564598800D-02 -2.20814576529082900D-01
29 29 -2.66688654252999700D-01 -9.24275112704628500D-01  2.69872922090577300D-01 -9.59978399420517700D-03  2.11645243110692000D-01
29 30 -1.58662518209224600D-01 -6.29703135930727700D-02  1.23718581378803600D-01  1.88354369982538600D-01  1.43772339718513600D-02
29 31 -1.66938855716739300D-01 -5.55386612969002400D-01 -1.75947476215554800D-01 -3.67661104248177700D-01  1.03208415701083000D-01
29 32  1.11428174628723400D-01  1.95630682011787000D-02 -1.62640570742133500D-01  9.84307334847803200D-02 -9.93452362656272000D-02
30  1  1.16560022464026000D-01  2.89624395640535000D-01 -7.04128215314953500D-01 -4.02841294531140800D-02  1.06353025840278800D-01
30  2  1.56781727077675200D-01  9.49215204864357400D-01 -7.18891436781214600D-01 -1.48415522630966000D-01 -8.27268313044387100D-02
30  3  1.04832296390313600D-01 -2.21054650858760500D-02  1.93410064386267500D-01 -1.06567305611094900D-02  9.03402341114200900D-02
30  4 -8.99601322334899600D-02 -2.62693100562940700D-01  5.01082897412728200D-01 -2.30312220524145400D-01 -9.31170207262404800D-02
30  5 -3.63698105040437700D-02 -2.44213730146454100D-01 -9.60454560326287100D-01  1.01609803256468400D-01 -3.83029906558161700D-02
30  6 -2.31917353538673400D-02  6.14947260096837500D-02 -3.78782968951214300D-02 -3.36028104692358000D-02 -5.70587145727338300D-02
30  7  1.89017868344589600D-01  4.27136616753984600D-01 -1.41185905365119100D+00 -2.37754444750036200D-01  8.09945617301444900D-02
30  8  1.43792805429231300D-01  1.17319267018302000D+00 -1.22729097407430500D+00 -1.78826430067574000D-01 -3.99537244315036200D-03
30  9  5.55296592446566600D-03 -1.55759348131482600D-03  7.78470931931298200D-02  6.71503142703410900D-02  3.73744546939673800D-02
30 10 -1.07130108207150900D-01 -2.31697863150040400D-01 -7.95865346565576900D-01 -3.33512097800607900D-02 -6.33955140133566500D-02
30 11  3.95051526900747500D-03  2.02986096114487700D-01  9.68564353549346000D-01  5.27172839699350100D-02  1.34968245510860500D-01
30 12 -1.47833364081777400D-01  1.28651185709166900D-02  7.88221165038561800D-02  7.93099388125018400D-02 -8.39911953880666800D-02
30 13 -2.47434513497227800D-01 -5.28956049767302000D-01  1.30200284458451800D+00 -4.61412574235645900D-02  2.42664777112326300D-02
30 14  7.48679958136049700D-02  8.43019759111908300D-01  1.87454136327972100D-01 -1.26654193863155200D-01  1.75068334897751000D-01
30 15 -1.64919023851540900D-01 -1.01493110462092200D-02  8.62544940384568400D-02  1.32448724461601700D-01 -8.87944308250860100D-03
30 16  2.00946711074549100D-01  4.61471012733437500D-01 -4.25434326319759200D-01 -4.64107111363002800D-02 -1.67760109141120000D-02
30 17 -4.14703576099651500D-02 -6.49364538452804500D-01  1.18696712582853100D+00  1.40393206831870100D-01 -1.59892948708260600D-01
30 18  2.16423528699098300D-01 -5.65305799908382900D-02  6.16543154511755300D-02 -3.76277824932550700D-02 -4.03915646038716900D-02
30 19 -8.71642790819430500D-02 -2.09818249106426800D-01  4.25266909064850400D-01  6.00182160327619800D-01  1.91208884728921800D-01
30 20  2.02625638173512700D-01 -2.02125680248562900D-02 -6.76174669024757600D-01 -2.51847858401668100D-01 -2.52397766351744300D-03
30 21  4.60699119185103500D-01 -1.86758314847663100D-01 -1.89995575182042300D-02  5.52424982907915200D-03  7.82689994677361500D-02
30 22 -8.37932492968156400D-02  2.07007573695998800D-01 -4.47894075015400500D-02  1.15593378426197500D-02 -2.85611289973526700D-03
30 23 -6.57246449348282500D-03  9.42857739321736500D-03 -1.20703983259334100D-01  2.62932842528722200D-02  9.82902643255859400D-02
30 24  1.32291441675942000D-02  6.86080460976382500D-02  5.05671543126488300D-01  5.91283359453255400D-01  4.09690015169047000D-02
30 25 -5.27028581038496100D-02 -5.58371288362129400D-02  8.44765073993608800D-02  4.17160599199150400D-01  3.86590412195072600D-02
30 26 -9.73442102834862800D-02  1.60623820292169200D-01 -2.08908453759415300D-02  9.19550543939906000D-03  4.39665547586807200D-02
30 27 -5.31620601980797900D-02  3.00986093914212200D-01 -3.85221755201133400D-03 -1.75473805973180800D-01 -5.42766458422180400D-02
30 28  1.75943218586947200D-01 -1.21666572744729200D-01 -1.42942325556162500D-01 -7.38644184755521500D-02  6.60927917268140400D-02
30 29  1.81715738465859600D-01  3.73883837051669900D-01 -3.52899375173800300D-02 -2.85053905400354800D-01  9.54566588931009700D-02
30 30  1.36252800414740400D-01 -1.16870050978687700D+00  7.87822186371113900D-02  3.70451545420120400D-02 -1.36642478291429600D-01
30 31 -1.89115873548199400D-01  5.94489192642832300D-01 -1.37508307948576400D-02  2.49801198625871400D-01  1.65500543084410700D-02
30 32 -9.90427322371738200D-02 -5.57923933517182800D-01 -1.06243797477968400D-01 -1.50997817637756100D-01  3.16857165895936300D-02
31  1  2.29611474961143200D-02  3.35714394491550300D-02 -7.25057703010229900D-01  1.67362754889329200D-01  3.14805924399572200D-02
31  2  1.15226811663959600D-01  2.88716722250237100D-01  4.43242065716862100D-01 -4.04172719719867500D-02 -1.08440548401301000D-01
31  3 -1.00615544903711500D-02  1.18502102891673600D-01  1.57458703496163900D-01 -6.77085553637472400D-02  3.90125826955086100D-01
31  4  7.49681813904369100D-02  1.82905373605922800D-01 -7.71296046790434100D-01 -3.58025602415205600D-03  6.66190275727288500D-02
31  5 -2.83070783560868200D-03 -9.73225260395464400D-01  1.52455129972278000D-01  2.54100725701188800D-01 -1.48737144244723000D-03
31  6  8.71555700786460200D-02 -8.56681986361992700D-02  1.67815413521561900D-01 -8.45382496865250100D-02  8.69043587580878700D-02
31  7 -1.03510913370885200D-01 -1.61787230337839200D-01  2.43089693506392000D+00 -8.35326444154342500D-02 -2.28484298859560100D-01
31  8  1.85218127214378900D-03  3.19470612921900700D-02 -1.52461911284742900D-02 -3.19348623859731400D-03 -4.03591599247994300D-02
31  9 -1.73356823249187400D-02  5.76948422497183000D-02  1.88949006754199900D-01  4.92815091870114800D-02 -9.33763746250599500D-02
31 10  7.97171678859505200D-03  6.59979799160150500D-02 -1.33454282342154200D+00 -8.00942450054023800D-02  1.73573641271033100D-01
31 11  9.19792664295548100D-02 -1.53926170486532600D+00 -1.14625877888695000D+00  2.42211173066083000D-03 -1.67056187751882100D-02
31 12 -1.03964826592877400D-01  1.20670445368065500D-01  2.23718687048879600D-02  8.95730219737432200D-03 -1.70695159141579000D-01
31 13 -3.38061872326061500D-02 -1.89222976468340300D-01 -1.01166559900204900D+00  3.22909816530979400D-02 -6.68796893218235500D-02
31 14 -3.22748600398553600D-02  8.30688701249808400D-01 -1.79124664764134400D-01 -2.89913716104144900D-03  1.53596766154487400D-01
31 15 -4.03560468318015800D-01  2.49963702163527200D-01  3.33328274758524200D-01  2.19039180940852900D-02 -1.00636235963942900D-01
31 16  7.55133616927066800D-02  2.64150631780404200D-01  1.55530663965048300D+00 -2.63774368527495300D-01 -1.72620763546546900D-01
31 17 -1.73193188613283500D-03 -3.25331612577915700D-01 -2.80925114284240900D-01  2.15832843094864800D-01  1.96342553869353400D-01
31 18  4.09322696059581800D-02 -2.37274823475311600D-01  2.56636655552681200D-01  1.16034305160598300D-02  2.21469174939679600D-02
31 19  5.44124086852983600D-03  1.89407789597408600D-03 -9.80178898280353900D-02 -4.49888827422651200D-03 -1.01031778213535700D-02
31 20  5.11302369437148100D-02 -1.41643589198578500D-02 -1.16577614658582200D-01 -4.83599651790928600D-02 -1.43205386200401600D-01
31 21 -4.00848777413395400D-01  2.94642192405306900D-03 -1.32810432317277000D-01  2.76312718456008000D-03  1.12754790715801900D-01
31 22 -1.15517917900361800D-01  5.13136728202536300D-02 -5.15861411580395100D-02  4.25545284040903800D-03  2.51272537626317000D-02
31 23 -2.68667580946397900D-02  1.73950433200856400D-03  3.00930057995866400D-01  9.96581577013271000D-02  2.94629219821431000D-01
31 24 -7.33541797695521400D-02 -1.78510210050448200D-01  5.80829538081127600D-02 -2.23905188065216800D-01  9.59670326595481400D-03
31 25 -4.82648785180944300D-02  1.34757459987415500D-02  3.62025825862904700D-01  1.34678005056630600D-01 -9.03197295157609800D-02
31 26  3.28001720949342500D-01  1.58253151594421400D-01 -6.70118706823704700D-02  1.32157119884967500D-01 -2.20965193369559500D-01
31 27  8.88080734845922300D-02 -3.15769390063166500D-01 -1.04770927472026700D-02  7.13671473278517000D-02 -1.96057403344080100D-01
31 28  3.39567963806670600D-01 -1.43510560462590400D-01  4.00981113201420400D-01  1.01045202669680800D-02 -1.53487810193075400D-01
31 29  1.04462942722799600D-02  7.41956710673327600D-01  1.10624354222887900D-03 -1.68323912064525200D-01 -2.31519677823669700D-01
31 30 -2.46525216703884400D-01 -3.34973453553335500D-01  2.19938298401174300D-01  1.16494537443159100D-01 -1.03150974965476900D-01
31 31  2.78669685678835500D-01  3.04651187208842400D-01 -9.58664760049472300D-02 -1.04492365598109000D-01 -1.19346940045982500D-02
31 32 -1.66524739513107300D-01 -6.90623890655786300D-01 -1.99814629291121800D-01  1.10111164236514000D-01 -1.85190812642339700D-01
32  1  1.49602302049508900D-01  3.09663586262316700D-01 -1.53038924846070200D+00  1.05116939671071800D-01  6.54208765919520200D-03
32  2  7.73573495094191200D-02 -9.44183997986418700D-02  1.06157877795796100D+00  3.58985037955044200D-01 -1.89865009689708300D-01
32  3  2.28588509746213900D-01 -3.87235000565056500D-02  1.46463657469190700D-01 -2.27375110427838300D-03  9.83167486187155900D-03
32  4  8.05766112547551700D-02  1.76117467277516700D-01  8.73646557422600600D-02  1.65448528974667700D-02 -7.22224893695329100D-02
32  5 -6.63061776586896800D-02  2.93652974179538700D-03  6.22247935834246400D-01 -8.87786259877187800D-02 -4.10407258940239900D-03
32  6  1.33664586196762200D-01 -1.29560513607360100D-01 -2.71496446570819600D-02  1.32904375924719500D-01 -4.14553396412903300D-02
32  7 -3.16846022457447100D-02 -3.47509865230262600D-02  4.20041204952500800D-01  1.42450590099101500D-01 -1.34489656981324300D-01
32  8 -4.30633012045108200D-02 -1.17985336973704200D+00  7.05521136151661300D-01  2.33566945876612400D-02  2.40844142756751400D-01
32  9 -2.09531920409842800D-01 -3.13122223469085200D-02  6.00895977104208100D-02  4.12836765850304700D-02 -1.33863086150629500D-02
32 10  4.32537256663107100D-02  1.21146582717562100D-01 -8.89524760646896000D-01 -3.98326082584932500D-01  3.65184104659026400D-02
32 11 -2.34223481196017200D-01  8.18127424188525600D-01 -9.12353503182624500D-01  2.71537435673506700D-01 -1.64049554195641900D-01
32 12  2.47501386925579700D-01 -8.34518327299369500D-02 -3.43362452454621000D-02  1.14166850655617700D-01 -5.93098630194013000D-02
32 13 -2.29167884927434000D-02 -9.19655689235246800D-02  6.75245657467489200D-01  1.67229296241901900D-01  1.49616039221269200D-02
32 14 -1.16677872349105100D-01 -2.99861994463103100D-01 -2.86148511999950100D-01  1.72120633701206400D-01 -2.18634645367134100D-01
32 15  1.84788582902338700D-01  3.38460624647947000D-02 -1.06209983187190000D-01  1.70106803629044200D-01 -8.57611059185050500D-02
32 16 -3.78437591515473700D-02  2.62026826139649200D-02  6.07157039866542000D-01 -2.25475850255446800D-01  8.07095420313098700D-02
32 17  2.34795544134808000D-03  1.37838187864854700D+00 -1.41818357526581300D-01 -1.37175944051954400D-01  2.06621468747849900D-01
32 18 -1.94255267646279800D-01 -1.23662011015698000D-02  3.93724093180818100D-02 -2.64814043018908500D-01 -6.91366746498983400D-03
32 19  2.64203989507214500D-02  4.09212033107557600D-02 -4.27210986767965700D-01 -2.29475233387468800D-01 -1.35992347097538800D-01
32 20  1.45804035291748000D-01 -4.83345119555311000D-02  1.19486020038530400D-01  1.66913738976676000D-02 -1.11558092242749300D-02
32 21 -5.18552461066115200D-02  5.74027928711668100D-02 -1.75081939360628400D-01  1.50701419458488300D-01  8.55575681207863100D-02
32 22 -2.36258987579275200D-01  2.83256382292578700D-01  3.10359694517362900D-02  2.74270492109837900D-02 -1.01194340284490200D-01
32 23  2.09538867543446000D-03  9.90989516090556400D-02 -1.67975776321802600D-01 -5.31737418228717800D-02  2.09461166887736900D-01
32 24  2.26186167514857000D-02  5.73514711764296600D-02 -3.94315826583611900D-01 -1.61018776653004500D-01 -1.74742750906195400D-02
32 25 -7.52081217229058200D-03 -1.55422021140302700D-02 -1.53161927984799700D-01 -1.16362916514611600D-01  3.41876070353941100D-02
32 26 -7.86134418632152700D-03  8.58721343333336000D-02 -2.37582372180751100D-01  2.07582657752615300D-01 -1.32072810681921100D-01
32 27 -7.55098470706945900D-02  7.07381027298339400D-02  1.41544239363569000D-02 -1.22860662972173700D-01 -2.31758087026567600D-01
32 28  2.55015708157189000D-01 -2.32576211306214900D-02  3.94343240409061700D-02 -1.07259866937007100D-01  4.81678205298852500D-02
32 29 -1.85101724521102000D-01 -9.04959750799292400D-02 -2.23821924683732900D-02 -1.22170239484639300D-01  1.41959833795040500D-01
32 30  1.35676047272632500D-02  8.65072527527246700D-01  8.53020745807422400D-02 -1.93310295551115200D-01 -7.03389335234826000D-02
32 31  9.71071158231348700D-02 -2.03412348133411500D-01  1.93961311794241700D-01  1.31191217617275200D-01 -1.42727095925187200D-02
32 32 -2.04661509401186200D-01  8.24472672563450500D-01  2.13836171767832500D-01  1.50795990624189500D-01 -2.52668341990860700D-02
33  1 -1.13996044836592800D-01 -1.92438423473078600D-01  8.70856056937785000D-02  1.97375933326751400D-02 -2.17734520567838200D-01
33  2  1.80658944251093500D-02  1.74840160640383000D-01  5.20043428202680300D-01  2.29992334041901400D-01 -1.45763062964686400D-02
33  3  1.79072728899885000D-02 -3.33096659352202300D-03 -2.07099807379693500D-01  4.43628006818934500D-03  8.34973208386647600D-02
33  4 -1.12068077541451800D-01 -2.62735290623211800D-01  4.98788791759946900D-01 -6.66885814856162400D-02  1.55353130213083800D-01
33  5  7.02604602833714200D-02  6.14629310751839600D-02 -1.44458162812319400D+00 -1.42080826176084100D-01 -9.54236493036461800D-02
33  6  1.64560607620141500D-01 -6.91369583164946200D-02 -6.19983835850102500D-02  5.53192798026848600D-02  3.57038579704935300D-02
33  7  1.39105583220222900D-01  3.39585656050125400D-01 -2.50879542777370300D+00 -2.83336439432200800D-03 -1.90739488425729600D-01
33  8 -1.40544260712834100D-02 -7.39365624582776500D-03  2.74419497960726800D-01  5.02048581159613300D-02 -1.39142033647070600D-01
33  9  9.50105720780146800D-02  4.41314615690557600D-02 -3.78899623804479500D-02  2.40856146247326700D-02  3.66360616960390000D-02
33 10  8.81040457262383700D-02  6.54679582278705600D-02  5.81039130418416000D-01  1.10702034934716600D-01 -1.04595466866979100D-01
33 11  3.31023281186758700D-02  1.13357730030943500D+00 -4.11990168084177500D-01  5.83752342612245300D-02  5.39466794546040200D-02
33 12 -2.70429453627897900D-01  2.16482774173294100D-01  5.00102879004974300D-02  2.36562067841346500D-03 -4.42168340040667300D-02
33 13 -2.63643148836375100D-02  2.29090108095270900D-02  2.71691327356354900D+00 -1.60592760384058800D-01  1.43910308095012300D-02
33 14 -6.87954336954247800D-02  1.18774521374947100D-01  5.26410855560363300D-01  1.72055687780205400D-01  1.96186077496740300D-01
33 15 -1.66601500558694300D-01 -2.95845769380451300D-02 -6.57265795323880000D-02 -2.12988526134974900D-02  9.82909961200054700D-03
33 16  1.42919902783521200D-01  2.88227101758275000D-01 -8.97761809417583300D-01 -3.36740578405071300D-01 -4.49449825534810900D-03
33 17  1.06979839337619400D-01  4.38608199116768200D-01  1.49217121453431600D+00 -2.50514897069669300D-01  3.54707313510617000D-01
33 18 -2.57056217832415300D-01 -9.76510956782020700D-02 -1.76254985456150800D-01 -3.33790507643918400D-02  1.47155354432405500D-02
33 19 -3.66125875418227500D-02 -6.86493977654862400D-02  2.75923130842529600D-02 -4.32974436551522800D-01  4.45394899511901800D-02
33 20 -9.19757333980376300D-02 -9.24682845537632400D-03  1.52955936497222200D-01  9.13918176167789600D-02 -8.37376767523460900D-02
33 21  3.98397013317630700D-01  2.39619463827875600D-02 -1.91565071200700700D-02 -1.93870619417712400D-01  1.74641875777289600D-01
33 22  1.92287436404219600D-02  6.42691855465552200D-02  5.15153878850977400D-02  7.59214956344513400D-02 -1.86614828805607500D-01
33 23  2.12842934221598100D-01 -2.62281054159910300D-02 -3.42129817733401800D-01 -6.16152894542967500D-02  7.47374763642693100D-02
33 24  1.49905980754597800D-01  3.27948252578230300D-01 -4.98660480818466900D-01 -2.74832055466532100D-01  1.90387646420241100D-01
33 25  2.38690430113020900D-01  3.02261758309016000D-02 -4.48839308945225300D-01 -3.60818756293719200D-01 -1.17687005856675200D-01
33 26 -9.51214821091653500D-02 -9.18044302374460100D-02  4.82540968262257000D-02  3.94328372956954900D-02 -2.16338282089597300D-01
33 27  1.76905444793901100D-01  3.21305030211903500D-01 -6.78336243941571300D-02  4.00398200145943700D-02  5.75234273359030900D-02
33 28 -2.52597510225682400D-01  1.95074082889779200D-01 -3.32296893638278100D-01  6.45569171074660700D-02 -1.63429468984792900D-01
33 29  8.07153354339776000D-02  3.86611859862826600D-01 -9.08979557023128600D-02  7.78051021402955900D-04 -8.89752091943758600D-02
33 30 -1.28554318809762000D-02  4.91271573453894400D-01 -2.04605344387884300D-01 -1.18816423396520700D-01 -1.94394883964408100D-02
33 31 -2.43271140135466700D-01 -2.47548035877067300D-01 -5.08344578409775700D-03 -2.85562525523976900D-01 -4.63404404447766600D-02
33 32 -5.38790459195595300D-01  2.92290155000035700D-01 -2.61667770927272600D-01  2.19595532012457300D-01 -2.94370240145554900D-02
34  1  7.02959505780675300D-02  3.02026786024077100D-02 -1.51091715128732800D-01  1.83982082101230400D-01  1.64023736158489200D-01
34  2 -2.47813666367539000D-02  1.85061509486425100D+00 -8.14619683165578400D-03 -2.80693130266353500D-01 -2.08584994858011200D-01
34  3 -1.10668808181570900D-01  3.19253803039583200D-01  6.83600130926108500D-02  3.53258785537949200D-02  1.39093198610995400D-01
34  4  3.42120172199407300D-02  1.15828573031036100D-01 -1.43559666656017300D+00  2.13657030026573200D-02  2.42251709384188700D-01
34  5 -7.00405211705439500D-03  1.58815127220676000D+00  2.18690820435094300D-01  2.00710106182979400D-01  1.48394735363594700D-01
34  6 -8.74973287551736300D-02 -6.08974066084221000D-02  4.02882004968016000D-02 -1.71628557775233000D-01  2.83391132181115000D-02
34  7 -3.20370557008020900D-03  3.88751169872028400D-02  1.07285477769168400D+00  2.39989009228002100D-01 -2.26646089080759300D-01
34  8 -3.09492341929316600D-02 -1.59317114584542500D+00  7.90014144132835000D-01  3.18191469842274100D-02  3.69405966150742300D-02
34  9  1.40560452322392200D-01 -1.77501048937465100D-01 -2.49589178795333900D-02  3.15413259965532400D-02 -1.29608764355135500D-01
34 10  1.67333170014761700D-01  3.21633480554117600D-01 -2.51723794101881400D-01 -2.34692262015022200D-01  1.01432757914158700D-01
34 11  7.66067661886664800D-02  2.38919431531318100D-01 -1.96090537092811200D-01 -3.77224800408521100D-02 -1.75901912225331300D-01
34 12 -7.28682245557334500D-02  2.48770136781065500D-01 -3.72705807245395100D-01 -2.54981060827851900D-02 -1.08379778964968500D-01
34 13  3.27478318684851800D-02  6.05329414734137500D-02 -8.69907967098306600D-01  1.96105823804146600D-01 -1.96121518033060100D-01
34 14 -1.11212161885883200D-01 -1.63311966999464600D+00 -8.20990372465950400D-01  1.78906906199791400D-01 -2.01456448840434900D-01
34 15 -1.67702317973444300D-02  2.18226680637777000D-01  2.60409288966487500D-01  5.88860251932212000D-02  2.81168821112983600D-02
34 16 -3.71674098868611700D-02  5.74837180463152800D-03  2.34119332076713300D+00 -1.97077758505210100D-01  1.11011356117053800D-01
34 17 -1.05499933018950500D-02  1.91435116487324600D+00 -3.59142919053201300D-01  9.69188479227204600D-02 -1.81568841532700800D-02
34 18  2.55475431982690700D-01 -2.37318547829419600D-01  1.44074401156750200D-01  1.81716186821804800D-01  1.92293021691828100D-01
34 19  9.36754585930685400D-02  2.28131292234774200D-01 -9.67543285950119700D-02 -2.57698837786781400D-01  1.51651116457310500D-01
34 20 -1.84095017181027700D-01 -3.09915399731045500D-02 -6.28780395780326100D-01  2.41410234081470400D-01  7.62099131335193500D-02
34 21  7.24222042987091900D-02  2.21157991696460100D-01 -3.41332779312730300D-02 -7.90979351808123100D-03  9.13826084085709700D-02
34 22 -8.34728148904903000D-02 -9.77034632252299500D-02  8.89523732637923800D-04 -5.25393134939784400D-02  2.77400506189489900D-01
34 23 -2.47084844521047800D-01 -3.03156616684416200D-02  4.54102504533238400D-01 -4.62466743928572100D-02  2.11237246793773500D-03
34 24  1.39347397103244400D-02  6.46718208508167600D-02  1.54543373000359100D-01 -4.11730920652178200D-01 -2.05565652209937200D-01
34 25  8.13515592710348700D-02 -2.62950795888167900D-02  6.93942287059682300D-02 -1.11991381186231200D-01 -3.48897183002006800D-02
34 26 -2.48055178844456300D-01 -6.97489988845351900D-02 -1.36874359496493400D-03 -1.80171111471990600D-01  7.31871404743185400D-02
34 27  1.06983970997672600D-01  1.22116131007714900D-01 -8.66244953620841400D-02  7.43897182033371000D-03  1.94799008560973100D-01
34 28 -6.32781733865132500D-02 -1.31520835174459800D-01 -3.37559084954177200D-01  9.19011520933333300D-02 -2.16647120911398100D-01
34 29 -3.49382327424620600D-01 -7.92276766451181400D-01  2.16412814168056300D-01 -1.75370994977771200D-02 -3.96288644294577000D-02
34 30  1.96634370425733200D-01  4.96158811327530300D-01  2.32165815490397100D-01 -1.60982093777234300D-01 -8.37367950688389100D-02
34 31 -3.69548721801221200D-01 -6.30465137945425600D-01  2.59677698427815900D-02  2.73370088322827100D-01  1.02571511558429000D-01
34 32  1.49281714666725500D-01  6.78019156030164400D-01 -4.72721084802522900D-02  1.92486654959632000D-01 -5.04961781556451700D-02
35  1  5.69064220441448600D-02  1.85091566972337900D-01  2.11308381685170300D-01  7.26265651874123800D-02 -1.09430933773277900D-01
35  2  2.44201176390911600D-02  2.45880405573216800D+00 -5.69343090276022900D-02 -1.68461714932002800D-01 -8.05162901155501800D-04
35  3  1.19692351955556500D-01 -1.18887189054400700D-01  3.91935862076053800D-01  2.18534221379293800D-02 -5.77905920918009600D-02
35  4  5.27558264888582500D-02  3.84122067383621000D-02 -2.07948072822309400D+00 -2.23353734731649800D-02 -5.87363816779378900D-02
35  5 -2.17173543258582900D-02  4.31269261431411400D-01 -2.30610410761245900D-01 -2.59176513718630400D-02  1.38838997317029800D-01
35  6 -1.79531139268458500D-01  4.06921419514279900D-02  2.33083870378248700D-01 -6.55956597787501600D-02  2.11163154661085500D-02
35  7 -2.84030621410646300D-02 -4.67580887665178200D-02  6.25999615907986600D-01  1.07666531189539300D-01  1.22233265041213600D-01
35  8  2.86922028930762000D-02  1.72096324699878300D-01 -1.90867400787848800D-01  1.08720139767183500D-01 -1.23449152012749800D-01
35  9  2.05237373147619600D-01 -8.17882211348691500D-02 -1.50011279320768100D-01 -1.21676112768654700D-01  3.16246226855950800D-02
35 10  1.63740635303295800D-01  2.42376808120061800D-01  8.50191338971849500D-01  2.20652685750419000D-01 -2.14669494767974400D-01
35 11 -3.10558585600773200D-02 -5.53589895822072000D-01  6.32142444918447700D-01 -3.93300264080926000D-01  2.03755904028576000D-01
35 12 -4.09687214444687300D-03 -1.99659031884129400D-01 -3.21719325893342300D-01  7.01791403785981800D-03  8.30655181603577700D-02
35 13  7.77911794456772900D-02  2.18292888877834800D-01 -1.17899385255844800D+00  3.80557592918899900D-03  8.39581574809349600D-02
35 14 -1.70729415019442900D-02 -8.69702980097694600D-02  4.42167562484768200D-01  1.43168586121179200D-01 -2.74671965042244900D-02
35 15 -3.56401865122525900D-02  6.31073830164761300D-02 -8.08694227918645600D-02  1.54563760561124200D-01 -2.99695152053223300D-02
35 16  4.17966191385802400D-02  7.79220761807923700D-02  9.36983703177813200D-01 -9.40463393816986800D-02 -4.39755978916267700D-03
35 17  2.61750770310102300D-02  2.14560977570337100D-01  6.80583837640147100D-01 -3.58788367272344900D-02 -2.09026848937378700D-01
35 18  1.01910300410336000D-01  1.07116548527043100D-01  2.03594388401013700D-01  4.93935748383690600D-02 -1.27618702402214000D-02
35 19 -7.60164834685240900D-02 -1.80157418514209000D-01  1.55051087362503300D-01 -1.43450493093915300D-01 -5.70179454859723100D-03
35 20  1.41628105490283700D-01 -6.28098080809201800D-02 -7.02212128480302500D-01  9.89367815929821800D-03  1.45550717740182800D-01
35 21 -2.62994708652783800D-01 -1.15744183257501400D-01  3.94331828832389500D-02 -1.57555349572697700D-01  1.87435599918403300D-01
35 22 -2.98802503457057700D-02 -1.76845701519187500D-01  7.74380908592644400D-02  9.35942628560106600D-02 -3.50438108048908700D-02
35 23 -5.64873117252073600D-02  9.15311225300983300D-02  7.01548955217674900D-01 -9.35947295617068400D-02 -8.22556678612184300D-02
35 24  7.87948125295492200D-02  1.66771153784333200D-01 -1.47921892310235600D-01 -7.23168402576494200D-02 -2.07911701016981800D-01
35 25  4.37035986159596600D-02 -9.83729962689085000D-02  1.50334071958989300D-01 -3.43933834848327300D-01  2.81221439607930400D-01
35 26 -1.77120782345464600D-01 -3.31721768236906700D-02  2.81228447590833500D-02 -1.00804715169680900D-01  2.42693839120223700D-01
35 27 -1.41889123950542400D-01 -2.39510356149567600D-01 -6.21102307606054100D-02 -9.10900875185373500D-02  7.58357060807885300D-02
35 28 -5.74021150054993100D-01  4.98185443974204400D-01 -1.55313195997919000D-01  4.97563338063024400D-02  1.91464605401201000D-01
35 29 -7.93860286113152500D-02  3.67050725204267600D-01 -1.73806244481517500D-02 -1.40367026471586100D-01  1.16070641537910100D-01
35 30 -3.48726831349964800D-01  3.50892705557028300D-02  1.19136182325807200D-01  1.10705922381703000D-01  2.00861318337716500D-02
35 31  1.58058773771897700D-01  3.46515732457581900D-01  4.19310074441917800D-01 -1.42051800287237000D-02  4.65731592876798800D-02
35 32 -1.83361113153351300D-03 -1.09676354807558200D-01  1.18296702443910300D-01  2.90015267143648000D-02  5.33327911186271400D-02
36  1 -1.02709768433344800D-02 -1.04675630863172800D-01  1.43134939053718300D-01 -2.37477659705380600D-01 -1.50036004077298000D-01
36  2  2.09283761043242000D-01  2.42337830030854600D-01 -5.97677677958843400D-03  7.87217852322778000D-02 -2.99337589686634200D-01
36  3  6.98505207365741800D-02  2.29487068950059400D-01  6.53991342364116200D-03  6.61096426419018500D-04  3.67938127416369900D-02
36  4 -2.11375601619455400D-02 -1.04081563765458100D-02  9.87602672339478000D-01  4.48657967430371100D-02  8.89618031011864300D-02
36  5 -3.00107082175384800D-02 -2.31736394650961500D-01 -6.01762827110433400D-01 -1.92908210610684700D-01  2.98822413565509100D-01
36  6 -1.95709837827910400D-01 -1.03112575737598500D-01 -2.00454039125869800D-01  1.79579295607864400D-01  6.15039074883184200D-02
36  7 -6.04500644237989300D-02 -1.41692473749216200D-01  7.10304850066724300D-01  1.77403093490628800D-02  9.88219078035541700D-02
36  8 -7.14415862402089000D-02  1.53667438612153100D-02 -1.44136772928993900D+00  3.98231106753328500D-01 -2.33135307853304700D-01
36  9  6.32739325698765700D-02  1.69861375283428000D-01 -8.53824152092451900D-02 -2.60804813391629000D-01 -1.06279937117104600D-01
36 10 -9.40682885609325800D-02 -1.75846699331702800D-01  2.00306646061003500D-01  2.81263825662266900D-01  1.82909788776671700D-01
36 11 -2.06801894356948500D-01 -2.07860738327975300D+00  4.60961514712335000D-01 -5.92936340281212200D-02 -3.30620414560218200D-02
36 12 -4.09522698560016200D-02  7.40143113120224200D-02  1.23673457893659800D-01 -1.05368149508645700D-01 -8.34495192615823000D-02
36 13  1.65704547268378400D-01  3.38155013425763500D-01 -1.40041998649840500D+00 -1.85007685785791500D-01 -1.22846359625849000D-01
36 14  5.57556366618853700D-02 -2.26639553492948500D-01  9.47468052465848000D-01  5.72823090080459100D-02  1.12883787395844100D-01
36 15 -7.92207929237459100D-02 -3.36629944720976400D-02  7.71751185339668700D-02  1.30949626649786300D-01 -3.37279235770310100D-02
36 16  1.58662828801616700D-01  3.31463414149813100D-01 -6.01637036842468300D-01  2.57727805067557300D-01 -3.36328363855268100D-02
36 17 -5.02712242254330200D-03 -7.16947535820249600D-01  3.97230869869479600D-01 -6.92802974259139400D-03 -2.01134521263407500D-01
36 18  3.83973317117462000D-02  1.62737189551661400D-01 -3.10379354094509400D-02 -2.89626873366035700D-01  3.95790484940408100D-02
36 19 -5.51836120298058900D-02 -8.57444985854432100D-02  2.29866130586961800D-01 -5.30692098367095800D-02 -8.99534289299417500D-02
36 20 -3.10551019740736400D-02  3.93580514135821000D-02  5.53187684370615000D-02 -1.02295240596323900D-01 -1.09119642852981200D-01
36 21  6.57643323658593400D-02 -1.37408239804338000D-01 -4.92215917915808100D-02  4.00815174454795700D-02  8.45361168672006700D-02
36 22 -1.24617634312680100D-01 -6.47188861465889100D-02  5.29724146798699300D-02 -1.93829110510231800D-02  1.68605269100786300D-01
36 23 -1.89679484766568000D-01  2.10742156657814400D-02 -3.20425433829391600D-02  5.25631121303551900D-03  1.19785489132226100D-01
36 24 -4.06308922227833800D-02 -6.71187001319742100D-02  3.34937778069942400D-01  1.38840124195509700D-01  2.81805148146675400D-02
36 25  1.68480002380728200D-01  3.71740201759878400D-02  3.64490217891143200D-01 -8.09469275526504100D-04 -5.06162505703302200D-02
36 26 -4.25776770318623300D-02  1.01043811667620900D-01  1.16925386753048600D-02 -3.04089231386491900D-02 -6.37074357138135600D-02
36 27  9.41163588524627400D-02 -2.25894275036578900D-02  6.35174656387918100D-02  2.29872263006526500D-01 -3.46800603888636800D-02
36 28  1.74595304729630000D-01 -1.39915244340766400D-01 -4.98692517080490500D-02  3.90907171944559900D-02 -6.95776155921057300D-02
36 29  1.30405728967178600D-01 -4.73853530063289700D-02  6.80067834273678200D-02  5.10187886744900400D-02  1.49751488901127700D-01
36 30 -6.72522492094311900D-03 -6.30302570402933500D-01 -2.44676783391770400D-02  4.27709424181319300D-02 -2.47136269517295400D-01
36 31 -1.15637176449122600D-01  2.30902835747610000D-01 -7.70709227722755500D-02 -1.64653636548388000D-01 -1.94184398887246900D-01
36 32 -5.42962905933737400D-02 -3.09114082068318300D-01  3.88124205104961900D-02 -1.04437470051899000D-02 -1.26872515099563400D-01
37  1 -5.07370900627525000D-02 -1.06225209647729800D-01 -1.83811147070227800D-01  2.93891668401686600D-01  1.20082998414488600D-01
37  2  2.79579596440775900D-02  9.58173175782197000D-01  4.29748829044144600D-01 -2.43366226944209700D-01 -1.17649651401832300D-01
37  3 -4.53661307523260500D-02  1.63015782154157400D-01  2.25689872843517100D-01 -1.50062531157664400D-02 -1.69687679844043600D-01
37  4 -6.91551574644373400D-02 -1.16242770476672600D-01  2.34418483700101500D-01 -1.35120506301771700D-02  1.34825823449382000D-01
37  5 -5.83415016054084100D-02  7.29069255299112200D-02 -1.00179588327110200D+00 -3.29689317990683100D-02 -2.14363959065824400D-01
37  6  2.16162639511548500D-01 -1.79868044572416900D-03  7.43305640084761500D-02 -5.54764778798905600D-02  1.69033491582291400D-02
37  7 -1.25978458125042800D-01 -2.58067843091081000D-01  7.06556116814021100D-01 -1.71467674033712600D-01 -1.41584590455964500D-01
37  8 -5.95093193052394200D-02 -5.04749271239462400D-01 -9.08585662966356100D-01  1.40412022725158100D-01 -4.80771710964427700D-02
37  9  1.65203672385727400D-01 -1.17126501289283800D-01  3.36165204581937200D-02 -2.10914306389065700D-01 -1.39021603180119500D-02
37 10 -3.53424054717381900D-03 -2.57668799510253400D-02 -2.02676827508148800D-01  1.97085812577432000D-01 -1.06846614212311300D-01
37 11 -2.12637441157680400D-01 -1.68496576919987800D+00 -5.87322396079899400D-01 -2.52034661202131600D-01 -2.09661511501595000D-01
37 12 -1.93351831531809300D-05  2.09680846684746800D-01  2.27043527812937600D-02 -1.56986368082220000D-02  1.35878071463544200D-01
37 13  4.00567114027091700D-02  8.79846926751382100D-02 -1.23207200583150100D-01  7.94633490063369600D-02 -5.66433353808742500D-02
37 14 -4.83874060248474700D-02 -7.87891587368930200D-03  1.25248219617730400D+00  9.19008552572817500D-02  5.46761274272952100D-02
37 15 -6.83649832049160800D-03 -4.78396291068032800D-02 -1.81914288410979600D-01  2.06768139779236400D-01  3.74514465542059600D-03
37 16 -9.11504279784764300D-02 -1.63662596114732000D-01  2.36972926436358500D-01  3.69796472199565600D-02  4.57986471656389400D-02
37 17 -6.05794347751165800D-02  5.67180648597427700D-01  8.65415883595541200D-01 -1.51248261333551400D-02  5.74564404040023000D-02
37 18 -2.28226457793231700D-02 -3.46337946246790800D-02  2.22918247000402200D-01  2.93647892723348800D-02  5.48621484485061800D-03
37 19  2.83883917298126700D-02  5.01578761033260800D-02 -2.28642799306919600D-01 -1.03804449623932400D-01 -4.55633634903549400D-03
37 20 -1.27605930583027700D-01 -6.78603713416781100D-02 -2.53434576354546000D-01  2.29901219532939500D-01  1.91478740594205700D-01
37 21 -8.77311867025931700D-02 -3.41252836961564000D-02  1.27331309482459700D-01  1.48607982251598600D-01 -4.47216658720560800D-01
37 22  2.98608676468961800D-01  1.42433419418493400D-01 -1.10106413293944400D-02  1.33791640747328100D-01 -9.27142295301415000D-02
37 23  2.34750929007028200D-01 -1.42036699476886600D-01  2.38708718037762000D-01  2.92558499087955600D-02 -1.20344564101639300D-01
37 24  5.34453165504810200D-02  1.12095615569059700D-01 -3.25046804747651400D-01 -2.79496617358323700D-01  4.34770541368320400D-02
37 25  1.73420713351935500D-01  2.55086021309245900D-03  2.25502173850907800D-01 -2.87836283973132900D-01  1.52615589899603700D-01
37 26 -1.41929871425075400D-01 -1.46902523311494400D-01  8.55063062122929700D-02  8.73214134121469100D-03 -2.21214845307332700D-01
37 27  2.12482703966117800D-01  9.35368235853908400D-03  6.73038796275000800D-03 -8.08691528986514000D-02  1.87675707145889100D-03
37 28  1.76767161706964400D-01 -1.78643918778423300D-01 -2.98819181179284900D-02  9.34909167298544500D-03  3.05021765045946900D-01
37 29 -8.54832251232580500D-02  3.62619472557479500D-01 -8.03143853399771900D-02 -1.35019060825915200D-01  2.43682786868779600D-01
37 30 -9.08608326929926700D-02  2.01572021718546100D-01  4.08602344675797400D-02  5.39780453967049900D-03  9.41443448091697200D-02
37 31  3.00845255922092400D-01  2.32138858691342600D-01 -1.51213956854945100D-01  2.56045091178582200D-02  1.27089159823243900D-01
37 32  2.89289824385807700D-01 -5.02961778875568800D-01  8.45615069088162400D-02 -3.42913210480334400D-02  2.24550351868881300D-01
38  1 -2.16193146246517900D-01 -4.68111833154174100D-01  4.99942898279525500D-02  3.63142581423667400D-07  1.96711613553924600D-01
38  2  0.00000000000000000D+00 -3.11180871078546900D-05 -2.90785013655526200D-01  0.00000000000000000D+00 -3.29318406280974100D-02
38  3  3.16866077876493000D-02  1.24523284044826700D-03  2.20020522649920900D-07  0.00000000000000000D+00  0.00000000000000000D+00
38  4 -1.61114528524338800D-01 -4.05325646336123300D-01 -3.08322675108809700D-02  1.93249773381700000D-01  4.08865618097094400D-02
38  5  0.00000000000000000D+00 -1.51550422208884000D-01 -1.16812974522671000D-01  0.00000000000000000D+00  3.59234894484715100D-02
38  6  1.15037544394658100D-03 -3.70738648924187100D-02  4.02472127328064900D-02  0.00000000000000000D+00  0.00000000000000000D+00
38  7 -1.61116060565556300D-01 -4.05326482809499600D-01 -3.08232909286112900D-02  1.93249656444180500D-01 -4.08859119294904100D-02
38  8  0.00000000000000000D+00 -1.51541690726243000D-01  1.16850851467114500D-01  0.00000000000000000D+00  3.59240715942849100D-02
38  9  1.14961481577534000D-03 -3.70736864100596500D-02 -4.02474953281660000D-02  0.00000000000000000D+00  0.00000000000000000D+00
38 10 -2.16193126454185200D-01 -4.68111297707073300D-01  5.00030333835724300D-02  1.17549042052234100D-06 -1.96710831905544100D-01
38 11  0.00000000000000000D+00  2.11076278109633000D-05  2.90789791736161000D-01  0.00000000000000000D+00 -3.29323490837984000D-02
38 12  3.16869584221729800D-02  1.24539066162513600D-03  2.36087160771631700D-07  0.00000000000000000D+00  0.00000000000000000D+00
38 13 -1.61114765453050300D-01 -4.05326931834054900D-01 -3.08469763537521200D-02 -1.93250855379851500D-01 -4.08869130448201400D-02
38 14  0.00000000000000000D+00  1.51546175056983200D-01  1.16814928738046700D-01  0.00000000000000000D+00  3.59229286953010400D-02
38 15  1.15002222475339900D-03 -3.70729509200545300D-02  4.02470180328727200D-02  0.00000000000000000D+00  0.00000000000000000D+00
38 16 -1.61117715093048600D-01 -4.05328964317199300D-01 -3.08181402960583600D-02 -1.93248733355978400D-01  4.08866791105170100D-02
38 17  0.00000000000000000D+00  1.51548373274989100D-01 -1.16857315562678800D-01  0.00000000000000000D+00  3.59236466493463200D-02
38 18  1.14851508481344800D-03 -3.70721617341601700D-02 -4.02478210668129200D-02  0.00000000000000000D+00  0.00000000000000000D+00
38 19 -2.24531864527405500D-02 -4.38756093374382000D-02  8.34110183745291500D-02  2.54332321046281500D-01 -2.44535513071105300D-06
38 20  1.13236051217016700D-01  0.00000000000000000D+00  5.26078249917576400D-06 -1.04734156389070600D-01  0.00000000000000000D+00
38 21  5.40256913909709400D-06 -3.83366333506614500D-01  0.00000000000000000D+00 -3.34112415941579600D-03  1.06187870951685300D-02
38 22 -7.27766293575281400D-03  2.04832292888558500D-07  0.00000000000000000D+00  0.00000000000000000D+00 -2.93778416024613700D-02
38 23  8.77445947250518500D-02 -5.83667531225906600D-02  2.63527795469169900D-07  0.00000000000000000D+00  0.00000000000000000D+00
38 24 -2.24531695726580900D-02 -4.38756451719990900D-02  8.34111468729613500D-02  2.54332865228759700D-01  1.34666681617275300D-06
38 25 -1.13236014204685700D-01  0.00000000000000000D+00 -3.02245822611301900D-06  1.04733588397079000D-01  0.00000000000000000D+00
38 26 -3.31448927684512000D-06  3.83366355010643900D-01  0.00000000000000000D+00 -3.34111279824625600D-03  1.06187566000842100D-02
38 27 -7.27764380183794000D-03  1.16392098735843400D-07  0.00000000000000000D+00  0.00000000000000000D+00 -2.93775505549379500D-02
38 28  8.77442060114708400D-02 -5.83666554565329700D-02  2.03837209746705500D-07  0.00000000000000000D+00  0.00000000000000000D+00
38 29 -4.32880139275209800D-02  1.60346543427777700D-01 -2.40814967825933300D-02 -1.01110129893584700D-02  0.00000000000000000D+00
38 30 -4.32888089523917100D-02  1.60352855977438800D-01 -2.40819801224801800D-02  1.01107575541453000D-02  0.00000000000000000D+00
38 31 -4.32876098412155400D-02  1.60349051996469600D-01  2.40819620717542600D-02  1.01111676128637700D-02  0.00000000000000000D+00
38 32 -4.32889355900814300D-02  1.60355862403846100D-01  2.40818900425629300D-02 -1.01106924187836400D-02  0.00000000000000000D+00
39  1 -3.68568644678747800D-02 -1.26881982348144800D-01 -2.34241865714282900D-01 -1.58602430457976700D-01 -3.55215384137781100D-02
39  2  6.79040288698183200D-02 -2.45696575460288500D+00  3.51076751254808300D-01  2.74157956422259700D-01  1.23666007708427700D-01
39  3 -3.42162611753092300D-01  2.18496604044663600D-01  3.27753639744829700D-01  1.29818797943296600D-01  4.66334932308968600D-02
39  4 -1.74201676623745800D-01 -2.78930761574933100D-01  2.13910473853709900D+00  2.52220662737618200D-01  2.14982713612756400D-01
39  5  5.18054766575673400D-02 -1.80458908917017600D+00  1.26434819447428600D+00 -1.18463616862502200D-01  1.36561649334833400D-01
39  6  8.76259071921483300D-02 -2.24187556526981400D-01  6.32286770886952800D-02  3.00311685274767900D-01 -1.55355773527301600D-01
39  7  9.55788785855812600D-02  2.27226966749120500D-01 -7.77252530296222800D-01  1.84657157324161100D-01 -1.30728978347783400D-01
39  8  7.90002138210515300D-02  1.30095930263132600D+00  1.14109769654865400D+00 -2.31105835994041700D-01 -7.24973309263175400D-02
39  9  8.23168933230503000D-02 -9.81956239673363900D-03 -2.68291214230767800D-01  7.04586076581174400D-02  1.07630462809401500D-01
39 10  1.14751790656224100D-01  2.41079430689983200D-01 -4.07535346316721400D-01  3.15558919795449500D-01  6.09061179302669100D-02
39 11  4.31392126358395200D-02  2.48335072940077200D+00 -3.58735017726632100D-01  2.47867179253535900D-01  9.79496050283942500D-02
39 12 -2.38928245720889900D-01  1.40978640692496000D-01 -2.43975897372050700D-01  1.11339249747276600D-01 -1.45159341625906400D-01
39 13 -1.50000632478866000D-01 -3.17445833398159700D-01  1.22730924806374000D+00  5.16121887742440100D-02  2.23947796834179900D-01
39 14  5.28934813365833300D-02  1.41698073794140000D+00 -1.07625638785582500D+00 -8.70195949985545400D-02  2.25655749582756300D-02
39 15  1.27575744426873300D-01 -1.50141319385148000D-01 -1.39663761549351500D-01 -4.39051235678770700D-02 -3.18253051414337900D-02
39 16 -3.99237815923898200D-02 -1.46942884280145700D-01 -1.09067716895259200D+00  1.65404748420695200D-01  8.89089818507331800D-02
39 17 -8.64239305978486700D-02 -1.32427258228106800D+00 -1.59008471930949400D+00  1.73708580788958500D-02  9.56245590297854500D-02
39 18 -2.26042114470386800D-01  1.30417555440600400D-01  4.52866375391987700D-02  1.67604003662888800D-02 -7.01595649183762700D-02
39 19  1.07527838247883200D-02  7.06805515594961900D-03  1.02175118532036600D-01 -2.00975790969485900D-01 -1.83219647515950400D-01
39 20 -1.31571508203735800D-01  8.25705028604447300D-02  4.06475729560476300D-01 -6.18671388422776900D-02 -2.22162323727003300D-01
39 21 -1.99199771534503900D-01  3.29945916499998500D-01 -7.34811498393444500D-03 -1.10108411948438700D-01  1.88799513330114000D-01
39 22 -7.86911013816750800D-02  5.54357532589280500D-02 -7.19602613291038100D-02  2.56392265229382600D-02  5.25753221976516200D-02
39 23 -1.11181234223215400D-01  5.86059120255631400D-02  3.17151024035393400D-02 -8.90460765046517200D-02  7.42761604990061800D-02
39 24 -4.58862213565038500D-02 -1.28268974780960200D-01  2.15461770775751100D-01 -2.27297571939331100D-01  1.51016823590805600D-02
39 25  9.35124853777711800D-02  2.90781204315207500D-02 -5.36540107674690300D-01 -1.41450438225816200D-01 -1.43299388095633500D-01
39 26 -3.18272520838295200D-02  6.23009132913339600D-02 -8.48252391634869200D-02 -1.12255984708426200D-01  1.05332031018634100D-02
39 27  1.01722781606562100D-01  2.96018592804521600D-01  4.00904676255187900D-03 -1.16677131467685100D-01  1.45183008997435700D-01
39 28 -3.07482503994922100D-02 -1.14434758597943500D-01 -6.11621647496210500D-01 -1.46576088910633500D-01  1.10210027876957900D-03
39 29 -1.79496564312756300D-01 -3.08256288949855100D-02  3.54896636255420900D-01  6.84370560988433500D-02 -1.00361912642454300D-01
39 30 -2.59388372835309100D-01 -2.42174705205851900D-01  2.05084552611180900D-01 -4.64053741109018300D-03  6.76826147950762000D-02
39 31 -5.61112191599548100D-02  3.75610317043202600D-01  1.05120424974589400D-01 -1.35648800857198900D-01 -8.39169088019291600D-02
39 32  1.70014877451342400D-01 -2.78814499003986200D-02  2.59526043118955100D-01  1.06974052192356900D-01  1.52820006010503100D-01
40  1  1.77613568397126800D-01  2.92757996763374400D-01 -1.37014455765187100D-02  2.90804183495088100D-01  5.77360365272358500D-02
40  2  6.59497223204112400D-02 -1.13457552844293800D+00  4.30525181622106600D-01 -3.33032202195884000D-01  6.02518499491669800D-02
40  3  9.57423604009316600D-02 -1.55994210350099100D-01 -2.53658546216168500D-01  1.26766027196617400D-03  4.48568358956201400D-02
40  4 -3.33351745623568800D-02 -7.57608650658223200D-02  5.40573221039964000D-01  7.29570632773715400D-02 -8.28421866757415200D-02
40  5  3.37637680307533000D-02 -3.80669911599746200D-01  1.98056037164572700D-01  1.93467011225000700D-01 -3.67203628310794300D-01
40  6  1.94253210326335700D-01  1.72950417984458600D-01 -1.80572952456847100D-02 -4.76454583421507500D-02 -5.19896297181177700D-02
40  7 -6.85015078289223300D-03 -1.95846494777375200D-02  4.85052094329576900D-01 -1.49616662346630700D-01  4.85838023574007400D-03
40  8 -1.04774472817712600D-01 -3.63879732171856300D-01 -1.14669653850842000D-01  1.80040221643795900D-02 -7.38512359047933100D-02
40  9 -3.16610702660484800D-02  1.05512306170840900D-01  1.87421143688219600D-02 -9.08737931171350000D-02 -1.65360092550412700D-01
40 10  4.31959739927947000D-02  5.66346324674411500D-02 -5.27691977519008800D-02  3.02618717313318100D-01  6.36544777299795100D-02
40 11 -9.23792389631434300D-02 -9.05261278475582900D-01 -8.50004713604409200D-01 -4.87847871226296700D-02 -6.69876960457933400D-02
40 12  7.82989093883650200D-02 -1.13112133425721800D-02  1.36356084126823800D-01 -6.19791006262811200D-02  8.22284034935902000D-02
40 13 -1.33558502059162500D-02 -5.62801389650423900D-02 -6.87748144704427600D-01  1.30135383758210300D-01  6.74532517244788000D-02
40 14 -2.76615045135937000D-02  1.62078584499541400D-02  1.77473878635368400D-01 -8.11868968751695400D-02  1.53872610551060400D-01
40 15 -7.72484340857235700D-02 -7.66241764653366900D-02 -1.26889328615338500D-01  5.13472214852221100D-03 -3.78737990891892100D-02
40 16 -2.00789097166041000D-02 -5.31569729731437300D-02 -5.03872352697881600D-01  1.37487336253819800D-01 -1.11539888009079600D-01
40 17  5.70152622242341500D-02  3.52062503875135500D-01 -5.60858448289670100D-01  1.97783464425178700D-01  2.80436670642810400D-01
40 18 -5.75324893701214100D-02 -2.22904181272688700D-01 -1.70447223804111300D-01 -1.92875754300972500D-02  2.11708765409042400D-02
40 19  2.57190583989934700D-02  1.28050388802642700D-02 -4.05064933532259900D-01 -1.26015106283895400D-01 -1.21336252662140600D-01
40 20 -9.44307169988295300D-02 -4.40824856557600400D-02  5.21330844670967900D-01  3.76862468788716200D-01  1.09281388669068900D-01
40 21 -1.77066838918220900D-01  2.80746446295751100D-02  1.87173137628493900D-02 -1.48276187062192600D-01  2.11777908082236000D-01
40 22 -6.35017210200433000D-02  2.22405048558959100D-01  2.51589059089532100D-02 -1.78428168123110800D-02  1.87192551102636500D-01
40 23 -3.95712033134588200D-01  2.08519482031951900D-01 -3.11576634004456400D-02  3.68406760620422700D-03 -2.76748505752061500D-02
40 24  1.77108259568187700D-02 -8.27118703335545100D-03 -4.99588301661761400D-01 -1.74595629686097700D-01  4.18522420024740600D-02
40 25 -1.29487990302658400D-01  6.58711360908412800D-02  2.35338513587833100D-01  1.78123546394601400D-02 -1.77146002845562800D-02
40 26 -9.80971469663854300D-02 -1.64463507099269400D-01  3.92250721448585800D-02 -2.87168012404334400D-01  3.33541166433092200D-01
40 27 -4.63731540287574900D-02  1.37608111404436900D-01  5.54140705243025800D-02  4.98875552016019600D-02  3.20921990962373500D-02
40 28 -2.06413471795491700D-01  1.74321272699254400D-01 -1.82785208892822500D-01  1.33569250863391100D-02  1.37787597677355700D-01
40 29  4.95284118240580000D-02  3.65285957018742400D-01 -5.23721827913476900D-02 -2.20884373895574400D-01 -7.00358037951109200D-02
40 30  1.83293811966013900D-01  3.08698207133421800D-01 -9.87255751134122600D-02  7.82615589759314900D-03  4.82728782022429600D-02
40 31 -5.54049300590837200D-02  3.83471137074383800D-01  9.79468456177430400D-02  1.96833108919936400D-01  3.94690077420633700D-02
40 32  8.54917348779619800D-02  3.54090397687537500D-01  1.41597258882377200D-01  5.08260772354849100D-02 -2.17821599105781800D-01
41  1  3.77246924896199900D-02  1.26321040141034800D-01  5.17142949200204800D-01 -1.48922723789814700D-01  3.44210180615722900D-01
41  2 -5.03501510152858900D-02 -7.23232078027479100D-01 -1.53773567394117500D+00  3.57732045023681800D-01  5.15157740524765700D-02
41  3 -1.20055781247979400D-01  6.85400071955011800D-02  2.15063242907616900D-01  3.40800127123845300D-02  9.12484986558773200D-02
41  4 -1.63465405606205100D-01 -3.38946549850173900D-01  1.86548169946917200D+00 -9.76786399492451500D-02 -2.41879405154176200D-01
41  5 -3.78858353512663000D-02 -2.21209962479347400D-01 -2.77512399103350600D-01 -6.48895935630221500D-02 -8.05663852124074600D-02
41  6  1.00725115164136500D-01 -2.01587299517275500D-02  1.69175513080582800D-01  7.65217257434237200D-02  5.79705272721143400D-02
41  7  8.03082875544311500D-02  1.23411204318806500D-01 -1.63715067155037800D+00 -1.70177992453404000D-01  3.16614573345690000D-01
41  8 -1.47697521427210700D-02 -2.28187036097877500D-01 -1.47219695301923700D+00  7.37977371673938900D-03 -1.44922012628777100D-01
41  9 -8.02827102171792300D-02  2.25204722845955700D-01  3.26160692625136900D-01 -2.03928330700204600D-02 -2.29588438376426600D-02
41 10 -4.15500839118134700D-02 -1.41784432407169700D-01  3.99211648326087800D-01 -4.07289653366930700D-02  6.74377974284166600D-02
41 11 -3.52548788415516800D-02 -5.57641147219038000D-01  6.90245943101982500D-01  8.35026144902328300D-02  7.88569195635014300D-03
41 12 -7.22220336187570600D-02  6.43363416624067900D-02  9.87926382501160300D-02  2.47122070520641900D-02 -4.21535921779345700D-02
41 13  1.07992672311133100D-01  2.76022513237086500D-01  1.38529512807381300D+00  2.41847341845019800D-02  8.03776311316477500D-02
41 14 -6.27927559194768800D-02 -9.44569897780303100D-01  6.75293405752953300D-01  1.33868856675381600D-01  2.84855160797047000D-01
41 15 -1.94082326475792700D-01 -9.07728343212525600D-02  3.05205965193608700D-01  2.25173172448692100D-02 -5.71964664842697400D-02
41 16  2.56655543678140800D-01  4.15964214760867100D-01 -2.75984948795173900D+00 -1.57470691104906200D-01 -1.24402160689799800D-01
41 17 -9.63929528713279300D-02 -7.01687379592907300D-01  1.18704225217491200D+00 -9.56449869575193000D-02 -6.16527380785743200D-02
41 18 -3.08825639913220300D-01  3.70478377991793800D-01 -3.35937431755637900D-02  7.96810357866397200D-02  7.59837676697836000D-02
41 19 -6.29284452063311000D-02 -1.69577553633084900D-01  6.20321700974226900D-01  2.21058532996458300D-01 -3.96313057430033400D-02
41 20  4.34662982831235300D-02  7.36698990317891500D-02  1.85328458854906000D-01  9.51553866491613200D-02 -2.62747769062399600D-01
41 21  6.53607628883534600D-03  1.18336902189251100D-01  5.09138276402094800D-02 -1.54687305270537200D-01  1.40476684699174900D-01
41 22  1.42106205713620600D-02  1.02566512369795800D-01 -3.71560266398032100D-02 -2.14634814511733900D-02  1.69784877873429900D-01
41 23 -1.83676246453521800D-01  1.38913685800912100D-02 -1.32275963477219500D-01 -1.91064875529114300D-02  2.45937495477186900D-01
41 24 -5.01745515987392500D-02 -6.72748908710522800D-02  5.78663266549612100D-01 -2.88259916273909800D-01  5.74540277116133700D-02
41 25  1.20793402691049500D-01  5.68614278785338600D-02  1.43360987111151000D-02  7.74932193455087200D-02 -1.59460745377940100D-01
41 26 -2.56584756826259500D-01 -2.57639895476881300D-01  9.30805531902457900D-02 -1.42537077205027600D-01  1.88668025430040900D-01
41 27 -4.61309482250139500D-02 -3.54229341250324000D-02 -5.09180274875767000D-02  1.23316930558184300D-01 -8.42775989095732500D-03
41 28 -1.13790043948822600D-01  1.22217803839780000D-01 -1.47507394180696500D-02  9.29267454180564300D-03 -1.81965759878234100D-01
41 29  2.70636732958588200D-01 -1.25287007922899400D-01 -2.15973197981466400D-01 -1.11115548464087900D-01 -3.66422798389402600D-02
41 30  4.90075622944458600D-01  3.69049906423955100D-01 -2.80352363295174900D-01  2.44846581466812500D-01  1.39136371023363200D-02
41 31 -4.46620631169671300D-01 -5.51423577227653800D-01 -7.04215753221955600D-02 -1.46928587040273500D-01 -2.72187272611209500D-02
41 32  4.85092983919832100D-02 -2.95270902804706000D-01 -2.68439645919374100D-01 -2.61458317478768700D-02  1.76884415892062200D-01
42  1  5.19498418402059800D-02  1.57799001662688200D-01  6.03611400863248200D-02  1.50540386576025900D-01 -4.91119348762031300D-03
42  2  7.08280149924564600D-02 -3.04780034238604200D+00 -8.33595487257565700D-02 -7.08543245756676300D-03 -1.74725318463641100D-02
42  3 -2.36323786341175000D-02  4.11049104804812300D-02  4.71004743434916000D-01  3.43661322755702300D-02  5.41601724015296500D-02
42  4 -5.36906344236986000D-02 -4.67877573253131100D-02  1.81341470249428400D+00  1.95353855861639100D-02  1.41905532522715500D-01
42  5  1.19089773546976100D-01 -1.07773263525276900D+00  1.19984204591611600D+00 -7.68932313620358900D-02  2.22872870143663700D-01
42  6 -3.23761293638241800D-03 -2.19635257207280600D-01  2.02854749568360900D-01  6.13700968243138000D-02 -6.02226226857333100D-02
42  7  1.16622565690947300D-01  1.69588072072660500D-01 -2.26913316936943800D+00 -6.48385165650777300D-02  3.44275268791748000D-02
42  8  2.19838105108075500D-02  1.62493543614059100D+00  1.52179425769355600D+00  2.23705009710446800D-02 -2.50205881713540200D-01
42  9  5.76743089510393500D-02  1.92531572762500100D-01 -6.12067950453619700D-03 -3.48879397444527600D-02  1.23346384248151400D-02
42 10 -2.01609497468630200D-01 -3.13305330850910200D-01  2.84118355865645700D-01  5.81783739451077000D-03  4.65869147330836000D-02
42 11  1.44668798706224200D-01  3.50110332673508200D+00  1.01068460448043300D-01 -8.75459584784683100D-02 -6.00471857689237300D-02
42 12  5.95113464212300400D-02  5.35839347695129800D-04  1.71548851396419000D-01 -6.38168493407144000D-02 -6.07933125458051700D-02
42 13 -2.08705314007188100D-01 -3.86456614711877800D-01  2.32919241450825600D+00 -4.62963273801947400D-02  6.61904102470623300D-02
42 14  8.62228546487554500D-02  1.39716657571571800D+00 -1.57133221798222100D+00 -4.82683054598598100D-02  2.01704249702457500D-01
42 15 -3.06599858124539900D-02 -1.71044263890001900D-01  1.62660505150755900D-01 -1.18980301883983100D-01  6.46937839411375500D-02
42 16  6.53928277435252600D-02  6.60552852789105100D-02 -1.90797491418447000D+00  6.13713042309305700D-04 -2.41643321869324600D-01
42 17  9.37975743442114300D-02 -1.26268083428850200D+00 -1.07690666530276800D+00 -4.82428758036948200D-02 -4.09912169152969900D-01
42 18  1.60773557903410000D-01  2.49138611249558400D-01  1.54175358297307900D-01  2.93610874994664800D-02 -3.45794437350091700D-02
42 19 -1.40749785913440700D-02 -5.77067533378489200D-02  6.36088024257021600D-03  6.07341043103511200D-02 -5.26518000489657400D-02
42 20  3.14534200448946300D-02 -5.75293549467661900D-02  2.16922957149449300D-01 -4.63957040724285300D-02  5.06925336690656600D-02
42 21  5.25186698754544700D-01  1.59471922942646700D-01 -2.86573167707761400D-02  1.41329552528254600D-01 -2.41166077978669400D-01
42 22  9.98365254504149200D-02 -6.30460979701610300D-03  1.86061497068431800D-02  1.48904973623353200D-02 -1.55518644867836600D-02
42 23  5.26914606225185100D-02 -3.71395961357356700D-02 -1.88150422578861000D-01 -2.77406704868097700D-02  3.54078299523693300D-02
42 24 -5.43706631741060300D-02 -1.40087131530780100D-01  3.72654429359569700D-02  2.30476921379004000D-01  2.17745117003548100D-01
42 25 -1.79522017658265900D-01 -4.93712016868326000D-02 -6.46228106839272300D-01  2.61492576850911200D-01  6.25296025543312000D-02
42 26 -2.10087656593144800D-01  2.30264553155729800D-02 -7.12694211916078000D-02 -1.59926835382232600D-02 -2.25077461856540600D-02
42 27  3.85004297238769300D-02 -1.26544087920053600D-01  9.99471668158538600D-03 -8.14125595428858700D-03 -1.75782775130510100D-01
42 28  3.28522992228281500D-01 -1.52740217097771200D-01 -3.05155696486010000D-01  4.29967666635631800D-02 -3.48452399956674900D-02
42 29 -2.89897714877352400D-01 -4.32904744056002300D-01  1.44237317203163900D-01 -4.35921417757229500D-02 -1.43114624500665100D-01
42 30  9.38646931552526700D-02  1.69219462908676600D-01 -3.63902224154561400D-02 -1.50296984295878600D-01  1.12026079147891500D-02
42 31 -1.29173771283070900D-01 -3.88091034645657100D-01  6.89611204891690900D-02  1.45803484759971700D-01 -8.38779823241647800D-02
42 32  1.63392144875454400D-01  4.96124015768669400D-01  2.33365865381749600D-01  7.24335231347450300D-02 -1.02376964154051000D-01
43  1  6.81597090870048900D-02  1.05065028871003100D-01 -6.32680961204208100D-01 -1.44607637891031100D-01  2.81002489706175400D-01
43  2  6.05918893129799400D-02  2.08603398961036200D-01 -6.02079079406910700D-03  3.86180283741467000D-01  2.83515343746524800D-01
43  3 -1.35873537343684100D-02 -2.69927990012155600D-01  9.32168588753916000D-03  5.56320303863615500D-02  1.25908692879189200D-01
43  4 -2.42735569641362600D-03  7.85843534538031700D-02 -4.54287039027289200D-01  5.54595674090312400D-02  1.36633614550754500D-01
43  5 -4.41764703726925900D-02 -1.98014232780377000D-01 -1.25526790481658900D-01 -1.32820506916004300D-01  3.58141154297830800D-01
43  6 -1.86235297206834000D-01 -1.71905857090997100D-01  7.83710508841563300D-02  1.33566572306413100D-01 -7.62767216876818200D-02
43  7 -7.37941253486203400D-02 -1.69789442746227200D-01  1.64963089317349900D+00 -5.79906309892937200D-02 -1.73579681544400500D-01
43  8 -5.01133887088749600D-03 -5.34924019640355500D-01 -2.59501812083549200D-02 -8.54636550880273300D-02  4.10743889136231000D-02
43  9  2.07857088745289200D-01 -2.48931477658911800D-01  1.24946081708306000D-01  7.69776769263257500D-02  2.50597754902363600D-03
43 10  4.10335179556303800D-02  6.92179287025263400D-02 -5.73975320201776000D-01  3.65370319555392300D-02 -1.28577790688546000D-01
43 11 -8.33045833721249900D-02 -1.48057430257530200D+00 -5.23348966241547000D-01  4.83463433817747700D-01  4.39613141525919900D-02
43 12 -8.97645857794148700D-02  4.58032716268227200D-02 -1.63102622576481400D-01 -2.31880325422012300D-02 -6.50831546955599500D-02
43 13  6.25261745504951400D-02  1.58896600060855900D-01 -1.39928448887406900D+00 -1.23857945238910600D-02 -2.74243731112152500D-02
43 14  2.50518548367931600D-02 -3.72960377350008700D-01  2.11017361502711400D-01 -1.91372454420998300D-01  1.90555958145894500D-01
43 15 -1.16063737644764900D-01 -7.44922205011303400D-02  2.36203123437576900D-02 -5.08728743561820900D-02  7.69936184130020200D-02
43 16 -1.93241561543223000D-01 -4.21998767802696500D-01  1.05553511451181500D+00 -1.39755508812512500D-01  2.06303972115116400D-02
43 17 -4.15917889744669000D-02  6.70513400508793000D-01 -2.53050174153722200D-01 -1.18975556077074300D-02  6.62347975501598200D-02
43 18  1.76488537563896600D-01 -2.42723335114055900D-01 -1.08879507031642800D-01 -1.74879642780359600D-01  3.05102858804512000D-02
43 19  3.07957852381002900D-02  6.16185748325264700D-02 -4.69731771600158800D-02  4.88649909632711500D-02  5.52712721229915300D-02
43 20 -2.41272337774162200D-01  9.61857504056071200D-02 -6.54402843399524800D-02  2.96650718914220200D-01 -2.83768308575823300D-01
43 21  1.21195387553848800D-01  1.65068845179926600D-01 -7.59192814261304300D-02 -4.17101519838043200D-02  5.81332327242636100D-02
43 22 -1.64230807404594200D-02 -5.79462098118810200D-03  3.19950996837300200D-02  6.60336154499731300D-02  9.32994978991965300D-03
43 23  5.15989868882327400D-02 -6.09289366781522600D-02 -1.26410098556419300D-01 -6.29859441930897700D-02  1.40101349317277800D-01
43 24 -9.73216402926374400D-03 -6.66035736739449400D-02 -1.51893364673596600D-01  6.68707717155278100D-02 -6.08615313754871400D-02
43 25  5.39247158766033400D-02  7.59860734020973300D-02  2.89927457325544100D-01 -5.18278124606418500D-02 -2.68956549342502300D-01
43 26  2.99247534560082400D-02 -9.90544654958392400D-02  1.90122152007050600D-02 -3.49943298983761800D-02 -4.15253582504463700D-02
43 27  7.65196881488229100D-02 -3.20141928787066400D-01  1.77788997382244900D-02 -6.79600194121357400D-03 -8.63116085796458800D-02
43 28  1.50644509258520500D-01 -6.43329006788746800D-02  2.36678283356687700D-01 -7.96037119254561600D-03 -1.56791791632539000D-01
43 29 -1.00823257754111200D-01  2.08056916082421700D-01 -3.28317733802698900D-02  1.24783126727637000D-01  1.58959650308567100D-01
43 30 -1.03786022401507800D-01  1.92619471295936900D-01  8.20280079102619400D-02 -1.45527186906221400D-01 -7.96269281210162800D-02
43 31 -1.39530372400493300D-01  2.44050154888056900D-01  3.23936544977894100D-02 -7.23029364714573200D-02  3.27371098239758300D-02
43 32  4.25345924754005000D-02  1.63356609097325200D-01 -4.49466820241368500D-03 -1.23961347859426100D-02 -6.13802818069181500D-02
44  1  1.55087475440420100D-01  3.26621576021866700D-01  3.03108160316058300D-01  3.96646913731421100D-02 -3.80523555884488600D-03
44  2 -5.91712429021710900D-02  2.65097486261164500D+00 -4.19662553187368800D-01  5.66321048748850000D-01  3.86482898885908400D-02
44  3 -9.55033591782159900D-02  5.68550692896245300D-02  1.12472364863326100D-02 -9.20637245951130100D-02  1.10762943101215600D-01
44  4 -4.28265772765020500D-02 -8.31408139435409900D-02 -3.46206674021849600D-01  6.72156231921066100D-02 -1.00420407827428200D-01
44  5 -7.83715544837582400D-02  1.43694131269356800D+00 -1.54317519765309900D+00 -1.21211095182242000D-01 -2.76121035450197400D-01
44  6  1.42097756933639000D-01  1.34023278516559000D-01  4.35722230824780200D-02 -6.49918609567403700D-02  4.54697946775351500D-02
44  7 -7.58899721669451000D-02 -2.08838757893754900D-01  5.25307463035501100D-01  1.38239113090425600D-01  2.06221579303570500D-02
44  8 -2.35303303127999700D-02 -5.51648564682305300D-01 -1.77759650973495800D+00 -9.56221858511039400D-02 -3.58797239687736000D-01
44  9  1.63768089038430200D-01  1.95029150649306800D-01  7.89169292155605700D-02  9.40792170181721900D-02  9.29993106464777900D-02
44 10  2.65152893914582700D-02  1.96977212329151600D-01  9.08863362808673800D-02  2.43453017809890200D-01  1.16768509239397400D-01
44 11  5.64351360147348100D-02 -2.67605350317261300D+00  2.43112616634489300D-01  4.25056365564182400D-01  5.49549235744027600D-02
44 12  1.36300154614963300D-02 -6.85849390358997100D-02  5.33920176879145800D-02  3.09537801781015900D-03 -7.00905057040829300D-02
44 13 -6.48657420052400300D-02 -1.47485047257714900D-01 -5.44851874494962200D-01 -1.71609015769882300D-01 -1.42433187690064000D-01
44 14 -1.57256316045551000D-02 -1.11586024549014600D+00  1.45667830380914700D+00 -4.35267498581502000D-02  1.89164229294130600D-02
44 15  7.79758299922356700D-02 -9.68922529216489900D-02  1.96544739515030900D-02 -1.14451190959588000D-01  8.48281761975787500D-02
44 16 -8.58443334165362600D-02 -1.27746824701373100D-01  8.24847523666970600D-01 -1.94267780034445500D-01  8.66367018576511100D-02
44 17  9.09401603974527300D-03  1.09206325153460500D+00  1.26627878261342000D+00 -2.90898561616495800D-01 -6.77473719694451900D-02
44 18  7.45969612358903400D-02 -6.84958926644456800D-03 -3.43605179572563300D-02 -8.02721778423892600D-02 -4.42626376549910100D-02
44 19  4.46092525539035300D-02  1.15324613822987700D-01  1.37592362368906400D-01 -1.70210835387537500D-01  1.05647289662331000D-01
44 20  1.30642893634296500D-01  6.54328694450491500D-02 -5.93974750636780600D-01 -9.91067374810390900D-03 -2.62921559652781200D-01
44 21  2.93797252495825700D-02  1.48898529059075500D-02 -8.93662154425963100D-02 -1.90240089563379000D-02  1.60604917245964400D-01
44 22 -1.41580908289626800D-01  3.69279942611165000D-02  2.95674170926653500D-02 -5.20724297460492500D-02  1.63782755848084600D-01
44 23 -3.60246401038302500D-01  1.96463645190218100D-01  1.87879650228473700D-01  5.93190595074063200D-02  2.37281791428084700D-01
44 24 -9.09820544059052300D-02 -2.36164390683696600D-01  2.88101520274027500D-01  7.71725130118105500D-02 -5.98795933606762400D-02
44 25 -2.65913488101850600D-01 -1.12761540888818500D-02  4.68651740903594000D-01  2.39356139618874500D-01 -1.75256215982779700D-01
44 26 -3.53331537550717100D-02 -8.85634114961255800D-02 -6.33395264235408300D-03 -2.97249674616499600D-02  1.01840082009069000D-01
44 27 -7.21151145474186300D-02 -9.35021126745200100D-02  3.27648535331545700D-02 -1.66734516876804000D-02 -3.24250898854896400D-02
44 28  5.23311211736868000D-02 -1.99060312881971800D-02  2.31318584195465700D-01  2.79399674139693300D-03 -3.44084152561578800D-01
44 29 -2.20529369376465700D-01 -9.67098602292310600D-02 -1.14209545179574500D-01  2.01275224590764800D-01  1.61783643240597600D-01
44 30 -8.83847480026751800D-02 -3.62855982905254600D-01 -1.70639639707901700D-02 -2.21121813771470200D-01  1.24742259999077800D-01
44 31 -1.79161428146057200D-01 -1.51321840784328800D-01 -2.24205069842256500D-02 -7.56403439435461000D-02  3.18832478019579700D-02
44 32 -1.12654449186056100D-01 -1.80575216471066400D-02 -1.44891159442000200D-01  3.43989320416180800D-02  1.40203230691701200D-01
45  1  4.33804777732624400D-02  6.64780646582845700D-02 -3.66045140273928900D-01 -9.75960755028193800D-03  4.04635523097426500D-02
45  2 -1.71046645706637900D-01 -6.54098796096751900D-02  2.78267423110841900D-01 -1.45516477153225700D-01 -1.26524132415496600D-03
45  3  5.37008148150711800D-02 -5.24355734909159200D-02  3.89089245101085700D-01 -2.27079655562937500D-02 -9.80066731853905700D-02
45  4 -1.28924725984462600D-01 -2.94063601022070400D-01  5.80939673650335100D-01 -1.09744540972831500D-03  6.29056248228783700D-02
45  5 -5.79610464462694700D-02  4.09999320698181700D-01  6.89630382821551400D-01  1.34322981409479000D-01  3.51898917849804700D-01
45  6 -2.13015153444584200D-01 -1.38883764405220000D-01  2.73348932745960700D-02 -1.36385676233981300D-01  1.09576444085515900D-01
45  7 -1.05462979891340900D-02  7.63698868596183900D-02  1.98475633494251600D+00 -1.03369157365362300D-02 -7.90068081058279400D-02
45  8 -9.51594922323217000D-02 -1.05162860450785900D+00 -1.35186777873788800D-01  4.99743590028338000D-02  2.46348920460003000D-01
45  9 -6.31908112080816200D-02 -1.83158109251921200D-01  2.33114942127701400D-02 -7.85539748269064000D-02 -1.21225677114135000D-01
45 10  3.61061803253422100D-02  3.89652612411179900D-02 -4.95184043863983400D-01 -1.06031563812114700D-01 -1.89964368949391800D-02
45 11 -5.11072021956759200D-02 -1.71266107391786400D+00 -4.95916575815302400D-01  8.05829962464055000D-02  1.59959739108650700D-01
45 12 -1.10790950372101500D-01 -4.91687887365493100D-02 -1.61280965623124200D-01 -8.84695489785694400D-02  9.69982799944874300D-02
45 13 -7.44470816704359300D-02 -2.38762826318246800D-01 -9.76404471210121100D-01 -1.31913959671656500D-01  6.49312306031236700D-02
45 14 -3.46767600191522600D-02 -6.02724064394346700D-01  1.71156982819063100D-01 -1.86340486595343600D-01 -2.62450998234410400D-01
45 15  1.43639456266521100D-01  1.18811541967888900D-01 -1.98523210764335000D-01 -2.85339900225647000D-02 -1.13085357256825700D-01
45 16 -4.16592414434832300D-02 -5.05600647412047300D-02 -3.65128025184610700D-03 -4.19072412715972000D-02 -4.40070048384698400D-02
45 17 -5.35768828488405900D-02  7.59929217684194500D-01 -4.59861413248805100D-01  2.46108725257984100D-01 -8.30763872915150900D-02
45 18 -3.47820456700512500D-02  1.17858432961567300D-01  1.15813252604611600D-01  9.72759581007732700D-02  1.37439379987118200D-02
45 19 -3.30385018149219700D-02 -9.51212591522594700D-02 -2.72671095662491900D-02 -1.35755962366690200D-01 -1.73717809373105600D-02
45 20 -1.04332348656321600D-01  2.89568032375171900D-02 -2.69659422260853700D-01  1.83484404845103600D-01  3.70360082176843000D-02
45 21  5.98388109648522900D-02  8.90641190569638100D-02  9.44224711658425100D-02 -7.79148047316643700D-02  4.12410750661538100D-02
45 22  3.66737296655111600D-02 -8.10376100483185000D-02  2.44988224845828700D-02 -1.32990913497945100D-01  5.77323110602398600D-02
45 23 -9.54689205106741700D-02  3.77366094504342800D-02  4.26007757593360000D-02  3.14928624192435500D-02 -2.66476999402066700D-02
45 24 -3.44499240833337200D-03 -6.74582834493877400D-02 -1.99206174730994700D-01  8.23665190206029400D-02  1.97105813066660900D-01
45 25  9.47404704529681100D-02  3.41134502690994300D-03  5.97788478132061900D-02 -1.81144500195380500D-01 -2.75173621759100400D-02
45 26  2.29531412569650600D-01 -4.74617754156581000D-03  1.22482641596210400D-01 -3.68928635508970300D-02  1.19153943872961000D-01
45 27 -8.22610803220640600D-02  1.05362829331846200D-02 -4.90587557709921100D-03  9.26105874919096700D-02  5.84948141592106400D-02
45 28 -8.21773544194001800D-02  2.36825402601895700D-02  6.47054546440117600D-02  8.49538855256196200D-02 -1.55756404270193800D-01
45 29 -3.94921444161532400D-01 -3.94579853451905300D-01  3.58732559617346600D-02 -2.26840672062101100D-02 -3.09579079469941200D-03
45 30 -2.36666052439552800D-01  2.61715413149101500D-01  1.00831576718687500D-01 -2.70273181171925200D-02  7.02190214077581300D-02
45 31 -3.34221765600979700D-02 -1.45718586137450000D-01 -1.36702567278709800D-02  8.34186296265968700D-02  1.19148012947787500D-01
45 32  1.86456341199958900D-01  5.85353710173208800D-01  1.25419073576847300D-03 -9.22022075940554500D-02 -7.46792782736609400D-02
46  1 -8.46023775168191100D-02 -2.27203711327730000D-01 -4.25001751071953100D-01  1.54733441543139900D-01 -4.94510445301745500D-02
46  2 -9.76711078377023200D-02 -1.79336200211431000D+00  4.83801720402533600D-01  2.97745357758314800D-01 -1.16975237235397200D-01
46  3  2.07573237047316200D-01 -9.05979998119183500D-02 -4.19906088816347800D-02  4.87726913455390400D-02 -7.17412669441093700D-03
46  4 -3.23211643766914800D-02 -5.01649275760067100D-02  7.44325974507081500D-01 -1.35878676563250800D-01  2.04091164723534700D-01
46  5 -8.70072284732149000D-02 -7.68744028150040400D-01  7.83603513343207500D-01 -1.51188487490436900D-01  6.32154550919699800D-02
46  6 -1.00170878070735400D-01  3.69554229787654800D-02 -1.19097592966475200D-01  5.87209377381420800D-02 -2.92527962549984100D-02
46  7 -8.18522105010546800D-02 -1.23018095497445000D-01  1.59662252502470900D+00 -4.19595624908869200D-02 -7.36200609022500700D-03
46  8 -6.65046641365602300D-02 -1.77227395801274000D-01  1.71877472689193800D-01 -1.24242524280614600D-02  7.59713235742547900D-02
46  9  6.59402000605008500D-03 -8.25653435803058200D-02  1.72365466604547800D-01  7.08976223865795000D-02  1.33975371409849600D-01
46 10 -1.22684759061743900D-01 -3.25917491712898700D-01 -2.96169063665933200D-01 -9.92291650812409100D-02 -4.72204949609525200D-03
46 11  4.98793685982763000D-02 -6.81675986089703600D-01 -1.13935477557557900D-01  3.27156037935816700D-01 -2.07316487819520200D-01
46 12 -8.95200369121239300D-02  2.96836524731643800D-01 -7.47718686682193600D-02  1.65442034955454800D-02 -1.12029371051352600D-01
46 13  1.90947591350761400D-01  4.15149182214153000D-01 -1.06932264551957500D+00  4.83627903894104600D-02  1.26134268066952100D-01
46 14 -6.11277205433989600D-03  1.53837713120747500D-01 -2.72733963795737000D-01 -8.96919666840172600D-02  1.79295499669185000D-01
46 15 -3.00396979125174400D-01  1.21101479455989400D-01 -1.56984876558674100D-01 -1.33725766357496800D-01  6.64517946744103100D-02
46 16  1.13709284839234600D-01  2.13021434990034900D-01 -3.05948790570865200D-01  1.96424112439438000D-02  4.41001484106262400D-02
46 17 -8.28749390231781500D-02 -4.92563929029633300D-01 -5.25004562347164100D-01 -4.31935028604672900D-02  1.03000636789268400D-01
46 18 -1.89880662798000700D-01  8.68800260087323600D-02  2.25195134502207600D-01 -2.51353588988436000D-02 -3.17925858468871700D-02
46 19 -6.89000824223199000D-03 -1.97942195895264000D-02 -2.83938305754370700D-01  1.32494320715957300D-01  2.76002747966301100D-02
46 20  1.30628981097408200D-01  1.46773557676580000D-01  3.27865895805985500D-01 -2.89311153896715500D-01 -2.01139023215457900D-01
46 21  7.57059174789413400D-02  1.38279405509413200D-01 -1.09447451054454000D-01  1.45761341745593900D-01 -1.17458082994877100D-01
46 22 -2.83032587507163200D-02  7.75453707337514400D-02  4.51017132598397300D-02 -7.78480506367537800D-02 -2.36322850261175100D-03
46 23 -3.16272393799719600D-02  3.39904678825836600D-02 -1.29240993957856500D-01 -7.28822941322909700D-02 -1.26179757515374600D-01
46 24  5.46354677900911900D-02  1.36994373302067200D-01 -9.28285535314996300D-02  7.73354886526894200D-02 -4.84019329953612400D-02
46 25 -7.45266713411325300D-02  2.63328048142098700D-02  1.73948783215525900D-01  2.24760018009572200D-01 -1.81750619770854900D-01
46 26  1.07969420441321800D-01  1.66057128225994000D-02 -5.03080463318461600D-02 -2.29629581083951800D-01  2.04277684183563400D-01
46 27  2.53518969003883700D-02 -8.60142900476699700D-02  5.37886025358999600D-02 -1.28566050725227900D-01  4.55864798323120000D-02
46 28 -1.39842744665474700D-01  9.42562648331628400D-02  2.58627238424770600D-01 -6.90535175080781700D-02 -1.33426786674324600D-01
46 29  1.07551704021026900D-01  3.94253978363320100D-02  4.41324373293621500D-02 -2.16290162130777500D-01  2.20717635420485500D-01
46 30 -4.46051407088375300D-02 -1.13003195868736100D-01  9.36048983355518400D-02  2.81956909223864800D-02  1.57298953162570600D-01
46 31  3.90174173884585300D-02  9.57155499544998800D-02 -4.76305064034455100D-02  7.13241019536114400D-02  3.31446476695480800D-02
46 32 -1.82383858988630100D-01 -4.71065628614207400D-02 -1.23981596451294500D-01  8.08209906098310700D-02  1.30179012784395400D-01
47  1 -1.09314925787363000D-03 -3.51224443358439500D-02  3.72749048405915600D-01 -1.64668971146809300D-01  1.94685650820886500D-02
47  2 -2.13549774509921900D-04  1.65217245364096900D-01 -2.38352642919830700D-01  2.33770881395293800D-01  1.02940040410180000D-02
47  3 -6.75892754372687300D-02  5.72952713962489900D-02  1.40217118333650700D-01  6.01822504996910300D-02  1.65659847397307100D-02
47  4  7.97243019414182500D-02  2.69935593743194100D-01  8.25916941887274700D-01  6.37018739925077900D-02  2.00871338637797800D-01
47  5 -3.16475261786721500D-02 -3.63814664845509900D-02 -1.15786268635804500D+00 -9.55648369182328000D-02  1.14100720819685300D-01
47  6  7.78953659162049000D-03 -1.21890257411304900D-01  6.51039102918496800D-02  8.72099363468354500D-02 -1.02910791037253700D-02
47  7  3.43013186606594000D-02  7.73119582330332500D-03 -1.52200040573732000D+00  4.71208894202255500D-02 -1.53910971933624900D-01
47  8  4.82464670874228000D-02  4.11165066421216500D-01 -4.05077162987098700D-01 -2.73723163711618300D-03  1.59076970235906500D-01
47  9 -2.19659312315933800D-01  6.05823420800268600D-02 -3.55592874227801000D-03  7.97002727355124000D-02 -5.48945013545168400D-03
47 10  5.24641142727466000D-02  1.43821095146223300D-01  8.16337190538227500D-02  6.42110861752242000D-02  3.94836622586323300D-02
47 11 -1.05795711727423500D-01  8.47186342933750300D-01 -4.52770252827152300D-01  6.86151112913362500D-02 -5.77221795661641600D-02
47 12  1.44492208008697500D-02  4.32729587652947700D-02  1.77793013818789000D-01  9.44871611717521300D-02 -5.10883556645958200D-02
47 13  8.37558390875047700D-02  2.24110060829137700D-01  1.53394787619419200D+00  7.73172895717787800D-03 -3.90762785382574500D-03
47 14 -9.47134483696963900D-02  3.33308259550834900D-01  4.29804518799568100D-01  1.59918052934343100D-01 -5.15832912487441000D-02
47 15 -1.28850774108012200D-01  1.80434065356757200D-01 -1.08132374337680500D-01  1.72835048446698100D-01 -5.54379801551279300D-02
47 16 -6.15583573957695500D-02 -2.13525365715504100D-01 -8.31081917423600700D-01  2.40005678488070500D-02 -3.02206823409205200D-01
47 17 -1.06593439384952100D-01 -4.45917401965888000D-02  1.07665287244027700D+00 -3.21686655626167600D-02 -2.35817030644632000D-01
47 18  7.40201406744298000D-02  1.61796889970202000D-01 -1.31161841845560200D-01  6.84887612966937100D-03  7.95715547211430900D-02
47 19  7.60787461353632800D-02  1.94832300093698000D-01 -5.41179409478604300D-02 -1.70699595069928800D-01  1.44212352971271600D-01
47 20  2.95088191181907700D-02  4.01013188985363100D-03 -1.32716483502403600D-01  4.76267279377311900D-02 -1.02398760189876000D-01
47 21  3.96444124131231900D-01 -3.92712331610508600D-03  2.75642859473979500D-02 -2.96612693040002400D-01  2.19215102080912900D-01
47 22  7.73975909590893700D-02  1.16469094689096200D-01 -7.18932714070265200D-02  6.54992276118789600D-02  7.13319396572048100D-03
47 23 -1.69483195022070600D-01  1.62350001056350200D-01 -5.52427045629792400D-02 -3.58367923303242900D-02  1.72377129050980200D-01
47 24 -3.73605438756898700D-02 -1.22950170027781100D-01 -1.40625928671165100D-01 -1.33229345686475100D-01  1.20488433475751600D-01
47 25 -2.45329365794762200D-01  2.02197419149107800D-02 -3.15987943188110400D-01  2.02138617726405100D-01 -3.36137513446753100D-02
47 26 -1.13625440738006800D-02 -2.33356340722132700D-01 -5.64684935810679900D-02 -4.74206082501102300D-02  2.65311563875870300D-01
47 27 -2.17890955625760600D-01  1.01629678683511200D-02 -9.27145759561303900D-02 -1.58639698817391700D-02  2.19272483737378300D-01
47 28 -1.72371199883362500D-01 -4.69012838540159200D-02 -1.74710613045732000D-01 -3.46774188000045900D-02  9.23362542628553900D-03
47 29 -1.90651863592251800D-01 -6.05679359274089200D-03  1.47197747668376100D-01  1.41812328164876900D-01  5.24485432669265300D-02
47 30 -1.31950576241231800D-01 -1.64834985352580300D-01  1.78372874081802400D-01  9.71892013326682600D-02 -1.50839144148122600D-01
47 31  1.12525498847206000D-01  7.41302744822971400D-02 -9.66251795144802800D-02 -7.81503338780096400D-02  7.86784420739418700D-02
47 32  4.80898501061655000D-02  9.10152904473454200D-02  1.72800191946649900D-01 -1.47031869642887500D-01  1.38004183151194700D-01
48  1 -9.67483532581691500D-02 -2.03755172300232200D-01 -1.27260914197156800D-01  3.02441722096320000D-01 -1.25966421435279100D-01
48  2 -2.40724961596229600D-02 -1.25766184842880100D+00  1.34540272342616200D-01 -5.17722334131211200D-02 -3.33588608020312300D-01
48  3 -3.71253417569188600D-02  3.70713949777232800D-01 -6.64422622046593100D-02 -4.67004540457964500D-02 -3.77137196201251800D-02
48  4  7.51376285528748800D-02  1.17115793880239500D-01 -5.81953569834540400D-01 -1.46149261312164400D-01 -4.18219993586167400D-02
48  5 -3.87127923780691200D-02 -3.72033303483089700D-01  1.29850557172579100D+00 -1.36921369674148000D-02 -4.81460111797092200D-02
48  6 -1.48168122990727000D-01  1.96314134170435800D-01  2.12192975931485400D-01 -3.21982584383160700D-02  1.24583179557128200D-02
48  7  1.69323327699946300D-01  4.01981650195361300D-01  5.65612401158316900D-01 -1.02276442182993600D-01 -1.56645552393713400D-01
48  8 -3.44189335596846200D-02  7.71626034991753800D-01  1.26248331114288000D+00  6.65411358083530900D-02  6.31512660529522900D-02
48  9 -1.52647695805278400D-02 -4.78864964724248100D-02 -1.99298041666342900D-02  3.76803006816246000D-02  8.61668697142875900D-02
48 10 -2.15964979020978200D-02 -7.21852241910244500D-02 -1.20633256341131400D-01 -1.26624358809729900D-01 -1.30742076877673300D-01
48 11  5.10932728174046300D-02  1.05996512771998800D+00  2.99765779976041800D-02 -2.29472943055730400D-02 -5.90304525111962400D-02
48 12 -9.45028199427227600D-02  1.53533272453919200D-01 -8.39138336316372900D-02 -1.63111645593104600D-02  5.80881049838000100D-03
48 13 -4.79423103535000000D-02 -1.32322843687521500D-01 -5.38404623743277000D-01  1.52612105735732100D-01 -1.42167450049374700D-02
48 14  7.24103641482443400D-03  7.90390601936708700D-01 -1.09628786977490600D+00 -4.02101714432540100D-02 -2.14899688025420700D-02
48 15  8.70860800457097200D-02 -6.55961112431682200D-02 -1.22182641633348700D-01 -7.35824390011975600D-02  4.80500792543674700D-02
48 16 -4.77910013347401200D-02 -5.37685043832615400D-02  6.78331126188585400D-01  1.37275236914516600D-01  7.58117523709338200D-02
48 17  3.01313258515791700D-02 -3.95002481751531300D-01 -1.25704385600190600D+00 -8.02264404548027800D-03  1.24723250867730000D-01
48 18 -6.74138678174809600D-02 -5.73093830502489800D-02  1.63644703859961200D-02 -9.74751633845835200D-02 -8.17942619708164500D-02
48 19  1.10809469204500300D-01  3.04877048484958300D-01 -1.77044606995804100D-01 -6.31684014485833500D-02 -4.27920063666809300D-02
48 20  1.30873608818270700D-03  5.01309953695870000D-02  2.20725095362646300D-01 -1.70514881933531600D-01  3.61842792164775400D-02
48 21 -1.32817371860953700D-01 -2.71410244165609400D-02 -1.26521703091897400D-01 -1.81484846326814700D-01  1.46532171789099500D-01
48 22  3.49526745377162200D-02 -2.77614467527123400D-02  5.32557079039641600D-02 -6.27138045220013400D-02 -2.48947148050053000D-01
48 23  2.44582491740163900D-01  4.36465630988908100D-03  2.55880766709261500D-02  1.28017119126524600D-02 -2.30577973557698700D-01
48 24  9.31401587392576700D-02  1.89639720929432700D-01 -2.88427058912397100D-01  2.75099465022397900D-01  5.78465678793837900D-04
48 25  1.00949713520077400D-01  9.37524780937407100D-03 -1.19967256596323000D-01 -1.91556295920889700D-02  8.13699412127644500D-03
48 26  2.73092444856821300D-01 -2.59066358574185500D-01 -4.82259709238038700D-02 -4.79734323353737700D-02  1.73724161847338400D-01
48 27 -1.25750729511964500D-01 -1.13432536169351200D-01  3.71820220445789300D-02  8.00653032508013900D-03 -4.08113557485994100D-02
48 28  1.48287656780286100D-01 -1.07476301031686700D-01  2.30624619302849700D-01  3.52906486076768400D-04  5.78124374860741300D-02
48 29  6.59286000096535200D-02 -2.59642246707351700D-02  1.54715942064308700D-02 -1.24749552096341500D-01  9.56892655130827700D-02
48 30 -4.77606120333381500D-02 -2.88779375116987400D-01  1.29919230179815100D-01 -2.39492121008170400D-01  4.94984013890024500D-02
48 31  2.07627482911878800D-01  2.83394731519492100D-01  1.05471869856408600D-01  7.88374043594844700D-02  1.19896762974876600D-02
48 32 -5.38128496113628700D-03  1.09001009350478600D-01 -4.16870730282353100D-02  7.53214853857064700D-02 -4.34265944300237900D-02
49  1  7.37768759967598200D-02  2.20010182628211000D-01 -6.30827086342878300D-01  1.86408287045258000D-02  1.54974817477844500D-02
49  2 -6.20140476296674400D-03  6.68891115152759500D-01  1.93398445938768600D-01 -5.34475532521276300D-02  1.85056302236142600D-01
49  3 -2.30371788464072300D-01  4.53154862279299000D-02 -5.53390342153329600D-03 -4.52383173674401300D-02 -1.10945903175823900D-01
49  4 -3.93979524664678300D-03 -7.81012696822177100D-02 -4.92992060622715900D-01 -1.05090252554652700D-01  1.00548272728355400D-01
49  5 -7.66448920708491900D-02  3.72079599317145500D-01 -1.40095974830137400D-02 -9.87576075000250500D-03 -3.56894339557654400D-02
49  6  2.41927301481376500D-02  1.14967038076274900D-02 -5.39883967172554400D-02 -3.52885820013788600D-02  7.97315150383074300D-02
49  7 -8.55874956877594700D-02 -1.03945703695746500D-01  1.59164518365016400D+00 -1.06412534553467100D-03  4.20837961886252900D-02
49  8 -2.46734790038118600D-02 -3.06779368167266900D-01 -2.48261008490361600D-01  1.26307915075424600D-01  9.90056248199497500D-02
49  9 -6.58382790015129600D-02 -3.31673458184361100D-02 -2.31144212380276900D-01 -6.83887064413294400D-02 -3.53816799754855100D-03
49 10  7.84729153589222400D-02  2.20119416168617300D-01 -5.42280701305505500D-01  3.17768287631094300D-02 -8.17935848025190000D-03
49 11 -8.42691851960025000D-02 -1.39636332493985700D+00 -2.23119901024898700D-02 -2.66957393153143700D-02 -1.54209532753451600D-01
49 12 -1.37907354862871600D-01  2.92116887616322800D-01  6.19726113173246100D-02 -1.67014915588258300D-02  1.87483125563803500D-03
49 13  3.56344841154996000D-02  4.68954640982363400D-02 -1.16566270729952100D+00 -7.03432614988864200D-02  8.54240042185129800D-02
49 14  3.76774277013598300D-02 -6.05620747237780100D-02  3.15761316651208100D-01 -1.20022016368423800D-02 -2.15549670249800500D-01
49 15  1.35149314348197700D-01  8.04003559016020500D-02 -7.05475112094881700D-02  2.29523329533964300D-02 -3.24313979850647500D-02
49 16 -8.05235047264494500D-02 -1.54353244073171200D-01  9.06761338975342800D-01 -1.19572238657404400D-02  5.47372391302441800D-02
49 17 -1.79492296130948200D-02  4.55061822654370300D-01  4.64192473476926200D-02  2.39336874389068700D-02 -7.73259895528896600D-02
49 18  8.49812920449039000D-02 -7.65530249201355800D-03 -5.67912348399811800D-02 -9.59808839854401600D-02 -3.87284154678623400D-03
49 19  6.31543307060819800D-02  1.16205998447472100D-01 -7.85983065282440700D-02  8.07732929286578600D-02  5.91711856582664400D-02
49 20 -3.09512191901652000D-02  1.20745639553601800D-02 -1.70920715981392400D-01  2.49338928920989900D-02  3.03826644569269000D-02
49 21 -1.08951588598196800D-01  9.96843324595914800D-02  5.47992136389196700D-02  1.28547462247163400D-02  1.38717043954429000D-01
49 22 -1.51571790179145200D-01 -7.32271302196546000D-02  4.06839276747800200D-02 -7.05777548019311500D-02 -8.06639855182636100D-02
49 23  2.79471056008273200D-01 -1.98807070490009500D-01  1.55117988012867600D-01  2.65933310295390600D-02 -7.64117207649694600D-03
49 24  5.96703705613759400D-02  1.45639370481207100D-01  3.17072817219853600D-02 -4.33073251077874500D-02  2.32556102327749200D-02
49 25 -9.13976697276093200D-02  1.21263350696455300D-02  2.35186363371001500D-01  5.97203947205191500D-03  1.84326447343238400D-02
49 26  2.97610290338187100D-01  1.68857773816328400D-01 -2.58164025104137300D-02 -2.43755782951711800D-01  2.24406546977282800D-01
49 27  1.93492359744293500D-02  4.32887693591066700D-02  6.15976318508601100D-02  4.42326836812498600D-02 -2.01278568382828500D-01
49 28  9.80447480151832400D-02  1.03233820367645300D-01  1.83651593880563400D-01 -2.25726449357610000D-02  5.29040812141810000D-02
49 29  1.96903070521203100D-03  3.35191996906335600D-02 -3.63156658954983800D-02  1.51247758920243900D-01  1.20827326266138200D-01
49 30 -2.54694475461641400D-01 -2.20662931841055900D-01  4.56952779406658200D-02  2.49844466051724000D-02 -3.86410090483600000D-02
49 31  1.85480404446362500D-01  3.48842876983048100D-01  2.58690721851145000D-02 -3.59664885242263800D-02 -8.43363673593455800D-02
49 32 -2.35248244240679100D-02  5.23819322120977000D-02 -1.11499433615497700D-01  1.69764343906568200D-01 -3.46965787474387600D-02
50  1 -1.44780799031873800D-02 -1.44470461434391200D-01  2.96308395083966900D-01 -5.31546482931855300D-02 -7.52858682892019000D-02
50  2  1.34994439888622000D-02  4.71458374981796200D-01 -2.14232738028500400D-01 -1.27260275653161900D-01  6.54612215322891300D-02
50  3  1.80818869810365300D-01 -2.46280091342654600D-01  2.73356532670096700D-01 -1.88770125133891900D-02 -6.03556084198591500D-02
50  4  5.18356234025530600D-02  8.74968546841076200D-02 -3.78141712069782800D-01 -5.08337074369182800D-02  2.55421003630038200D-02
50  5  1.94571860778387300D-02 -1.44150129102932100D-02 -2.62432743862160300D-02 -1.56161714708669500D-02 -2.80187128817285000D-02
50  6  1.05844683214020600D-01 -7.78259703322924000D-02  7.62184875190761600D-02 -3.41841879954279000D-02  4.65555229603221900D-02
50  7  1.06862591237986000D-01  2.18725797391267400D-01 -7.80523888624641300D-01  8.99749468416716500D-02  5.55246293416166000D-02
50  8  2.60826307111878700D-02  4.80402361841455100D-01  1.46760497014403500D-01  7.73598753499651300D-02 -2.39018025590194300D-01
50  9 -4.90399284310366300D-02  2.88057954021230900D-01 -4.42256998332193200D-02 -6.42122488073711300D-02 -2.47819296470467700D-03
50 10  5.01387520063188400D-02  1.95944215218382400D-01  1.53804332792697100D-01  3.73616552291493000D-03  8.61528842250669600D-02
50 11  3.53246385895898800D-03  7.93958349985595600D-01 -4.11471375483142200D-03 -1.63288515228598200D-01 -1.79253902953807200D-01
50 12  2.67573893752798600D-02  1.52496513578527700D-01 -6.81861034730260100D-02 -3.70410107933082100D-02  3.43040326610047100D-02
50 13  2.47146957847972600D-03  2.80627938525969500D-02  4.51740550540959500D-01 -8.31101648260897700D-02 -4.04816966076760000D-03
50 14  4.71973907827200400D-02  2.22624810379165600D-01 -1.50900494276705800D-01  1.12011492364523600D-03  9.72858139375391100D-03
50 15 -2.13029768767388900D-01  2.03301187373635000D-01 -4.08710707385321200D-02  1.51916367958741600D-02  2.75760938030730500D-03
50 16 -4.43724612468536400D-02 -1.02803103502519400D-01  2.35551242721687600D-01  1.16104719160160400D-01  9.63813262016825600D-02
50 17  3.05002719260073600D-02 -1.16126567197806900D-01  1.23864633042750000D-01 -1.82040465998367800D-03  1.13690031693300800D-01
50 18 -1.06471530671532600D-02 -1.03042878626147800D-01 -8.75405660019716700D-02  1.01925555439244000D-02 -5.22874649806460900D-04
50 19  8.04408109807768200D-02  2.38979218268562100D-01 -1.52306465371069500D-01 -1.12963129301774300D-01 -9.68937294486826300D-02
50 20 -1.78900795720042900D-01 -4.93044568639580100D-02 -1.72932220618274800D-01  1.08628116839042100D-01  1.06028743928050400D-01
50 21 -6.64271561951066000D-03  9.32293858131605200D-02  5.82366714021050500D-02 -1.78553644946736300D-01  1.11635327557384900D-01
50 22  6.69183173893512900D-02 -9.20397120800901700D-02  1.38443844138080700D-02  3.57509137812108600D-02 -6.64980808376243200D-02
50 23 -1.41799374676991000D-01  2.08297455514615400D-01 -1.68226844719947000D-02  1.71094217203323400D-02 -2.78976439234038400D-02
50 24 -3.84537777045238100D-02 -9.71858879025734600D-02  5.08999736302787200D-02  1.98164757183470600D-02 -7.75755053504610100D-03
50 25 -8.53630592080850200D-03 -2.71836533166001900D-02 -1.89867612794070500D-01 -8.44739580726852500D-02  8.74297554463610700D-02
50 26 -6.18261278328325600D-02  1.15075196246691200D-01  3.53729607746472900D-02  1.08187743355680900D-01 -3.08149123441837800D-02
50 27 -7.73728310114974200D-02  1.11740130681213700D-02 -4.48222368384316600D-03  1.86323668756648200D-02 -4.41003609049580400D-02
50 28  1.60535589079416000D-01 -1.16435228174457900D-01 -8.53177009380231400D-03  4.17842367137535100D-02  5.18319334482044400D-02
50 29 -4.59521807256093600D-02  1.38493984851725000D-01  9.91868656078711200D-03  1.94858554513305100D-01 -1.56487857089898200D-02
50 30 -5.19444719872512700D-02 -6.13746158841001100D-02  9.69204284464773900D-02  1.45498733395862000D-01 -5.20628603024109500D-02
50 31  2.28885510975321800D-02 -7.41835310856559200D-02 -3.18717702722342800D-02  3.04994845739692500D-01 -4.65006623307163300D-02
50 32 -6.87312077655180800D-02  5.37189566691079800D-02  8.23464832770797600D-02 -4.65489723404108900D-02 -3.15637898587408500D-02
51  1  0.00000000000000000D+00  0.00000000000000000D+00  0.00000000000000000D+00  0.00000000000000000D+00  0.00000000000000000D+00
51  2  0.00000000000000000D+00  0.00000000000000000D+00  0.00000000000000000D+00  0.00000000000000000D+00 -2.36395709523720000D-01
51  3 -2.36395709523720100D-01 -2.36395709523720100D-01  0.00000000000000000D+00  0.00000000000000000D+00  0.00000000000000000D+00
51  4  0.00000000000000000D+00  0.00000000000000000D+00  0.00000000000000000D+00  0.00000000000000000D+00  0.00000000000000000D+00
51  5  0.00000000000000000D+00  0.00000000000000000D+00  0.00000000000000000D+00  0.00000000000000000D+00  1.01067599624805300D-01
51  6  1.01067599624805400D-01  1.01067599624805500D-01  0.00000000000000000D+00  0.00000000000000000D+00  0.00000000000000000D+00
51  7  0.00000000000000000D+00  0.00000000000000000D+00  0.00000000000000000D+00  0.00000000000000000D+00  0.00000000000000000D+00
51  8  0.00000000000000000D+00  0.00000000000000000D+00  0.00000000000000000D+00  0.00000000000000000D+00 -3.54611495362452200D-01
51  9 -3.54611495362452200D-01 -3.54611495362452400D-01  0.00000000000000000D+00  0.00000000000000000D+00  0.00000000000000000D+00
51 10  0.00000000000000000D+00  0.00000000000000000D+00  0.00000000000000000D+00  0.00000000000000000D+00  0.00000000000000000D+00
51 11  0.00000000000000000D+00  0.00000000000000000D+00  0.00000000000000000D+00  0.00000000000000000D+00  2.10507617324403300D-02
51 12  2.10507617324402000D-02  2.10507617324403700D-02  0.00000000000000000D+00  0.00000000000000000D+00  0.00000000000000000D+00
51 13  0.00000000000000000D+00  0.00000000000000000D+00  0.00000000000000000D+00  0.00000000000000000D+00  0.00000000000000000D+00
51 14  0.00000000000000000D+00  0.00000000000000000D+00  0.00000000000000000D+00  0.00000000000000000D+00 -7.97149109622927300D-02
51 15 -7.97149109622925800D-02 -7.97149109622930100D-02  0.00000000000000000D+00  0.00000000000000000D+00  0.00000000000000000D+00
51 16  0.00000000000000000D+00  0.00000000000000000D+00  0.00000000000000000D+00  0.00000000000000000D+00  0.00000000000000000D+00
51 17  0.00000000000000000D+00  0.00000000000000000D+00  0.00000000000000000D+00  0.00000000000000000D+00 -2.98166193318242200D-02
51 18 -2.98166193318241700D-02 -2.98166193318242800D-02  0.00000000000000000D+00  0.00000000000000000D+00  0.00000000000000000D+00
51 19  0.00000000000000000D+00  0.00000000000000000D+00  0.00000000000000000D+00  0.00000000000000000D+00  0.00000000000000000D+00
51 20  0.00000000000000000D+00  0.00000000000000000D+00  0.00000000000000000D+00  0.00000000000000000D+00  0.00000000000000000D+00
51 21  0.00000000000000000D+00  0.00000000000000000D+00  0.00000000000000000D+00  1.81669996189606700D-02  1.81669996189599800D-02
51 22  1.81669996189606600D-02  0.00000000000000000D+00  0.00000000000000000D+00  0.00000000000000000D+00  1.16800650116261200D-02
51 23  1.16800650116267000D-02  1.16800650116261100D-02  0.00000000000000000D+00  0.00000000000000000D+00  0.00000000000000000D+00
51 24  0.00000000000000000D+00  0.00000000000000000D+00  0.00000000000000000D+00  0.00000000000000000D+00  0.00000000000000000D+00
51 25  0.00000000000000000D+00  0.00000000000000000D+00  0.00000000000000000D+00  0.00000000000000000D+00  0.00000000000000000D+00
51 26  0.00000000000000000D+00  0.00000000000000000D+00  0.00000000000000000D+00 -4.56861619786679300D-07 -4.56861620078128800D-07
51 27 -4.56861620483395600D-07  0.00000000000000000D+00  0.00000000000000000D+00  0.00000000000000000D+00  0.00000000000000000D+00
51 28  0.00000000000000000D+00  0.00000000000000000D+00  0.00000000000000000D+00  0.00000000000000000D+00  0.00000000000000000D+00
51 29  0.00000000000000000D+00  0.00000000000000000D+00  0.00000000000000000D+00  0.00000000000000000D+00  0.00000000000000000D+00
51 30  0.00000000000000000D+00  0.00000000000000000D+00  0.00000000000000000D+00  0.00000000000000000D+00  0.00000000000000000D+00
51 31  0.00000000000000000D+00  0.00000000000000000D+00  0.00000000000000000D+00  0.00000000000000000D+00  0.00000000000000000D+00
51 32  0.00000000000000000D+00  0.00000000000000000D+00  0.00000000000000000D+00  0.00000000000000000D+00  0.00000000000000000D+00
52  1  0.00000000000000000D+00  0.00000000000000000D+00  0.00000000000000000D+00  0.00000000000000000D+00  0.00000000000000000D+00
52  2  0.00000000000000000D+00  0.00000000000000000D+00  0.00000000000000000D+00  0.00000000000000000D+00 -2.38051143554917800D-01
52  3 -2.38051143554917700D-01 -2.38051143554917800D-01  0.00000000000000000D+00  0.00000000000000000D+00  0.00000000000000000D+00
52  4  0.00000000000000000D+00  0.00000000000000000D+00  0.00000000000000000D+00  0.00000000000000000D+00  0.00000000000000000D+00
52  5  0.00000000000000000D+00  0.00000000000000000D+00  0.00000000000000000D+00  0.00000000000000000D+00  3.54722125866829700D-03
52  6  3.54722125866819700D-03  3.54722125866830300D-03  0.00000000000000000D+00  0.00000000000000000D+00  0.00000000000000000D+00
52  7  0.00000000000000000D+00  0.00000000000000000D+00  0.00000000000000000D+00  0.00000000000000000D+00  0.00000000000000000D+00
52  8  0.00000000000000000D+00  0.00000000000000000D+00  0.00000000000000000D+00  0.00000000000000000D+00  9.63998652923422600D-02
52  9  9.63998652923419400D-02  9.63998652923419000D-02  0.00000000000000000D+00  0.00000000000000000D+00  0.00000000000000000D+00
52 10  0.00000000000000000D+00  0.00000000000000000D+00  0.00000000000000000D+00  0.00000000000000000D+00  0.00000000000000000D+00
52 11  0.00000000000000000D+00  0.00000000000000000D+00  0.00000000000000000D+00  0.00000000000000000D+00 -2.76438970776646400D-01
52 12 -2.76438970776646700D-01 -2.76438970776646500D-01  0.00000000000000000D+00  0.00000000000000000D+00  0.00000000000000000D+00
52 13  0.00000000000000000D+00  0.00000000000000000D+00  0.00000000000000000D+00  0.00000000000000000D+00  0.00000000000000000D+00
52 14  0.00000000000000000D+00  0.00000000000000000D+00  0.00000000000000000D+00  0.00000000000000000D+00  2.10470718921421200D-01
52 15  2.10470718921421500D-01  2.10470718921421300D-01  0.00000000000000000D+00  0.00000000000000000D+00  0.00000000000000000D+00
52 16  0.00000000000000000D+00  0.00000000000000000D+00  0.00000000000000000D+00  0.00000000000000000D+00  0.00000000000000000D+00
52 17  0.00000000000000000D+00  0.00000000000000000D+00  0.00000000000000000D+00  0.00000000000000000D+00 -7.04728593965849200D-02
52 18 -7.04728593965850800D-02 -7.04728593965848300D-02  0.00000000000000000D+00  0.00000000000000000D+00  0.00000000000000000D+00
52 19  0.00000000000000000D+00  0.00000000000000000D+00  0.00000000000000000D+00  0.00000000000000000D+00  0.00000000000000000D+00
52 20  0.00000000000000000D+00  0.00000000000000000D+00  0.00000000000000000D+00  0.00000000000000000D+00  0.00000000000000000D+00
52 21  0.00000000000000000D+00  0.00000000000000000D+00  0.00000000000000000D+00 -6.90072823220867400D-02 -6.90072823220870700D-02
52 22 -6.90072823220867800D-02  0.00000000000000000D+00  0.00000000000000000D+00  0.00000000000000000D+00 -5.98437902151406600D-02
52 23 -5.98437902151403600D-02 -5.98437902151404600D-02  0.00000000000000000D+00  0.00000000000000000D+00  0.00000000000000000D+00
52 24  0.00000000000000000D+00  0.00000000000000000D+00  0.00000000000000000D+00  0.00000000000000000D+00  0.00000000000000000D+00
52 25  0.00000000000000000D+00  0.00000000000000000D+00  0.00000000000000000D+00  0.00000000000000000D+00  0.00000000000000000D+00
52 26  0.00000000000000000D+00  0.00000000000000000D+00  0.00000000000000000D+00  2.34062446249777200D-06  2.34062446272011700D-06
52 27  2.34062446270001800D-06  0.00000000000000000D+00  0.00000000000000000D+00  0.00000000000000000D+00  0.00000000000000000D+00
52 28  0.00000000000000000D+00  0.00000000000000000D+00  0.00000000000000000D+00  0.00000000000000000D+00  0.00000000000000000D+00
52 29  0.00000000000000000D+00  0.00000000000000000D+00  0.00000000000000000D+00  0.00000000000000000D+00  0.00000000000000000D+00
52 30  0.00000000000000000D+00  0.00000000000000000D+00  0.00000000000000000D+00  0.00000000000000000D+00  0.00000000000000000D+00
52 31  0.00000000000000000D+00  0.00000000000000000D+00  0.00000000000000000D+00  0.00000000000000000D+00  0.00000000000000000D+00
52 32  0.00000000000000000D+00  0.00000000000000000D+00  0.00000000000000000D+00  0.00000000000000000D+00  0.00000000000000000D+00
53  1  0.00000000000000000D+00  0.00000000000000000D+00  0.00000000000000000D+00  0.00000000000000000D+00  0.00000000000000000D+00
53  2  0.00000000000000000D+00  0.00000000000000000D+00  0.00000000000000000D+00  0.00000000000000000D+00  6.41983824112959800D-02
53  3  6.41983824112959300D-02  6.41983824112958300D-02  0.00000000000000000D+00  0.00000000000000000D+00  0.00000000000000000D+00
53  4  0.00000000000000000D+00  0.00000000000000000D+00  0.00000000000000000D+00  0.00000000000000000D+00  0.00000000000000000D+00
53  5  0.00000000000000000D+00  0.00000000000000000D+00  0.00000000000000000D+00  0.00000000000000000D+00 -2.30183144733847200D-01
53  6 -2.30183144733846900D-01 -2.30183144733846800D-01  0.00000000000000000D+00  0.00000000000000000D+00  0.00000000000000000D+00
53  7  0.00000000000000000D+00  0.00000000000000000D+00  0.00000000000000000D+00  0.00000000000000000D+00  0.00000000000000000D+00
53  8  0.00000000000000000D+00  0.00000000000000000D+00  0.00000000000000000D+00  0.00000000000000000D+00 -5.00789116043450000D-02
53  9 -5.00789116043448300D-02 -5.00789116043450800D-02  0.00000000000000000D+00  0.00000000000000000D+00  0.00000000000000000D+00
53 10  0.00000000000000000D+00  0.00000000000000000D+00  0.00000000000000000D+00  0.00000000000000000D+00  0.00000000000000000D+00
53 11  0.00000000000000000D+00  0.00000000000000000D+00  0.00000000000000000D+00  0.00000000000000000D+00 -1.51051760008780100D-01
53 12 -1.51051760008779900D-01 -1.51051760008780200D-01  0.00000000000000000D+00  0.00000000000000000D+00  0.00000000000000000D+00
53 13  0.00000000000000000D+00  0.00000000000000000D+00  0.00000000000000000D+00  0.00000000000000000D+00  0.00000000000000000D+00
53 14  0.00000000000000000D+00  0.00000000000000000D+00  0.00000000000000000D+00  0.00000000000000000D+00 -1.87178346676833000D-01
53 15 -1.87178346676832600D-01 -1.87178346676832700D-01  0.00000000000000000D+00  0.00000000000000000D+00  0.00000000000000000D+00
53 16  0.00000000000000000D+00  0.00000000000000000D+00  0.00000000000000000D+00  0.00000000000000000D+00  0.00000000000000000D+00
53 17  0.00000000000000000D+00  0.00000000000000000D+00  0.00000000000000000D+00  0.00000000000000000D+00 -2.84415717441244000D-01
53 18 -2.84415717441243900D-01 -2.84415717441244100D-01  0.00000000000000000D+00  0.00000000000000000D+00  0.00000000000000000D+00
53 19  0.00000000000000000D+00  0.00000000000000000D+00  0.00000000000000000D+00  0.00000000000000000D+00  0.00000000000000000D+00
53 20  0.00000000000000000D+00  0.00000000000000000D+00  0.00000000000000000D+00  0.00000000000000000D+00  0.00000000000000000D+00
53 21  0.00000000000000000D+00  0.00000000000000000D+00  0.00000000000000000D+00  3.65619760860093900D-02  3.65619760860088900D-02
53 22  3.65619760860090600D-02  0.00000000000000000D+00  0.00000000000000000D+00  0.00000000000000000D+00 -1.74626486797703600D-02
53 23 -1.74626486797699300D-02 -1.74626486797700600D-02  0.00000000000000000D+00  0.00000000000000000D+00  0.00000000000000000D+00
53 24  0.00000000000000000D+00  0.00000000000000000D+00  0.00000000000000000D+00  0.00000000000000000D+00  0.00000000000000000D+00
53 25  0.00000000000000000D+00  0.00000000000000000D+00  0.00000000000000000D+00  0.00000000000000000D+00  0.00000000000000000D+00
53 26  0.00000000000000000D+00  0.00000000000000000D+00  0.00000000000000000D+00  6.82663235579397500D-07  6.82663235531324200D-07
53 27  6.82663235807112600D-07  0.00000000000000000D+00  0.00000000000000000D+00  0.00000000000000000D+00  0.00000000000000000D+00
53 28  0.00000000000000000D+00  0.00000000000000000D+00  0.00000000000000000D+00  0.00000000000000000D+00  0.00000000000000000D+00
53 29  0.00000000000000000D+00  0.00000000000000000D+00  0.00000000000000000D+00  0.00000000000000000D+00  0.00000000000000000D+00
53 30  0.00000000000000000D+00  0.00000000000000000D+00  0.00000000000000000D+00  0.00000000000000000D+00  0.00000000000000000D+00
53 31  0.00000000000000000D+00  0.00000000000000000D+00  0.00000000000000000D+00  0.00000000000000000D+00  0.00000000000000000D+00
53 32  0.00000000000000000D+00  0.00000000000000000D+00  0.00000000000000000D+00  0.00000000000000000D+00  0.00000000000000000D+00
54  1  0.00000000000000000D+00  0.00000000000000000D+00  0.00000000000000000D+00  0.00000000000000000D+00  0.00000000000000000D+00
54  2  0.00000000000000000D+00  0.00000000000000000D+00  0.00000000000000000D+00  0.00000000000000000D+00  0.00000000000000000D+00
54  3  0.00000000000000000D+00  0.00000000000000000D+00  0.00000000000000000D+00  0.00000000000000000D+00  0.00000000000000000D+00
54  4  0.00000000000000000D+00  0.00000000000000000D+00  0.00000000000000000D+00  0.00000000000000000D+00  0.00000000000000000D+00
54  5  0.00000000000000000D+00  0.00000000000000000D+00  0.00000000000000000D+00  0.00000000000000000D+00  0.00000000000000000D+00
54  6  0.00000000000000000D+00  0.00000000000000000D+00  0.00000000000000000D+00  0.00000000000000000D+00  0.00000000000000000D+00
54  7  0.00000000000000000D+00  0.00000000000000000D+00  0.00000000000000000D+00  0.00000000000000000D+00  0.00000000000000000D+00
54  8  0.00000000000000000D+00  0.00000000000000000D+00  0.00000000000000000D+00  0.00000000000000000D+00  0.00000000000000000D+00
54  9  0.00000000000000000D+00  0.00000000000000000D+00  0.00000000000000000D+00  0.00000000000000000D+00  0.00000000000000000D+00
54 10  0.00000000000000000D+00  0.00000000000000000D+00  0.00000000000000000D+00  0.00000000000000000D+00  0.00000000000000000D+00
54 11  0.00000000000000000D+00  0.00000000000000000D+00  0.00000000000000000D+00  0.00000000000000000D+00  0.00000000000000000D+00
54 12  0.00000000000000000D+00  0.00000000000000000D+00  0.00000000000000000D+00  0.00000000000000000D+00  0.00000000000000000D+00
54 13  0.00000000000000000D+00  0.00000000000000000D+00  0.00000000000000000D+00  0.00000000000000000D+00  0.00000000000000000D+00
54 14  0.00000000000000000D+00  0.00000000000000000D+00  0.00000000000000000D+00  0.00000000000000000D+00  0.00000000000000000D+00
54 15  0.00000000000000000D+00  0.00000000000000000D+00  0.00000000000000000D+00  0.00000000000000000D+00  0.00000000000000000D+00
54 16  0.00000000000000000D+00  0.00000000000000000D+00  0.00000000000000000D+00  0.00000000000000000D+00  0.00000000000000000D+00
54 17  0.00000000000000000D+00  0.00000000000000000D+00  0.00000000000000000D+00  0.00000000000000000D+00  0.00000000000000000D+00
54 18  0.00000000000000000D+00  0.00000000000000000D+00  0.00000000000000000D+00  0.00000000000000000D+00  0.00000000000000000D+00
54 19  0.00000000000000000D+00  0.00000000000000000D+00  0.00000000000000000D+00  0.00000000000000000D+00  0.00000000000000000D+00
54 20  0.00000000000000000D+00  0.00000000000000000D+00  0.00000000000000000D+00  0.00000000000000000D+00  0.00000000000000000D+00
54 21  0.00000000000000000D+00  0.00000000000000000D+00  0.00000000000000000D+00  0.00000000000000000D+00  0.00000000000000000D+00
54 22  0.00000000000000000D+00  0.00000000000000000D+00  0.00000000000000000D+00  0.00000000000000000D+00  0.00000000000000000D+00
54 23  0.00000000000000000D+00  0.00000000000000000D+00  0.00000000000000000D+00  0.00000000000000000D+00  0.00000000000000000D+00
54 24  0.00000000000000000D+00  0.00000000000000000D+00  0.00000000000000000D+00  0.00000000000000000D+00  0.00000000000000000D+00
54 25  0.00000000000000000D+00  0.00000000000000000D+00  0.00000000000000000D+00  0.00000000000000000D+00  0.00000000000000000D+00
54 26  0.00000000000000000D+00  0.00000000000000000D+00  0.00000000000000000D+00  0.00000000000000000D+00  0.00000000000000000D+00
54 27  0.00000000000000000D+00  0.00000000000000000D+00  0.00000000000000000D+00  0.00000000000000000D+00  4.47213595499956800D-01
54 28  4.47213595499956800D-01  4.47213595499956800D-01  0.00000000000000000D+00  0.00000000000000000D+00  0.00000000000000000D+00
54 29  0.00000000000000000D+00  0.00000000000000000D+00  0.00000000000000000D+00  0.00000000000000000D+00  0.00000000000000000D+00
54 30  0.00000000000000000D+00  0.00000000000000000D+00  0.00000000000000000D+00  0.00000000000000000D+00  0.00000000000000000D+00
54 31  0.00000000000000000D+00  0.00000000000000000D+00  0.00000000000000000D+00  0.00000000000000000D+00  0.00000000000000000D+00
54 32  0.00000000000000000D+00  0.00000000000000000D+00  0.00000000000000000D+00  0.00000000000000000D+00  0.00000000000000000D+00
55  1  0.00000000000000000D+00  0.00000000000000000D+00  0.00000000000000000D+00  0.00000000000000000D+00  0.00000000000000000D+00
55  2  0.00000000000000000D+00  0.00000000000000000D+00  0.00000000000000000D+00  0.00000000000000000D+00  2.61432665397060600D-01
55  3  2.61432665397060400D-01  2.61432665397060500D-01  0.00000000000000000D+00  0.00000000000000000D+00  0.00000000000000000D+00
55  4  0.00000000000000000D+00  0.00000000000000000D+00  0.00000000000000000D+00  0.00000000000000000D+00  0.00000000000000000D+00
55  5  0.00000000000000000D+00  0.00000000000000000D+00  0.00000000000000000D+00  0.00000000000000000D+00  9.48055087588239700D-02
55  6  9.48055087588238600D-02  9.48055087588237500D-02  0.00000000000000000D+00  0.00000000000000000D+00  0.00000000000000000D+00
55  7  0.00000000000000000D+00  0.00000000000000000D+00  0.00000000000000000D+00  0.00000000000000000D+00  0.00000000000000000D+00
55  8  0.00000000000000000D+00  0.00000000000000000D+00  0.00000000000000000D+00  0.00000000000000000D+00 -1.94058999971824400D-01
55  9 -1.94058999971824400D-01 -1.94058999971824300D-01  0.00000000000000000D+00  0.00000000000000000D+00  0.00000000000000000D+00
55 10  0.00000000000000000D+00  0.00000000000000000D+00  0.00000000000000000D+00  0.00000000000000000D+00  0.00000000000000000D+00
55 11  0.00000000000000000D+00  0.00000000000000000D+00  0.00000000000000000D+00  0.00000000000000000D+00 -1.13216753565996500D-01
55 12 -1.13216753565996700D-01 -1.13216753565996700D-01  0.00000000000000000D+00  0.00000000000000000D+00  0.00000000000000000D+00
55 13  0.00000000000000000D+00  0.00000000000000000D+00  0.00000000000000000D+00  0.00000000000000000D+00  0.00000000000000000D+00
55 14  0.00000000000000000D+00  0.00000000000000000D+00  0.00000000000000000D+00  0.00000000000000000D+00  1.40746520572408400D-01
55 15  1.40746520572408300D-01  1.40746520572408400D-01  0.00000000000000000D+00  0.00000000000000000D+00  0.00000000000000000D+00
55 16  0.00000000000000000D+00  0.00000000000000000D+00  0.00000000000000000D+00  0.00000000000000000D+00  0.00000000000000000D+00
55 17  0.00000000000000000D+00  0.00000000000000000D+00  0.00000000000000000D+00  0.00000000000000000D+00 -4.36238506019054700D-02
55 18 -4.36238506019052500D-02 -4.36238506019052100D-02  0.00000000000000000D+00  0.00000000000000000D+00  0.00000000000000000D+00
55 19  0.00000000000000000D+00  0.00000000000000000D+00  0.00000000000000000D+00  0.00000000000000000D+00  0.00000000000000000D+00
55 20  0.00000000000000000D+00  0.00000000000000000D+00  0.00000000000000000D+00  0.00000000000000000D+00  0.00000000000000000D+00
55 21  0.00000000000000000D+00  0.00000000000000000D+00  0.00000000000000000D+00 -2.23821952616484500D-01 -2.23821952616484700D-01
55 22 -2.23821952616484400D-01  0.00000000000000000D+00  0.00000000000000000D+00  0.00000000000000000D+00 -1.94694207943049800D-02
55 23 -1.94694207943043800D-02 -1.94694207943047200D-02  0.00000000000000000D+00  0.00000000000000000D+00  0.00000000000000000D+00
55 24  0.00000000000000000D+00  0.00000000000000000D+00  0.00000000000000000D+00  0.00000000000000000D+00  0.00000000000000000D+00
55 25  0.00000000000000000D+00  0.00000000000000000D+00  0.00000000000000000D+00  0.00000000000000000D+00  0.00000000000000000D+00
55 26  0.00000000000000000D+00  0.00000000000000000D+00  0.00000000000000000D+00  7.62700929088853500D-07  7.62700929518516400D-07
55 27  7.62700929371339200D-07  0.00000000000000000D+00  0.00000000000000000D+00  0.00000000000000000D+00  0.00000000000000000D+00
55 28  0.00000000000000000D+00  0.00000000000000000D+00  0.00000000000000000D+00  0.00000000000000000D+00  0.00000000000000000D+00
55 29  0.00000000000000000D+00  0.00000000000000000D+00  0.00000000000000000D+00  0.00000000000000000D+00  0.00000000000000000D+00
55 30  0.00000000000000000D+00  0.00000000000000000D+00  0.00000000000000000D+00  0.00000000000000000D+00  0.00000000000000000D+00
55 31  0.00000000000000000D+00  0.00000000000000000D+00  0.00000000000000000D+00  0.00000000000000000D+00  0.00000000000000000D+00
55 32  0.00000000000000000D+00  0.00000000000000000D+00  0.00000000000000000D+00  0.00000000000000000D+00  0.00000000000000000D+00
56  1  0.00000000000000000D+00  0.00000000000000000D+00  0.00000000000000000D+00  0.00000000000000000D+00  0.00000000000000000D+00
56  2  0.00000000000000000D+00  0.00000000000000000D+00  0.00000000000000000D+00  0.00000000000000000D+00  1.21581716574007600D-01
56  3  1.21581716574007800D-01  1.21581716574007600D-01  0.00000000000000000D+00  0.00000000000000000D+00  0.00000000000000000D+00
56  4  0.00000000000000000D+00  0.00000000000000000D+00  0.00000000000000000D+00  0.00000000000000000D+00  0.00000000000000000D+00
56  5  0.00000000000000000D+00  0.00000000000000000D+00  0.00000000000000000D+00  0.00000000000000000D+00  8.48953041915760900D-02
56  6  8.48953041915755700D-02  8.48953041915756500D-02  0.00000000000000000D+00  0.00000000000000000D+00  0.00000000000000000D+00
56  7  0.00000000000000000D+00  0.00000000000000000D+00  0.00000000000000000D+00  0.00000000000000000D+00  0.00000000000000000D+00
56  8  0.00000000000000000D+00  0.00000000000000000D+00  0.00000000000000000D+00  0.00000000000000000D+00 -7.20869679406203500D-02
56  9 -7.20869679406197800D-02 -7.20869679406201300D-02  0.00000000000000000D+00  0.00000000000000000D+00  0.00000000000000000D+00
56 10  0.00000000000000000D+00  0.00000000000000000D+00  0.00000000000000000D+00  0.00000000000000000D+00  0.00000000000000000D+00
56 11  0.00000000000000000D+00  0.00000000000000000D+00  0.00000000000000000D+00  0.00000000000000000D+00 -1.61357936433520900D-01
56 12 -1.61357936433520800D-01 -1.61357936433520800D-01  0.00000000000000000D+00  0.00000000000000000D+00  0.00000000000000000D+00
56 13  0.00000000000000000D+00  0.00000000000000000D+00  0.00000000000000000D+00  0.00000000000000000D+00  0.00000000000000000D+00
56 14  0.00000000000000000D+00  0.00000000000000000D+00  0.00000000000000000D+00  0.00000000000000000D+00  8.13727656841100000D-02
56 15  8.13727656841094900D-02  8.13727656841096900D-02  0.00000000000000000D+00  0.00000000000000000D+00  0.00000000000000000D+00
56 16  0.00000000000000000D+00  0.00000000000000000D+00  0.00000000000000000D+00  0.00000000000000000D+00  0.00000000000000000D+00
56 17  0.00000000000000000D+00  0.00000000000000000D+00  0.00000000000000000D+00  0.00000000000000000D+00  5.38278926211293600D-02
56 18  5.38278926211296200D-02  5.38278926211294500D-02  0.00000000000000000D+00  0.00000000000000000D+00  0.00000000000000000D+00
56 19  0.00000000000000000D+00  0.00000000000000000D+00  0.00000000000000000D+00  0.00000000000000000D+00  0.00000000000000000D+00
56 20  0.00000000000000000D+00  0.00000000000000000D+00  0.00000000000000000D+00  0.00000000000000000D+00  0.00000000000000000D+00
56 21  0.00000000000000000D+00  0.00000000000000000D+00  0.00000000000000000D+00  3.67110905640152300D-01  3.67110905640151900D-01
56 22  3.67110905640152200D-01  0.00000000000000000D+00  0.00000000000000000D+00  0.00000000000000000D+00 -4.98835931077340100D-02
56 23 -4.98835931077343300D-02 -4.98835931077340100D-02  0.00000000000000000D+00  0.00000000000000000D+00  0.00000000000000000D+00
56 24  0.00000000000000000D+00  0.00000000000000000D+00  0.00000000000000000D+00  0.00000000000000000D+00  0.00000000000000000D+00
56 25  0.00000000000000000D+00  0.00000000000000000D+00  0.00000000000000000D+00  0.00000000000000000D+00  0.00000000000000000D+00
56 26  0.00000000000000000D+00  0.00000000000000000D+00  0.00000000000000000D+00  1.94851078416256600D-06  1.94851078413252200D-06
56 27  1.94851078448581500D-06  0.00000000000000000D+00  0.00000000000000000D+00  0.00000000000000000D+00  0.00000000000000000D+00
56 28  0.00000000000000000D+00  0.00000000000000000D+00  0.00000000000000000D+00  0.00000000000000000D+00  0.00000000000000000D+00
56 29  0.00000000000000000D+00  0.00000000000000000D+00  0.00000000000000000D+00  0.00000000000000000D+00  0.00000000000000000D+00
56 30  0.00000000000000000D+00  0.00000000000000000D+00  0.00000000000000000D+00  0.00000000000000000D+00  0.00000000000000000D+00
56 31  0.00000000000000000D+00  0.00000000000000000D+00  0.00000000000000000D+00  0.00000000000000000D+00  0.00000000000000000D+00
56 32  0.00000000000000000D+00  0.00000000000000000D+00  0.00000000000000000D+00  0.00000000000000000D+00  0.00000000000000000D+00
57  1  0.00000000000000000D+00  0.00000000000000000D+00  0.00000000000000000D+00  0.00000000000000000D+00  0.00000000000000000D+00
57  2  0.00000000000000000D+00  0.00000000000000000D+00  0.00000000000000000D+00  0.00000000000000000D+00  0.00000000000000000D+00
57  3  0.00000000000000000D+00  0.00000000000000000D+00  0.00000000000000000D+00  0.00000000000000000D+00  0.00000000000000000D+00
57  4  0.00000000000000000D+00  0.00000000000000000D+00  0.00000000000000000D+00  0.00000000000000000D+00  0.00000000000000000D+00
57  5  0.00000000000000000D+00  0.00000000000000000D+00  0.00000000000000000D+00  0.00000000000000000D+00  0.00000000000000000D+00
57  6  0.00000000000000000D+00  0.00000000000000000D+00  0.00000000000000000D+00  0.00000000000000000D+00  0.00000000000000000D+00
57  7  0.00000000000000000D+00  0.00000000000000000D+00  0.00000000000000000D+00  0.00000000000000000D+00  0.00000000000000000D+00
57  8  0.00000000000000000D+00  0.00000000000000000D+00  0.00000000000000000D+00  0.00000000000000000D+00  0.00000000000000000D+00
57  9  0.00000000000000000D+00  0.00000000000000000D+00  0.00000000000000000D+00  0.00000000000000000D+00  0.00000000000000000D+00
57 10  0.00000000000000000D+00  0.00000000000000000D+00  0.00000000000000000D+00  0.00000000000000000D+00  0.00000000000000000D+00
57 11  0.00000000000000000D+00  0.00000000000000000D+00  0.00000000000000000D+00  0.00000000000000000D+00  1.47042512396513000D-06
57 12  1.47042512403724100D-06  1.47042512401940000D-06  0.00000000000000000D+00  0.00000000000000000D+00  0.00000000000000000D+00
57 13  0.00000000000000000D+00  0.00000000000000000D+00  0.00000000000000000D+00  0.00000000000000000D+00  0.00000000000000000D+00
57 14  0.00000000000000000D+00  0.00000000000000000D+00  0.00000000000000000D+00  0.00000000000000000D+00  9.14175139179417300D-05
57 15  9.14175139179086900D-05  9.14175139179694400D-05  0.00000000000000000D+00  0.00000000000000000D+00  0.00000000000000000D+00
57 16  0.00000000000000000D+00  0.00000000000000000D+00  0.00000000000000000D+00  0.00000000000000000D+00  0.00000000000000000D+00
57 17  0.00000000000000000D+00  0.00000000000000000D+00  0.00000000000000000D+00  0.00000000000000000D+00 -7.77916306613171000D-05
57 18 -7.77916306613411400D-05 -7.77916306612874900D-05  0.00000000000000000D+00  0.00000000000000000D+00  0.00000000000000000D+00
57 19  0.00000000000000000D+00  0.00000000000000000D+00  0.00000000000000000D+00  0.00000000000000000D+00  0.00000000000000000D+00
57 20  0.00000000000000000D+00  0.00000000000000000D+00  0.00000000000000000D+00  0.00000000000000000D+00  0.00000000000000000D+00
57 21  0.00000000000000000D+00  0.00000000000000000D+00  0.00000000000000000D+00  4.06378128205344800D-05  4.06378128205886600D-05
57 22  4.06378128205936600D-05  0.00000000000000000D+00  0.00000000000000000D+00  0.00000000000000000D+00  3.76962743227213500D-04
57 23  3.76962743227626300D-04  3.76962743227418400D-04  0.00000000000000000D+00  0.00000000000000000D+00  0.00000000000000000D+00
57 24  0.00000000000000000D+00  0.00000000000000000D+00  0.00000000000000000D+00  0.00000000000000000D+00  0.00000000000000000D+00
57 25  0.00000000000000000D+00  0.00000000000000000D+00  0.00000000000000000D+00  0.00000000000000000D+00  0.00000000000000000D+00
57 26  0.00000000000000000D+00  0.00000000000000000D+00  0.00000000000000000D+00  4.47213418668085000D-01  4.47213418668084900D-01
57 27  4.47213418668084900D-01  0.00000000000000000D+00  0.00000000000000000D+00  0.00000000000000000D+00  0.00000000000000000D+00
57 28  0.00000000000000000D+00  0.00000000000000000D+00  0.00000000000000000D+00  0.00000000000000000D+00  0.00000000000000000D+00
57 29  0.00000000000000000D+00  0.00000000000000000D+00  0.00000000000000000D+00  0.00000000000000000D+00  0.00000000000000000D+00
57 30  0.00000000000000000D+00  0.00000000000000000D+00  0.00000000000000000D+00  0.00000000000000000D+00  0.00000000000000000D+00
57 31  0.00000000000000000D+00  0.00000000000000000D+00  0.00000000000000000D+00  0.00000000000000000D+00  0.00000000000000000D+00
57 32  0.00000000000000000D+00  0.00000000000000000D+00  0.00000000000000000D+00  0.00000000000000000D+00  0.00000000000000000D+00
58  1  0.00000000000000000D+00  0.00000000000000000D+00  0.00000000000000000D+00  0.00000000000000000D+00  0.00000000000000000D+00
58  2  0.00000000000000000D+00  0.00000000000000000D+00  0.00000000000000000D+00  0.00000000000000000D+00  0.00000000000000000D+00
58  3  0.00000000000000000D+00  0.00000000000000000D+00  0.00000000000000000D+00  0.00000000000000000D+00  0.00000000000000000D+00
58  4  0.00000000000000000D+00  0.00000000000000000D+00  0.00000000000000000D+00  0.00000000000000000D+00  0.00000000000000000D+00
58  5  0.00000000000000000D+00  0.00000000000000000D+00  0.00000000000000000D+00  0.00000000000000000D+00  0.00000000000000000D+00
58  6  0.00000000000000000D+00  0.00000000000000000D+00  0.00000000000000000D+00  0.00000000000000000D+00  0.00000000000000000D+00
58  7  0.00000000000000000D+00  0.00000000000000000D+00  0.00000000000000000D+00  0.00000000000000000D+00  0.00000000000000000D+00
58  8  0.00000000000000000D+00  0.00000000000000000D+00  0.00000000000000000D+00  0.00000000000000000D+00  4.76168990764374300D-10
58  9  4.76169028697818000D-10  4.76169009731096200D-10  0.00000000000000000D+00  0.00000000000000000D+00  0.00000000000000000D+00
58 10  0.00000000000000000D+00  0.00000000000000000D+00  0.00000000000000000D+00  0.00000000000000000D+00  0.00000000000000000D+00
58 11  0.00000000000000000D+00  0.00000000000000000D+00  0.00000000000000000D+00  0.00000000000000000D+00 -1.72523819823560600D-03
58 12 -1.72523819823543500D-03 -1.72523819823545000D-03  0.00000000000000000D+00  0.00000000000000000D+00  0.00000000000000000D+00
58 13  0.00000000000000000D+00  0.00000000000000000D+00  0.00000000000000000D+00  0.00000000000000000D+00  0.00000000000000000D+00
58 14  0.00000000000000000D+00  0.00000000000000000D+00  0.00000000000000000D+00  0.00000000000000000D+00 -1.07259447913385600D-01
58 15 -1.07259447913385400D-01 -1.07259447913385300D-01  0.00000000000000000D+00  0.00000000000000000D+00  0.00000000000000000D+00
58 16  0.00000000000000000D+00  0.00000000000000000D+00  0.00000000000000000D+00  0.00000000000000000D+00  0.00000000000000000D+00
58 17  0.00000000000000000D+00  0.00000000000000000D+00  0.00000000000000000D+00  0.00000000000000000D+00  9.12723070038913800D-02
58 18  9.12723070038914700D-02  9.12723070038913800D-02  0.00000000000000000D+00  0.00000000000000000D+00  0.00000000000000000D+00
58 19  0.00000000000000000D+00  0.00000000000000000D+00  0.00000000000000000D+00  0.00000000000000000D+00  0.00000000000000000D+00
58 20  0.00000000000000000D+00  0.00000000000000000D+00  0.00000000000000000D+00  0.00000000000000000D+00  0.00000000000000000D+00
58 21  0.00000000000000000D+00  0.00000000000000000D+00  0.00000000000000000D+00 -4.76768766717418700D-02 -4.76768766717421100D-02
58 22 -4.76768766717418600D-02  0.00000000000000000D+00  0.00000000000000000D+00  0.00000000000000000D+00 -4.21768369679483900D-01
58 23 -4.21768369679484000D-01 -4.21768369679484100D-01  0.00000000000000000D+00  0.00000000000000000D+00  0.00000000000000000D+00
58 24  0.00000000000000000D+00  0.00000000000000000D+00  0.00000000000000000D+00  0.00000000000000000D+00  0.00000000000000000D+00
58 25  0.00000000000000000D+00  0.00000000000000000D+00  0.00000000000000000D+00  0.00000000000000000D+00  0.00000000000000000D+00
58 26  0.00000000000000000D+00  0.00000000000000000D+00  0.00000000000000000D+00  3.97654875076689000D-04  3.97654875076464600D-04
58 27  3.97654875076564900D-04  0.00000000000000000D+00  0.00000000000000000D+00  0.00000000000000000D+00  0.00000000000000000D+00
58 28  0.00000000000000000D+00  0.00000000000000000D+00  0.00000000000000000D+00  0.00000000000000000D+00  0.00000000000000000D+00
58 29  0.00000000000000000D+00  0.00000000000000000D+00  0.00000000000000000D+00  0.00000000000000000D+00  0.00000000000000000D+00
58 30  0.00000000000000000D+00  0.00000000000000000D+00  0.00000000000000000D+00  0.00000000000000000D+00  0.00000000000000000D+00
58 31  0.00000000000000000D+00  0.00000000000000000D+00  0.00000000000000000D+00  0.00000000000000000D+00  0.00000000000000000D+00
58 32  0.00000000000000000D+00  0.00000000000000000D+00  0.00000000000000000D+00  0.00000000000000000D+00  0.00000000000000000D+00
59  1  0.00000000000000000D+00  0.00000000000000000D+00  0.00000000000000000D+00  0.00000000000000000D+00  0.00000000000000000D+00
59  2  0.00000000000000000D+00  0.00000000000000000D+00  0.00000000000000000D+00  0.00000000000000000D+00 -5.47990177156024900D-03
59  3 -5.47990177156040600D-03 -5.47990177156030800D-03  0.00000000000000000D+00  0.00000000000000000D+00  0.00000000000000000D+00
59  4  0.00000000000000000D+00  0.00000000000000000D+00  0.00000000000000000D+00  0.00000000000000000D+00  0.00000000000000000D+00
59  5  0.00000000000000000D+00  0.00000000000000000D+00  0.00000000000000000D+00  0.00000000000000000D+00  1.65379214216244100D-02
59  6  1.65379214216243000D-02  1.65379214216243700D-02  0.00000000000000000D+00  0.00000000000000000D+00  0.00000000000000000D+00
59  7  0.00000000000000000D+00  0.00000000000000000D+00  0.00000000000000000D+00  0.00000000000000000D+00  0.00000000000000000D+00
59  8  0.00000000000000000D+00  0.00000000000000000D+00  0.00000000000000000D+00  0.00000000000000000D+00 -3.25294587845976300D-03
59  9 -3.25294587845995900D-03 -3.25294587846000000D-03  0.00000000000000000D+00  0.00000000000000000D+00  0.00000000000000000D+00
59 10  0.00000000000000000D+00  0.00000000000000000D+00  0.00000000000000000D+00  0.00000000000000000D+00  0.00000000000000000D+00
59 11  0.00000000000000000D+00  0.00000000000000000D+00  0.00000000000000000D+00  0.00000000000000000D+00  2.43850636840640800D-01
59 12  2.43850636840640800D-01  2.43850636840640600D-01  0.00000000000000000D+00  0.00000000000000000D+00  0.00000000000000000D+00
59 13  0.00000000000000000D+00  0.00000000000000000D+00  0.00000000000000000D+00  0.00000000000000000D+00  0.00000000000000000D+00
59 14  0.00000000000000000D+00  0.00000000000000000D+00  0.00000000000000000D+00  0.00000000000000000D+00  2.16441776837366600D-01
59 15  2.16441776837366300D-01  2.16441776837366700D-01  0.00000000000000000D+00  0.00000000000000000D+00  0.00000000000000000D+00
59 16  0.00000000000000000D+00  0.00000000000000000D+00  0.00000000000000000D+00  0.00000000000000000D+00  0.00000000000000000D+00
59 17  0.00000000000000000D+00  0.00000000000000000D+00  0.00000000000000000D+00  0.00000000000000000D+00 -2.68267739764613700D-01
59 18 -2.68267739764613700D-01 -2.68267739764613800D-01  0.00000000000000000D+00  0.00000000000000000D+00  0.00000000000000000D+00
59 19  0.00000000000000000D+00  0.00000000000000000D+00  0.00000000000000000D+00  0.00000000000000000D+00  0.00000000000000000D+00
59 20  0.00000000000000000D+00  0.00000000000000000D+00  0.00000000000000000D+00  0.00000000000000000D+00  0.00000000000000000D+00
59 21  0.00000000000000000D+00  0.00000000000000000D+00  0.00000000000000000D+00  7.91720722408879600D-02  7.91720722408879700D-02
59 22  7.91720722408882400D-02  0.00000000000000000D+00  0.00000000000000000D+00  0.00000000000000000D+00 -1.23044354125477600D-01
59 23 -1.23044354125477500D-01 -1.23044354125477800D-01  0.00000000000000000D+00  0.00000000000000000D+00  0.00000000000000000D+00
59 24  0.00000000000000000D+00  0.00000000000000000D+00  0.00000000000000000D+00  0.00000000000000000D+00  0.00000000000000000D+00
59 25  0.00000000000000000D+00  0.00000000000000000D+00  0.00000000000000000D+00  0.00000000000000000D+00  0.00000000000000000D+00
59 26  0.00000000000000000D+00  0.00000000000000000D+00  0.00000000000000000D+00  4.81121349850484900D-06  4.81121349846278500D-06
59 27  4.81121349872665500D-06  0.00000000000000000D+00  0.00000000000000000D+00  0.00000000000000000D+00  0.00000000000000000D+00
59 28  0.00000000000000000D+00  0.00000000000000000D+00  0.00000000000000000D+00  0.00000000000000000D+00  0.00000000000000000D+00
59 29  0.00000000000000000D+00  0.00000000000000000D+00  0.00000000000000000D+00  0.00000000000000000D+00  0.00000000000000000D+00
59 30  0.00000000000000000D+00  0.00000000000000000D+00  0.00000000000000000D+00  0.00000000000000000D+00  0.00000000000000000D+00
59 31  0.00000000000000000D+00  0.00000000000000000D+00  0.00000000000000000D+00  0.00000000000000000D+00  0.00000000000000000D+00
59 32  0.00000000000000000D+00  0.00000000000000000D+00  0.00000000000000000D+00  0.00000000000000000D+00  0.00000000000000000D+00
60  1  0.00000000000000000D+00  0.00000000000000000D+00  0.00000000000000000D+00  0.00000000000000000D+00  0.00000000000000000D+00
60  2  0.00000000000000000D+00  0.00000000000000000D+00  0.00000000000000000D+00  0.00000000000000000D+00 -1.29656315551900400D-02
60  3 -1.29656315551899200D-02 -1.29656315551899800D-02  0.00000000000000000D+00  0.00000000000000000D+00  0.00000000000000000D+00
60  4  0.00000000000000000D+00  0.00000000000000000D+00  0.00000000000000000D+00  0.00000000000000000D+00  0.00000000000000000D+00
60  5  0.00000000000000000D+00  0.00000000000000000D+00  0.00000000000000000D+00  0.00000000000000000D+00 -3.46871269202438500D-01
60  6 -3.46871269202438400D-01 -3.46871269202438600D-01  0.00000000000000000D+00  0.00000000000000000D+00  0.00000000000000000D+00
60  7  0.00000000000000000D+00  0.00000000000000000D+00  0.00000000000000000D+00  0.00000000000000000D+00  0.00000000000000000D+00
60  8  0.00000000000000000D+00  0.00000000000000000D+00  0.00000000000000000D+00  0.00000000000000000D+00 -1.39942301921620100D-01
60  9 -1.39942301921619900D-01 -1.39942301921620100D-01  0.00000000000000000D+00  0.00000000000000000D+00  0.00000000000000000D+00
60 10  0.00000000000000000D+00  0.00000000000000000D+00  0.00000000000000000D+00  0.00000000000000000D+00  0.00000000000000000D+00
60 11  0.00000000000000000D+00  0.00000000000000000D+00  0.00000000000000000D+00  0.00000000000000000D+00  4.47347760694579200D-02
60 12  4.47347760694578900D-02  4.47347760694578400D-02  0.00000000000000000D+00  0.00000000000000000D+00  0.00000000000000000D+00
60 13  0.00000000000000000D+00  0.00000000000000000D+00  0.00000000000000000D+00  0.00000000000000000D+00  0.00000000000000000D+00
60 14  0.00000000000000000D+00  0.00000000000000000D+00  0.00000000000000000D+00  0.00000000000000000D+00  1.71840407499567200D-01
60 15  1.71840407499567000D-01  1.71840407499567100D-01  0.00000000000000000D+00  0.00000000000000000D+00  0.00000000000000000D+00
60 16  0.00000000000000000D+00  0.00000000000000000D+00  0.00000000000000000D+00  0.00000000000000000D+00  0.00000000000000000D+00
60 17  0.00000000000000000D+00  0.00000000000000000D+00  0.00000000000000000D+00  0.00000000000000000D+00  1.67790173524368600D-01
60 18  1.67790173524368700D-01  1.67790173524368600D-01  0.00000000000000000D+00  0.00000000000000000D+00  0.00000000000000000D+00
60 19  0.00000000000000000D+00  0.00000000000000000D+00  0.00000000000000000D+00  0.00000000000000000D+00  0.00000000000000000D+00
60 20  0.00000000000000000D+00  0.00000000000000000D+00  0.00000000000000000D+00  0.00000000000000000D+00  0.00000000000000000D+00
60 21  0.00000000000000000D+00  0.00000000000000000D+00  0.00000000000000000D+00  1.27745943004167500D-02  1.27745943004168700D-02
60 22  1.27745943004166300D-02  0.00000000000000000D+00  0.00000000000000000D+00  0.00000000000000000D+00 -9.01713383162992500D-03
60 23 -9.01713383163034100D-03 -9.01713383162969600D-03  0.00000000000000000D+00  0.00000000000000000D+00  0.00000000000000000D+00
60 24  0.00000000000000000D+00  0.00000000000000000D+00  0.00000000000000000D+00  0.00000000000000000D+00  0.00000000000000000D+00
60 25  0.00000000000000000D+00  0.00000000000000000D+00  0.00000000000000000D+00  0.00000000000000000D+00  0.00000000000000000D+00
60 26  0.00000000000000000D+00  0.00000000000000000D+00  0.00000000000000000D+00  3.52541078559141600D-07  3.52541078450975400D-07
60 27  3.52541078416181000D-07  0.00000000000000000D+00  0.00000000000000000D+00  0.00000000000000000D+00  0.00000000000000000D+00
60 28  0.00000000000000000D+00  0.00000000000000000D+00  0.00000000000000000D+00  0.00000000000000000D+00  0.00000000000000000D+00
60 29  0.00000000000000000D+00  0.00000000000000000D+00  0.00000000000000000D+00  0.00000000000000000D+00  0.00000000000000000D+00
60 30  0.00000000000000000D+00  0.00000000000000000D+00  0.00000000000000000D+00  0.00000000000000000D+00  0.00000000000000000D+00
60 31  0.00000000000000000D+00  0.00000000000000000D+00  0.00000000000000000D+00  0.00000000000000000D+00  0.00000000000000000D+00
60 32  0.00000000000000000D+00  0.00000000000000000D+00  0.00000000000000000D+00  0.00000000000000000D+00  0.00000000000000000D+00
 $END