 $CONTRL SCFTYP=RHF RUNTYP=IRC ICHARG=0 MULT=1 DFTTYP=B3LYP EXETYP=RUN
      INTTYP=HONDO ICUT=13 ITOL=30 D5=.T. MAXIT=100 GENCON=.F. WIDE=1 FSTINT=.T.
 $END
 $SYSTEM TIMLIM=60000 MWORDS=200 MASMEM=200000000 MXBCST=-1 KDIAG=0 NOJAC=1 $END
 $MOORTH NOSTF=.T. NOZERO=.T. SYMS=.T. SYMDEN=.T. SYMVEC=.T. SYMVX=.T.
      TOLE=0.0D0 TOLZ=0.0D0 $END
 $GUESS GUESS=HUCKEL $END
 $IRC FORWRD=.F. MXOPT=100 NPOINT=35 PACE=GS2 SADDLE=.T. $END
 $SCF DIRSCF=.T. FDIFF=.F. DIIS=.T. DAMP=.T. SHIFT=.T. SOSCF=.F. $END
 $DATA
 Step 19 from C3H7F_energy_NEW.out
 C1
    C  6.0            3.1838410000          6.5300850000         -1.0049770000
S   8
1    6665.0000000       0.0006920
2    1000.0000000       0.0053290
3     228.0000000       0.0270770
4      64.7100000       0.1017180
5      21.0600000       0.2747400
6       7.4950000       0.4485640
7       2.7970000       0.2850740
8       0.5215000       0.0152040
S   8
1    6665.0000000      -0.0001460
2    1000.0000000      -0.0011540
3     228.0000000      -0.0057250
4      64.7100000      -0.0233120
5      21.0600000      -0.0639550
6       7.4950000      -0.1499810
7       2.7970000      -0.1272620
8       0.5215000       0.5445290
S   1
1       0.1596000       1.0000000
S   1
1       0.0469000       1.0000000
P   3
1       9.4390000       0.0381090
2       2.0020000       0.2094800
3       0.5456000       0.5085570
P   1
1       0.1517000       1.0000000
P   1
1       0.0404100       1.0000000
D   1
1       0.5500000       1.0000000
D   1
1       0.1510000       1.0000000

    C  6.0            3.5600530000          7.9535830000         -3.5002550000
S   8
1    6665.0000000       0.0006920
2    1000.0000000       0.0053290
3     228.0000000       0.0270770
4      64.7100000       0.1017180
5      21.0600000       0.2747400
6       7.4950000       0.4485640
7       2.7970000       0.2850740
8       0.5215000       0.0152040
S   8
1    6665.0000000      -0.0001460
2    1000.0000000      -0.0011540
3     228.0000000      -0.0057250
4      64.7100000      -0.0233120
5      21.0600000      -0.0639550
6       7.4950000      -0.1499810
7       2.7970000      -0.1272620
8       0.5215000       0.5445290
S   1
1       0.1596000       1.0000000
S   1
1       0.0469000       1.0000000
P   3
1       9.4390000       0.0381090
2       2.0020000       0.2094800
3       0.5456000       0.5085570
P   1
1       0.1517000       1.0000000
P   1
1       0.0404100       1.0000000
D   1
1       0.5500000       1.0000000
D   1
1       0.1510000       1.0000000

    C  6.0            1.3268920000          7.8228960000         -5.2941600000
S   8
1    6665.0000000       0.0006920
2    1000.0000000       0.0053290
3     228.0000000       0.0270770
4      64.7100000       0.1017180
5      21.0600000       0.2747400
6       7.4950000       0.4485640
7       2.7970000       0.2850740
8       0.5215000       0.0152040
S   8
1    6665.0000000      -0.0001460
2    1000.0000000      -0.0011540
3     228.0000000      -0.0057250
4      64.7100000      -0.0233120
5      21.0600000      -0.0639550
6       7.4950000      -0.1499810
7       2.7970000      -0.1272620
8       0.5215000       0.5445290
S   1
1       0.1596000       1.0000000
S   1
1       0.0469000       1.0000000
P   3
1       9.4390000       0.0381090
2       2.0020000       0.2094800
3       0.5456000       0.5085570
P   1
1       0.1517000       1.0000000
P   1
1       0.0404100       1.0000000
D   1
1       0.5500000       1.0000000
D   1
1       0.1510000       1.0000000

    H  1.0            1.2912030000          5.6873950000         -0.8801190000
S   3
1      13.0100000       0.0196850
2       1.9620000       0.1379770
3       0.4446000       0.4781480
S   1
1       0.1220000       1.0000000
S   1
1       0.0297400       1.0000000
P   1
1       0.7270000       1.0000000
P   1
1       0.1410000       1.0000000

    H  1.0            3.4512130000          7.7699340000          0.6362190000
S   3
1      13.0100000       0.0196850
2       1.9620000       0.1379770
3       0.4446000       0.4781480
S   1
1       0.1220000       1.0000000
S   1
1       0.0297400       1.0000000
P   1
1       0.7270000       1.0000000
P   1
1       0.1410000       1.0000000

    H  1.0            4.5760940000          4.9989060000         -0.8807290000
S   3
1      13.0100000       0.0196850
2       1.9620000       0.1379770
3       0.4446000       0.4781480
S   1
1       0.1220000       1.0000000
S   1
1       0.0297400       1.0000000
P   1
1       0.7270000       1.0000000
P   1
1       0.1410000       1.0000000

    H  1.0            4.0898440000          9.9331880000         -3.1573400000
S   3
1      13.0100000       0.0196850
2       1.9620000       0.1379770
3       0.4446000       0.4781480
S   1
1       0.1220000       1.0000000
S   1
1       0.0297400       1.0000000
P   1
1       0.7270000       1.0000000
P   1
1       0.1410000       1.0000000

    H  1.0           -0.3277940000          8.7256900000         -4.4195680000
S   3
1      13.0100000       0.0196850
2       1.9620000       0.1379770
3       0.4446000       0.4781480
S   1
1       0.1220000       1.0000000
S   1
1       0.0297400       1.0000000
P   1
1       0.7270000       1.0000000
P   1
1       0.1410000       1.0000000

    H  1.0            1.7518990000          8.8058210000         -7.0698310000
S   3
1      13.0100000       0.0196850
2       1.9620000       0.1379770
3       0.4446000       0.4781480
S   1
1       0.1220000       1.0000000
S   1
1       0.0297400       1.0000000
P   1
1       0.7270000       1.0000000
P   1
1       0.1410000       1.0000000

    H  1.0            0.8516810000          5.8453200000         -5.7148580000
S   3
1      13.0100000       0.0196850
2       1.9620000       0.1379770
3       0.4446000       0.4781480
S   1
1       0.1220000       1.0000000
S   1
1       0.0297400       1.0000000
P   1
1       0.7270000       1.0000000
P   1
1       0.1410000       1.0000000

    F  9.0            5.6886010000          6.8950510000         -4.7577800000
S   8
1   14710.0000000       0.0007210
2    2207.0000000       0.0055530
3     502.8000000       0.0282670
4     142.6000000       0.1064440
5      46.4700000       0.2868140
6      16.7000000       0.4486410
7       6.3560000       0.2647610
8       1.3160000       0.0153330
S   8
1   14710.0000000      -0.0001650
2    2207.0000000      -0.0013080
3     502.8000000      -0.0064950
4     142.6000000      -0.0266910
5      46.4700000      -0.0736900
6      16.7000000      -0.1707760
7       6.3560000      -0.1123270
8       1.3160000       0.5628140
S   1
1       0.3897000       1.0000000
S   1
1       0.0986300       1.0000000
P   3
1      22.6700000       0.0448780
2       4.9770000       0.2357180
3       1.3470000       0.5085210
P   1
1       0.3471000       1.0000000
P   1
1       0.0850200       1.0000000
D   1
1       1.6400000       1.0000000
D   1
1       0.4640000       1.0000000

 $END
 $HESS
ENERGY IS     -218.4051557342 E(NUC) IS      0.0
   1   1   -1.6714517520000001D+00   6.6545662699999997D-01   5.6139618339999999D-03  -7.5420234249999997D-04   6.0773965140000000D-05
   1   6   -4.8120058480000002D-04   4.8692167770000001D-05   2.6584438439999999D-05  -1.6703150440000001D+00  -8.9197418189999997D-05
   1  11   -1.8726057010000001D-03   3.9450495799999997D-05   5.9214609569999999D-05   1.3567351039999999D-04   1.5294068150000000D-04
   1  16   -2.7057103630000000D-05   4.5451658409999999D-05  -2.2474528570000000D-04   1.1493499600000000D-04  -1.4842623380000001D-04
   1  21   -3.2995013490000002D-05   1.1330671960000001D-05   6.6566861420000001D-01   1.0088097210000000D-03  -2.0788932590000001D-05
   1  26    6.6605119280000002D-01  -2.1743576479999999D-05   2.1952373960000001D-04  -5.2334160740000002D-05  -5.1052962100000003D-04
   1  31   -1.9447144949999999D-05   3.6667602369999997D-05   8.6838406959999998D-05
   2   1    6.6545662699999997D-01   9.6318580700000000D-01  -9.6071932339999999D-05  -8.4801967390000005D-05  -1.7560593929999999D-04
   2   6   -2.1729923480000001D-04  -5.4121117059999998D-05   1.3502565109999999D-06   6.6663213929999998D-01  -5.3519242939999999D-05
   2  11    9.9734793759999994D-05   1.1962897739999999D-05   4.8677584740000000D-04  -4.3194035860000002D-04   3.6142247420000002D-05
   2  16   -1.2146664859999999D-04   1.0962362200000000D-04  -8.9119433270000003D-04   3.7196633779999999D-05  -1.3272163020000001D-03
   2  21   -5.1226150829999996D-06   4.5004429390000002D-06   9.6172452649999995D-01  -9.3227127759999999D-04  -4.4987182960000001D-06
   2  26    9.6302291390000005D-01   4.0810404140000000D-05   1.3264731009999999D-04   2.7651802849999999D-05  -2.3818084509999999D-04
   2  31   -2.5276663220000000D-05   4.0435858330000000D-05   3.7227275680000000D-06
   3   1    5.6139618339999999D-03  -9.6071932339999999D-05   5.7581503059999998D-05   5.8940313260000000D-05  -2.6447115480000001D-03
   3   6   -2.6923119700000001D-04   6.5109294030000003D-05   4.0998510030000001D-05   9.6212369870000003D-01   3.6581215570000003D-05
   3  11   -1.0209322790000001D-05  -4.8009168039999999D-05  -1.5497815500000000D-03   9.6341318059999993D-06  -2.2111847780000000D-04
   3  16    2.4527489530000001D-04  -4.5928531410000000D-05  -4.2979821409999998D-05   1.3565609970000000D-04  -2.3356975909999999D-05
   3  21   -1.0199913960000000D-04   8.1976181540000005D-06   1.0434693080000000D-04  -5.2599341189999999D-04   1.5980169010000002D-05
   3  26   -2.7346379479999999D-03   3.5416740149999999D-05  -4.3000720670000001D-06  -1.2928300920000000D-04  -2.7904210589999999D-04
   3  31    2.1571636420000000D-05   3.5444116039999998D-05  -2.6079802809999999D-05
   4   1   -7.5420234249999997D-04  -8.4801967390000005D-05   5.8940313260000000D-05  -4.3697680609999998D-05  -9.5195338279999999D-04
   4   6   -1.6784357250000000D-03   9.4388390590000005D-05   9.1402027270000000D-07  -3.7500070369999999D-05  -9.9041947080000009D-04
   4  11   -1.0479434330000000D-04   4.7682328879999997D-05  -1.1623957940000001D-04  -5.2983333019999996D-06  -1.6708975340000001D+00
   4  16    6.2938108610000001D-06   5.2192994510000000D-07  -3.2243330179999999D-06  -2.4264990200000000D-04   8.3259829349999992D-06
   4  21    4.2285633069999998D-04   3.9397754899999998D-06   4.1756838249999998D-06  -3.1981579289999998D-04  -1.0224685279999999D-06
   4  26   -1.0154739890000000D-03   4.0176910399999999D-05   1.3725856840000000D-05  -8.0855412259999993D-05  -9.6867301079999995D-06
   4  31   -1.6697658510000000D+00  -7.3898640430000005D-08  -3.1458167030000002D-05
   5   1    6.0773965140000000D-05  -1.7560593929999999D-04  -2.6447115480000001D-03  -9.5195338279999999D-04   9.8382186979999999D-05
   5   6    1.3920042680000001D-03   4.7184578370000001D-06  -4.1454730270000002D-05   5.3204887860000003D-03  -8.5932616809999995D-04
   5  11    2.5160609839999998D-04   6.6567005620000005D-05   6.6986418990000002D-05   6.9701874079999998D-06   6.6748219060000002D-01
   5  16    4.0815598200000000D-05  -8.0614634119999996D-05  -8.7662232690000001D-05  -3.4322659949999997D-05   1.6042383750000001D-05
   5  21   -2.7230760980000000D-04   7.7749524859999999D-06   1.2704339210000001D-04  -1.0413516789999999D-03   1.9045793519999998D-05
   5  26    1.3382946940000001D-04  -1.7028114690000000D-07   2.6648765509999998D-07   5.2326277420000004D-04   3.1346859640000000D-05
   5  31    6.6484430200000000D-01  -3.7520067670000002D-05   4.0947784650000003D-05
   6   1   -4.8120058480000002D-04  -2.1729923480000001D-04  -2.6923119700000001D-04  -1.6784357250000000D-03   1.3920042680000001D-03
   6   6   -8.6144829579999998D-05  -2.4175071989999999D-05  -1.3429743580000000D-04   4.6358356709999999D-04   5.1159608110000001D-05
   6  11    7.7390167520000004D-05  -1.0427089860000000D-04  -1.8553847569999999D-04   9.1779736430000006D-05   9.6143399780000005D-01
   6  16   -6.2155245140000005D-05  -1.3501645300000001D-03   1.1207624489999999D-04  -2.6748949600000001D-04   3.0084662209999999D-05
   6  21   -8.6704031310000005D-04   2.0448229190000001D-05  -1.9243920209999999D-04   1.1352542280000000D-03  -2.6896102580000000D-05
   6  26   -3.2583573030000000D-05  -3.2405620860000000D-05   2.7150571860000000D-05  -2.2783437180000000D-04   2.6062770959999999D-05
   6  31    9.6267821870000003D-01  -1.3311373210000000D-05   3.0456830810000001D-05
   7   1    4.8692167770000001D-05  -5.4121117059999998D-05   6.5109294030000003D-05   9.4388390590000005D-05   4.7184578370000001D-06
   7   6   -2.4175071989999999D-05  -6.1495586270000002D-05  -8.0747515840000006D-05  -1.3118630520000000D-04  -2.2888223430000000D-04
   7  11    9.3033620050000007D-06  -1.6711151080000000D+00   1.2202761620000000D-04   1.0304231030000000D-06  -7.6290107209999998D-04
   7  16    1.7089928790000000D-05   4.1754915030000001D-04   4.1386934139999999D-05   4.1840651240000000D-04   1.5888483410000001D-04
   7  21   -1.6751271260000000D+00  -4.7997818839999998D-05  -8.2902901679999998D-04  -4.9650495640000004D-04  -1.5655458430000000D-06
   7  26   -2.5533616299999999D-06  -2.1034790919999998D-06   9.3416297040000007D-05  -7.9664955280000003D-05  -9.1359176830000001D-05
   7  31   -2.4074964949999999D-04  -1.0728943130000000D-05   3.8855000950000000D-05
   8   1    2.6584438439999999D-05   1.3502565109999999D-06   4.0998510030000001D-05   9.1402027270000000D-07  -4.1454730270000002D-05
   8   6   -1.3429743580000000D-04  -8.0747515840000006D-05   3.1524821430000001D-04  -1.1292490810000000D-03  -1.4448374750000001D-03
   8  11   -2.4038335650000001D-05   6.6562149960000005D-01   5.1898040609999999D-05  -2.3451410580000001D-05  -1.2301786850000000D-04
   8  16    1.2384799060000001D-04   4.6159770860000003D-04   9.1482614029999998D-05  -9.0806696070000004D-04  -1.8146372150000000D-04
   8  21    6.6536686759999997D-01  -1.1866917880000001D-06  -8.4088207379999998D-05  -2.8365628729999999D-03   2.7328620809999999D-05
   8  26   -1.7672951089999999D-05  -2.1111772110000002D-05  -2.3871161219999998D-06   1.1623139330000000D-05  -5.8773015979999999D-05
   8  31   -1.4425637400000001D-03   1.6099066800000000D-05  -5.7168646879999997D-07
   9   1   -1.6703150440000001D+00   6.6663213929999998D-01   9.6212369870000003D-01  -3.7500070369999999D-05   5.3204887860000003D-03
   9   6    4.6358356709999999D-04  -1.3118630520000000D-04  -1.1292490810000000D-03   5.2585344900000000D-04  -1.2840527029999999D-03
   9  11   -2.8869888580000000D-05   9.6645677980000000D-01  -4.6286614720000000D-04  -4.4506377210000001D-05   7.3402786869999998D-05
   9  16   -1.9093696450000000D-04  -1.6500456320000001D+00  -1.8260398280000001D-04  -2.6871248820000001D-04   1.5164021970000000D-05
   9  21    9.7941633559999997D-01  -7.9785560809999997D-05  -1.1702701010000000D-04  -4.9866969550000002D-04  -2.3546021100000000D-05
   9  26   -9.3640650520000000D-05   1.7274317680000000D-05  -2.3305676930000001D-05  -9.3127951829999992D-06   9.5545344030000001D-06
   9  31   -1.2859708000000001D-03  -1.6720071860000001D+00  -3.6001174119999997D-05
  10   1   -8.9197418189999997D-05  -5.3519242939999999D-05   3.6581215570000003D-05  -9.9041947080000009D-04  -8.5932616809999995D-04
  10   6    5.1159608110000001D-05  -2.2888223430000000D-04  -1.4448374750000001D-03  -1.2840527029999999D-03   1.3517417180000000D-03
  10  11    5.6009959520000000D-05   5.1019205530000002D-05  -2.7372833180000001D-04   4.3659717160000002D-05   4.3347005510000003D-03
  10  16   -6.5389446480000005D-04   6.6200423470000003D-01  -4.1945333670000002D-05  -1.6760478569999999D+00   2.0864975320000000D-05
  10  21    3.5138079779999997D-05  -2.0037735790000002D-03   5.5999929469999999D-03   2.3496999390000000D-04  -4.6209155559999999D-05
  10  26   -4.6276670650000000D-05  -1.6740512439999999D+00  -2.3096171909999999D-05   1.1084054529999999D-05  -2.9516127040000000D-05
  10  31    2.6564235590000001D-05   6.6497988190000001D-01   1.9687251059999999D-05
  11   1   -1.8726057010000001D-03   9.9734793759999994D-05  -1.0209322790000001D-05  -1.0479434330000000D-04   2.5160609839999998D-04
  11   6    7.7390167520000004D-05   9.3033620050000007D-06  -2.4038335650000001D-05  -2.8869888580000000D-05   5.6009959520000000D-05
  11  11    3.1852373680000001D-05   4.9864745609999996D-04  -1.3199919780000000D-03   2.9986086740000000D-05   5.6211920030000003D-04
  11  16   -6.8775664690000002D-04   9.5897723710000005D-01  -1.1859389720000000D-04   6.7668973129999999D-01  -2.9715590520000001D-05
  11  21    3.7209374000000000D-06   9.0492898479999995D-04  -7.4226770300000005D-05  -8.2422396950000002D-06   1.9420890500000000D-05
  11  26    2.6881836880000002D-07   6.6334532800000001D-01   3.9289784219999997D-05  -3.7723307169999998D-06  -1.7942599759999999D-04
  11  31    8.3038850800000005D-05   9.6048306230000002D-01  -1.8609557150000000D-06
  12   1    3.9450495799999997D-05   1.1962897739999999D-05  -4.8009168039999999D-05   4.7682328879999997D-05   6.6567005620000005D-05
  12   6   -1.0427089860000000D-04  -1.6711151080000000D+00   6.6562149960000005D-01   9.6645677980000000D-01   5.1019205530000002D-05
  12  11    4.9864745609999996D-04   4.9858167820000000D-03  -2.1251724109999999D-03   5.3352038339999998D-05   4.3305192869999998D-04
  12  16   -1.4019626039999999D-04  -9.9779591300000006D-05   2.1851941630000001D-04   9.6398847180000002D-01  -1.5288787339999999D-04
  12  21   -2.1133147430000000D-05   8.5354106270000001D-04   1.0377927350000001D-05   6.5195235409999994D-05  -3.1242949470000001D-05
  12  26    2.9283229239999999D-03   9.6396716449999997D-01   3.3733445070000003D-05   1.3106676220000000D-05  -2.2812087500000000D-04
  12  31    1.5624056250000001D-04  -2.7956915670000000D-04  -3.1326585370000002D-05
  13   1    5.9214609569999999D-05   4.8677584740000000D-04  -1.5497815500000000D-03  -1.1623957940000001D-04   6.6986418990000002D-05
  13   6   -1.8553847569999999D-04   1.2202761620000000D-04   5.1898040609999999D-05  -4.6286614720000000D-04  -2.7372833180000001D-04
  13  11   -1.3199919780000000D-03  -2.1251724109999999D-03  -1.0549373099999999D-04   4.4766503269999998D-06  -1.4733822760000001D-03
  13  16   -7.1008698090000000D-05  -1.1236179900000001D-03  -7.6113645220000003D-04   4.4872096360000003D-05  -3.4005519270000002D-04
  13  21   -1.4169766370000000D-03  -6.0336549840000000D-04   2.2046928499999999D-05  -1.6716094680000000D+00   9.6040557920000003D-04
  13  26    1.1016500060000000D-03  -1.0001962880000000D-03   3.9220751639999997D-05   3.1581752260000001D-05   4.9642281089999998D-04
  13  31   -9.6031081040000004D-05  -1.2431346419999999D-03  -1.6718864579999999D+00
  14   1    1.3567351039999999D-04  -4.3194035860000002D-04   9.6341318059999993D-06  -5.2983333019999996D-06   6.9701874079999998D-06
  14   6    9.1779736430000006D-05   1.0304231030000000D-06  -2.3451410580000001D-05  -4.4506377210000001D-05   4.3659717160000002D-05
  14  11    2.9986086740000000D-05   5.3352038339999998D-05   4.4766503269999998D-06  -2.2904224160000000D-05  -2.4517358570000001D-04
  14  16   -1.2890778070000001D-05   4.9730538260000005D-04  -2.8500995550000000D-03   5.2711020570000002D-04  -5.4237774309999996D-04
  14  21   -1.3146348059999999D-04  -2.4742550599999999D-04   1.4198993090000000D-05   6.6806883589999999D-01  -4.8904969210000000D-04
  14  26   -1.1732450420000001D-04  -8.6238583639999995D-04   1.2111457220000000D-06  -2.0405673340000000D-05   2.6127358779999999D-04
  14  31   -6.9294047490000001D-05  -2.0772706310000001D-03   6.6422000299999995D-01
  15   1    1.5294068150000000D-04   3.6142247420000002D-05  -2.2111847780000000D-04  -1.6708975340000001D+00   6.6748219060000002D-01
  15   6    9.6143399780000005D-01  -7.6290107209999998D-04  -1.2301786850000000D-04   7.3402786869999998D-05   4.3347005510000003D-03
  15  11    5.6211920030000003D-04   4.3305192869999998D-04  -1.4733822760000001D-03  -2.4517358570000001D-04  -7.0257976560000001D-04
  15  16   -1.4646807160000001D-04   5.8938556999999999D-04  -3.4663403190000002D-04  -1.5953217309999999D-03   2.4244831880000000D-04
  15  21   -6.5203076569999999D-04   5.0570443679999997D-04   8.2319034049999994D-06   9.6315855989999999D-01  -9.5876159450000004D-04
  15  26   -1.8919574690000001D-05   5.2253057099999997D-05  -3.5958761470000001D-05   8.8135726190000002D-05   2.8836229490000000D-04
  15  31    3.1762057230000000D-05  -6.6286595300000004D-05   9.6101875810000004D-01
  16   1   -2.7057103630000000D-05  -1.2146664859999999D-04   2.4527489530000001D-04   6.2938108610000001D-06   4.0815598200000000D-05
  16   6   -6.2155245140000005D-05   1.7089928790000000D-05   1.2384799060000001D-04  -1.9093696450000000D-04  -6.5389446480000005D-04
  16  11   -6.8775664690000002D-04  -1.4019626039999999D-04  -7.1008698090000000D-05  -1.2890778070000001D-05  -1.4646807160000001D-04
  16  16    2.6252385840000001D-05   5.8998622110000001D-03   2.0936688550000001D-04   4.3937108600000001D-04   8.6706727610000005D-06
  16  21    5.0055948820000003D-03  -5.3135963259999996D-04  -4.5904441979999997D-06  -2.1164607669999999D-04   4.8083981629999998D-04
  16  26    1.9247933790000000D-06  -1.3543100800000001D-04  -5.6358257240000000D-06   5.7740035670000000D-06   4.2038167180000000D-05
  16  31   -6.4409766200000001D-06  -1.7967483450000000D-04  -1.6788853280000000D-03
  17   1    4.5451658409999999D-05   1.0962362200000000D-04  -4.5928531410000000D-05   5.2192994510000000D-07  -8.0614634119999996D-05
  17   6   -1.3501645300000001D-03   4.1754915030000001D-04   4.6159770860000003D-04  -1.6500456320000001D+00   6.6200423470000003D-01
  17  11    9.5897723710000005D-01  -9.9779591300000006D-05  -1.1236179900000001D-03   4.9730538260000005D-04   5.8938556999999999D-04
  17  16    5.8998622110000001D-03   7.5488007359999999D-05  -1.4983831780000000D-05   2.9811920740000000D-05   5.5780627209999999D-05
  17  21   -3.9790130910000000D-05  -5.7045209140000003D-04   1.7660881970000000D-05   1.7956792359999999D-05   1.1128188790000000D-03
  17  26   -4.4778498869999999D-06  -9.4118639670000002D-05  -1.5053220350000000D-05  -2.7272631020000002D-05   1.4928622819999999D-04
  17  31   -7.1520124470000001D-05  -1.7060789560000001D-04   1.3496571229999999D-03
  18   1   -2.2474528570000000D-04  -8.9119433270000003D-04  -4.2979821409999998D-05  -3.2243330179999999D-06  -8.7662232690000001D-05
  18   6    1.1207624489999999D-04   4.1386934139999999D-05   9.1482614029999998D-05  -1.8260398280000001D-04  -4.1945333670000002D-05
  18  11   -1.1859389720000000D-04   2.1851941630000001D-04  -7.6113645220000003D-04  -2.8500995550000000D-03  -3.4663403190000002D-04
  18  16    2.0936688550000001D-04  -1.4983831780000000D-05   6.9374669480000005D-05   4.7230404769999998D-03  -2.6207486559999999D-04
  18  21   -4.1214564219999998D-04  -1.5992689280000001D-04   6.7172311700000000D-06  -2.0517325780000000D-04  -2.3382187759999999D-03
  18  26   -1.7735578400000001D-04   7.4071579439999999D-06   1.7200333970000000D-06  -2.3879071760000001D-05   1.8153695900000001D-04
  18  31   -7.7547615720000005D-05  -8.2340575469999996D-05  -1.0965241600000000D-04
  19   1    1.1493499600000000D-04   3.7196633779999999D-05   1.3565609970000000D-04  -2.4264990200000000D-04  -3.4322659949999997D-05
  19   6   -2.6748949600000001D-04   4.1840651240000000D-04  -9.0806696070000004D-04  -2.6871248820000001D-04  -1.6760478569999999D+00
  19  11    6.7668973129999999D-01   9.6398847180000002D-01   4.4872096360000003D-05   5.2711020570000002D-04  -1.5953217309999999D-03
  19  16    4.3937108600000001D-04   2.9811920740000000D-05   4.7230404769999998D-03  -7.2348178759999997D-04   1.2243059830000000D-05
  19  21   -1.5098678029999999D-06  -4.5102037550000002D-04   1.1382528560000000D-05  -7.5558356959999997D-04  -7.6793165470000001D-05
  19  26   -7.6195634820000005D-05  -1.0212316410000000D-04  -1.6729926810000000D+00   3.5950418590000003D-05   1.9534414179999999D-05
  19  31    2.5814819160000001D-04  -3.7054044659999997D-05   5.5573462469999999D-06
  20   1   -1.4842623380000001D-04  -1.3272163020000001D-03  -2.3356975909999999D-05   8.3259829349999992D-06   1.6042383750000001D-05
  20   6    3.0084662209999999D-05   1.5888483410000001D-04  -1.8146372150000000D-04   1.5164021970000000D-05   2.0864975320000000D-05
  20  11   -2.9715590520000001D-05  -1.5288787339999999D-04  -3.4005519270000002D-04  -5.4237774309999996D-04   2.4244831880000000D-04
  20  16    8.6706727610000005D-06   5.5780627209999999D-05  -2.6207486559999999D-04   1.2243059830000000D-05  -1.4972894679999999D-04
  20  21   -2.5297013559999999D-06   7.1922284350000001D-05   1.6736851040000001D-05  -6.3931408170000005D-05  -4.9846695540000003D-04
  20  26    5.8011894729999999D-06  -4.1530539050000001D-05   6.6638597489999996D-01   4.0466384119999997D-05   1.4672598639999999D-05
  20  31    1.5608484130000000D-03  -3.9732253459999998D-06  -4.5977800490000000D-05
  21   1   -3.2995013490000002D-05  -5.1226150829999996D-06  -1.0199913960000000D-04   4.2285633069999998D-04  -2.7230760980000000D-04
  21   6   -8.6704031310000005D-04  -1.6751271260000000D+00   6.6536686759999997D-01   9.7941633559999997D-01   3.5138079779999997D-05
  21  11    3.7209374000000000D-06  -2.1133147430000000D-05  -1.4169766370000000D-03  -1.3146348059999999D-04  -6.5203076569999999D-04
  21  16    5.0055948820000003D-03  -3.9790130910000000D-05  -4.1214564219999998D-04  -1.5098678029999999D-06  -2.5297013559999999D-06
  21  21    1.7998533699999999D-05  -8.0867871629999998D-05  -2.4766674620000002D-04  -1.3563175389999999D-03  -6.0508980380000004D-04
  21  26    1.6634280570000000D-05   8.9411972679999999D-06   9.6365053660000000D-01   3.5466358630000001D-05   4.3656267389999999D-06
  21  31    1.3488585670000000D-03  -3.0057259180000001D-06   1.6138158189999999D-05
  22   1    1.1330671960000001D-05   4.5004429390000002D-06   8.1976181540000005D-06   3.9397754899999998D-06   7.7749524859999999D-06
  22   6    2.0448229190000001D-05  -4.7997818839999998D-05  -1.1866917880000001D-06  -7.9785560809999997D-05  -2.0037735790000002D-03
  22  11    9.0492898479999995D-04   8.5354106270000001D-04  -6.0336549840000000D-04  -2.4742550599999999D-04   5.0570443679999997D-04
  22  16   -5.3135963259999996D-04  -5.7045209140000003D-04  -1.5992689280000001D-04  -4.5102037550000002D-04   7.1922284350000001D-05
  22  21   -8.0867871629999998D-05  -1.6731531870000000D+00   1.4449442179999999D-05  -5.4494909679999996D-04   2.1731261560000001D-04
  22  26    1.5597846750000001D-05   1.0781567000000001D-03   8.4027810960000000D-05  -7.9272623790000003D-06   9.0228313470000002D-05
  22  31   -4.8225634559999998D-05   1.8131860510000000D-05  -9.3784778069999999D-05
  23   1    6.6566861420000001D-01   9.6172452649999995D-01   1.0434693080000000D-04   4.1756838249999998D-06   1.2704339210000001D-04
  23   6   -1.9243920209999999D-04  -8.2902901679999998D-04  -8.4088207379999998D-05  -1.1702701010000000D-04   5.5999929469999999D-03
  23  11   -7.4226770300000005D-05   1.0377927350000001D-05   2.2046928499999999D-05   1.4198993090000000D-05   8.2319034049999994D-06
  23  16   -4.5904441979999997D-06   1.7660881970000000D-05   6.7172311700000000D-06   1.1382528560000000D-05   1.6736851040000001D-05
  23  21   -2.4766674620000002D-04   1.4449442179999999D-05  -1.9311149680000000D-04  -1.0014267140000000D-04  -4.0481531190000000D-05
  23  26    4.8634838129999997D-06   9.1290692490000002D-04   4.6391909010000000D-05  -4.2720318599999997D-05   2.1107204499999998D-06
  23  31   -1.1672139740000000D-04   2.2754722010000001D-05  -5.5033615749999999D-05
  24   1    1.0088097210000000D-03  -9.3227127759999999D-04  -5.2599341189999999D-04  -3.1981579289999998D-04  -1.0413516789999999D-03
  24   6    1.1352542280000000D-03  -4.9650495640000004D-04  -2.8365628729999999D-03  -4.9866969550000002D-04   2.3496999390000000D-04
  24  11   -8.2422396950000002D-06   6.5195235409999994D-05  -1.6716094680000000D+00   6.6806883589999999D-01   9.6315855989999999D-01
  24  16   -2.1164607669999999D-04   1.7956792359999999D-05  -2.0517325780000000D-04  -7.5558356959999997D-04  -6.3931408170000005D-05
  24  21   -1.3563175389999999D-03  -5.4494909679999996D-04  -1.0014267140000000D-04   5.4350694539999998D-03   9.4196421220000005D-05
  24  26    9.5850470670000003D-05  -7.6879804570000000D-05  -4.7126160110000002D-04   2.4097595879999999D-05  -2.3571348820000000D-05
  24  31   -1.7524157340000001D-04   2.9232352150000002D-04   1.4153679200000000D-05
  25   1   -2.0788932590000001D-05  -4.4987182960000001D-06   1.5980169010000002D-05  -1.0224685279999999D-06   1.9045793519999998D-05
  25   6   -2.6896102580000000D-05  -1.5655458430000000D-06   2.7328620809999999D-05  -2.3546021100000000D-05  -4.6209155559999999D-05
  25  11    1.9420890500000000D-05  -3.1242949470000001D-05   9.6040557920000003D-04  -4.8904969210000000D-04  -9.5876159450000004D-04
  25  16    4.8083981629999998D-04   1.1128188790000000D-03  -2.3382187759999999D-03  -7.6793165470000001D-05  -4.9846695540000003D-04
  25  21   -6.0508980380000004D-04   2.1731261560000001D-04  -4.0481531190000000D-05   9.4196421220000005D-05  -1.6749666569999999D+00
  25  26    1.7986597030000001D-06  -1.7756088790000000D-04   2.2967964080000000D-04  -1.2428485960000000D-05  -2.4548575880000000D-05
  25  31    1.3234504370000000D-05   1.3523038050000000D-03  -1.8078904309999999D-04
  26   1    6.6605119280000002D-01   9.6302291390000005D-01  -2.7346379479999999D-03  -1.0154739890000000D-03   1.3382946940000001D-04
  26   6   -3.2583573030000000D-05  -2.5533616299999999D-06  -1.7672951089999999D-05  -9.3640650520000000D-05  -4.6276670650000000D-05
  26  11    2.6881836880000002D-07   2.9283229239999999D-03   1.1016500060000000D-03  -1.1732450420000001D-04  -1.8919574690000001D-05
  26  16    1.9247933790000000D-06  -4.4778498869999999D-06  -1.7735578400000001D-04  -7.6195634820000005D-05   5.8011894729999999D-06
  26  21    1.6634280570000000D-05   1.5597846750000001D-05   4.8634838129999997D-06   9.5850470670000003D-05   1.7986597030000001D-06
  26  26   -2.5573092840000001D-05  -7.0846301060000001D-05   1.0242813870000000D-04  -5.0506385230000000D-05   4.1404906829999999D-05
  26  31    2.7680613449999998D-05   2.2552860090000000D-03   2.2014712550000000D-04
  27   1   -2.1743576479999999D-05   4.0810404140000000D-05   3.5416740149999999D-05   4.0176910399999999D-05  -1.7028114690000000D-07
  27   6   -3.2405620860000000D-05  -2.1034790919999998D-06  -2.1111772110000002D-05   1.7274317680000000D-05  -1.6740512439999999D+00
  27  11    6.6334532800000001D-01   9.6396716449999997D-01  -1.0001962880000000D-03  -8.6238583639999995D-04   5.2253057099999997D-05
  27  16   -1.3543100800000001D-04  -9.4118639670000002D-05   7.4071579439999999D-06  -1.0212316410000000D-04  -4.1530539050000001D-05
  27  21    8.9411972679999999D-06   1.0781567000000001D-03   9.1290692490000002D-04  -7.6879804570000000D-05  -1.7756088790000000D-04
  27  26   -7.0846301060000001D-05   9.2388524000000007D-06   1.2934839450000001D-05  -1.6720101990000000D+00   3.5113200290000000D-05
  27  31    7.3398343190000001D-06   7.1849593370000000D-06  -5.0492754979999999D-06
  28   1    2.1952373960000001D-04   1.3264731009999999D-04  -4.3000720670000001D-06   1.3725856840000000D-05   2.6648765509999998D-07
  28   6    2.7150571860000000D-05   9.3416297040000007D-05  -2.3871161219999998D-06  -2.3305676930000001D-05  -2.3096171909999999D-05
  28  11    3.9289784219999997D-05   3.3733445070000003D-05   3.9220751639999997D-05   1.2111457220000000D-06  -3.5958761470000001D-05
  28  16   -5.6358257240000000D-06  -1.5053220350000000D-05   1.7200333970000000D-06  -1.6729926810000000D+00   6.6638597489999996D-01
  28  21    9.6365053660000000D-01   8.4027810960000000D-05   4.6391909010000000D-05  -4.7126160110000002D-04   2.2967964080000000D-04
  28  26    1.0242813870000000D-04   1.2934839450000001D-05  -8.4204560769999997D-05   6.6536591889999996D-01   3.6863670020000002D-05
  28  31    9.1075370200000000D-05   3.5179123190000000D-05   4.6624931360000000D-05
  29   1   -5.2334160740000002D-05   2.7651802849999999D-05  -1.2928300920000000D-04  -8.0855412259999993D-05   5.2326277420000004D-04
  29   6   -2.2783437180000000D-04  -7.9664955280000003D-05   1.1623139330000000D-05  -9.3127951829999992D-06   1.1084054529999999D-05
  29  11   -3.7723307169999998D-06   1.3106676220000000D-05   3.1581752260000001D-05  -2.0405673340000000D-05   8.8135726190000002D-05
  29  16    5.7740035670000000D-06  -2.7272631020000002D-05  -2.3879071760000001D-05   3.5950418590000003D-05   4.0466384119999997D-05
  29  21    3.5466358630000001D-05  -7.9272623790000003D-06  -4.2720318599999997D-05   2.4097595879999999D-05  -1.2428485960000000D-05
  29  26   -5.0506385230000000D-05  -1.6720101990000000D+00   6.6536591889999996D-01   9.6434250929999998D-01   1.5616203539999999D-06
  29  31    2.6666708580000002D-06   2.2253125859999999D-05  -4.4608909639999999D-05
  30   1   -5.1052962100000003D-04  -2.3818084509999999D-04  -2.7904210589999999D-04  -9.6867301079999995D-06   3.1346859640000000D-05
  30   6    2.6062770959999999D-05  -9.1359176830000001D-05  -5.8773015979999999D-05   9.5545344030000001D-06  -2.9516127040000000D-05
  30  11   -1.7942599759999999D-04  -2.2812087500000000D-04   4.9642281089999998D-04   2.6127358779999999D-04   2.8836229490000000D-04
  30  16    4.2038167180000000D-05   1.4928622819999999D-04   1.8153695900000001D-04   1.9534414179999999D-05   1.4672598639999999D-05
  30  21    4.3656267389999999D-06   9.0228313470000002D-05   2.1107204499999998D-06  -2.3571348820000000D-05  -2.4548575880000000D-05
  30  26    4.1404906829999999D-05   3.5113200290000000D-05   3.6863670020000002D-05   1.5616203539999999D-06  -3.5832692969999998D-05
  30  31   -2.4455889720000002D-05   1.7771080610000001D-05   2.5215856129999999D-08
  31   1   -1.9447144949999999D-05  -2.5276663220000000D-05   2.1571636420000000D-05  -1.6697658510000000D+00   6.6484430200000000D-01
  31   6    9.6267821870000003D-01  -2.4074964949999999D-04  -1.4425637400000001D-03  -1.2859708000000001D-03   2.6564235590000001D-05
  31  11    8.3038850800000005D-05   1.5624056250000001D-04  -9.6031081040000004D-05  -6.9294047490000001D-05   3.1762057230000000D-05
  31  16   -6.4409766200000001D-06  -7.1520124470000001D-05  -7.7547615720000005D-05   2.5814819160000001D-04   1.5608484130000000D-03
  31  21    1.3488585670000000D-03  -4.8225634559999998D-05  -1.1672139740000000D-04  -1.7524157340000001D-04   1.3234504370000000D-05
  31  26    2.7680613449999998D-05   7.3398343190000001D-06   9.1075370200000000D-05   2.6666708580000002D-06  -2.4455889720000002D-05
  31  31   -1.9707702930000000D-05   1.2010862540000001D-05   1.7841475410000000D-03
  32   1    3.6667602369999997D-05   4.0435858330000000D-05   3.5444116039999998D-05  -7.3898640430000005D-08  -3.7520067670000002D-05
  32   6   -1.3311373210000000D-05  -1.0728943130000000D-05   1.6099066800000000D-05  -1.6720071860000001D+00   6.6497988190000001D-01
  32  11    9.6048306230000002D-01  -2.7956915670000000D-04  -1.2431346419999999D-03  -2.0772706310000001D-03  -6.6286595300000004D-05
  32  16   -1.7967483450000000D-04  -1.7060789560000001D-04  -8.2340575469999996D-05  -3.7054044659999997D-05  -3.9732253459999998D-06
  32  21   -3.0057259180000001D-06   1.8131860510000000D-05   2.2754722010000001D-05   2.9232352150000002D-04   1.3523038050000000D-03
  32  26    2.2552860090000000D-03   7.1849593370000000D-06   3.5179123190000000D-05   2.2253125859999999D-05   1.7771080610000001D-05
  32  31    1.2010862540000001D-05   1.4508626110000000D-05  -1.4418995190000001D-03
  33   1    8.6838406959999998D-05   3.7227275680000000D-06  -2.6079802809999999D-05  -3.1458167030000002D-05   4.0947784650000003D-05
  33   6    3.0456830810000001D-05   3.8855000950000000D-05  -5.7168646879999997D-07  -3.6001174119999997D-05   1.9687251059999999D-05
  33  11   -1.8609557150000000D-06  -3.1326585370000002D-05  -1.6718864579999999D+00   6.6422000299999995D-01   9.6101875810000004D-01
  33  16   -1.6788853280000000D-03   1.3496571229999999D-03  -1.0965241600000000D-04   5.5573462469999999D-06  -4.5977800490000000D-05
  33  21    1.6138158189999999D-05  -9.3784778069999999D-05  -5.5033615749999999D-05   1.4153679200000000D-05  -1.8078904309999999D-04
  33  26    2.2014712550000000D-04  -5.0492754979999999D-06   4.6624931360000000D-05  -4.4608909639999999D-05   2.5215856129999999D-08
  33  31    1.7841475410000000D-03  -1.4418995190000001D-03   9.2397267840000006D-05
 $END