 $CONTRL SCFTYP=RHF RUNTYP=ENERGY ICHARG=0 MULT=1 DFTTYP=B3LYP EXETYP=RUN
       INTTYP=HONDO ICUT=13 ITOL=30 D5=.T. MAXIT=100 GENCON=.F. WIDE=1 FSTINT=.T.
 $END
 $SYSTEM TIMLIM=60000 MWORDS=200 MASMEM=200000000 MXBCST=-1 KDIAG=0 NOJAC=1 $END
 $MOORTH NOSTF=.T. NOZERO=.T. SYMS=.T. SYMDEN=.T. SYMVEC=.T. SYMVX=.T.
       TOLE=0.0D0 TOLZ=0.0D0 $END
 $GUESS GUESS=HUCKEL $END
 $SCF DIRSCF=.T. FDIFF=.F. DIIS=.T. DAMP=.T. SHIFT=.T. SOSCF=.F. $END
 $DATA
 C3H7F
 C1
    C   6.0            1.7083964009          3.4856716367         -0.5295116057
S   8
  1    6665.0000000       0.0006920
  2    1000.0000000       0.0053290
  3     228.0000000       0.0270770
  4      64.7100000       0.1017180
  5      21.0600000       0.2747400
  6       7.4950000       0.4485640
  7       2.7970000       0.2850740
  8       0.5215000       0.0152040
S   8
  1    6665.0000000      -0.0001460
  2    1000.0000000      -0.0011540
  3     228.0000000      -0.0057250
  4      64.7100000      -0.0233120
  5      21.0600000      -0.0639550
  6       7.4950000      -0.1499810
  7       2.7970000      -0.1272620
  8       0.5215000       0.5445290
S   1
  1       0.1596000       1.0000000
S   1
  1       0.0469000       1.0000000
P   3
  1       9.4390000       0.0381090
  2       2.0020000       0.2094800
  3       0.5456000       0.5085570
P   1
  1       0.1517000       1.0000000
P   1
  1       0.0404100       1.0000000
D   1
  1       0.5500000       1.0000000
D   1
  1       0.1510000       1.0000000
    C   6.0            1.7650644541          4.3320242289         -1.7835932303
S   8
  1    6665.0000000       0.0006920
  2    1000.0000000       0.0053290
  3     228.0000000       0.0270770
  4      64.7100000       0.1017180
  5      21.0600000       0.2747400
  6       7.4950000       0.4485640
  7       2.7970000       0.2850740
  8       0.5215000       0.0152040
S   8
  1    6665.0000000      -0.0001460
  2    1000.0000000      -0.0011540
  3     228.0000000      -0.0057250
  4      64.7100000      -0.0233120
  5      21.0600000      -0.0639550
  6       7.4950000      -0.1499810
  7       2.7970000      -0.1272620
  8       0.5215000       0.5445290
S   1
  1       0.1596000       1.0000000
S   1
  1       0.0469000       1.0000000
P   3
  1       9.4390000       0.0381090
  2       2.0020000       0.2094800
  3       0.5456000       0.5085570
P   1
  1       0.1517000       1.0000000
P   1
  1       0.0404100       1.0000000
D   1
  1       0.5500000       1.0000000
D   1
  1       0.1510000       1.0000000
    C   6.0            0.6956157100          4.0724318368         -2.7973385216
S   8
  1    6665.0000000       0.0006920
  2    1000.0000000       0.0053290
  3     228.0000000       0.0270770
  4      64.7100000       0.1017180
  5      21.0600000       0.2747400
  6       7.4950000       0.4485640
  7       2.7970000       0.2850740
  8       0.5215000       0.0152040
S   8
  1    6665.0000000      -0.0001460
  2    1000.0000000      -0.0011540
  3     228.0000000      -0.0057250
  4      64.7100000      -0.0233120
  5      21.0600000      -0.0639550
  6       7.4950000      -0.1499810
  7       2.7970000      -0.1272620
  8       0.5215000       0.5445290
S   1
  1       0.1596000       1.0000000
S   1
  1       0.0469000       1.0000000
P   3
  1       9.4390000       0.0381090
  2       2.0020000       0.2094800
  3       0.5456000       0.5085570
P   1
  1       0.1517000       1.0000000
P   1
  1       0.0404100       1.0000000
D   1
  1       0.5500000       1.0000000
D   1
  1       0.1510000       1.0000000
    H   1.0            0.8449552361          3.7557882048          0.0592685761
S   3
  1      13.0100000       0.0196850
  2       1.9620000       0.1379770
  3       0.4446000       0.4781480
S   1
  1       0.1220000       1.0000000
S   1
  1       0.0297400       1.0000000
P   1
  1       0.7270000       1.0000000
P   1
  1       0.1410000       1.0000000
    H   1.0            2.5896130977          3.6410948479          0.0761123496
S   3
  1      13.0100000       0.0196850
  2       1.9620000       0.1379770
  3       0.4446000       0.4781480
S   1
  1       0.1220000       1.0000000
S   1
  1       0.0297400       1.0000000
P   1
  1       0.7270000       1.0000000
P   1
  1       0.1410000       1.0000000
    H   1.0            1.6422674103          2.4283360563         -0.7672569087
S   3
  1      13.0100000       0.0196850
  2       1.9620000       0.1379770
  3       0.4446000       0.4781480
S   1
  1       0.1220000       1.0000000
S   1
  1       0.0297400       1.0000000
P   1
  1       0.7270000       1.0000000
P   1
  1       0.1410000       1.0000000
    H   1.0            1.8586478673          5.3900362290         -1.5485430643
S   3
  1      13.0100000       0.0196850
  2       1.9620000       0.1379770
  3       0.4446000       0.4781480
S   1
  1       0.1220000       1.0000000
S   1
  1       0.0297400       1.0000000
P   1
  1       0.7270000       1.0000000
P   1
  1       0.1410000       1.0000000
    H   1.0           -0.2343933878          4.2137575824         -2.4057964376
S   3
  1      13.0100000       0.0196850
  2       1.9620000       0.1379770
  3       0.4446000       0.4781480
S   1
  1       0.1220000       1.0000000
S   1
  1       0.0297400       1.0000000
P   1
  1       0.7270000       1.0000000
P   1
  1       0.1410000       1.0000000
    H   1.0            0.8217476894          4.6904769102         -3.6911085144
S   3
  1      13.0100000       0.0196850
  2       1.9620000       0.1379770
  3       0.4446000       0.4781480
S   1
  1       0.1220000       1.0000000
S   1
  1       0.0297400       1.0000000
P   1
  1       0.7270000       1.0000000
P   1
  1       0.1410000       1.0000000
    H   1.0            0.8705945510          3.0455348680         -3.1080530330
S   3
  1      13.0100000       0.0196850
  2       1.9620000       0.1379770
  3       0.4446000       0.4781480
S   1
  1       0.1220000       1.0000000
S   1
  1       0.0297400       1.0000000
P   1
  1       0.7270000       1.0000000
P   1
  1       0.1410000       1.0000000
    F   9.0            3.0825397331          3.9271580849         -2.5440669237
S   8
  1   14710.0000000       0.0007210
  2    2207.0000000       0.0055530
  3     502.8000000       0.0282670
  4     142.6000000       0.1064440
  5      46.4700000       0.2868140
  6      16.7000000       0.4486410
  7       6.3560000       0.2647610
  8       1.3160000       0.0153330
S   8
  1   14710.0000000      -0.0001650
  2    2207.0000000      -0.0013080
  3     502.8000000      -0.0064950
  4     142.6000000      -0.0266910
  5      46.4700000      -0.0736900
  6      16.7000000      -0.1707760
  7       6.3560000      -0.1123270
  8       1.3160000       0.5628140
S   1
  1       0.3897000       1.0000000
S   1
  1       0.0986300       1.0000000
P   3
  1      22.6700000       0.0448780
  2       4.9770000       0.2357180
  3       1.3470000       0.5085210
P   1
  1       0.3471000       1.0000000
P   1
  1       0.0850200       1.0000000
D   1
  1       1.6400000       1.0000000
D   1
  1       0.4640000       1.0000000

 $END