 $CONTRL SCFTYP=RHF RUNTYP=SADPOINT ICHARG=0 MULT=1 DFTTYP=B3LYP EXETYP=RUN
      INTTYP=HONDO ICUT=13 ITOL=30 D5=.T. MAXIT=100 GENCON=.F. WIDE=1 FSTINT=.T.
 $END
 $SYSTEM TIMLIM=60000 MWORDS=200 MASMEM=200000000 MXBCST=-1 KDIAG=0 NOJAC=1 $END
 $MOORTH NOSTF=.T. NOZERO=.T. SYMS=.T. SYMDEN=.T. SYMVEC=.T. SYMVX=.T.
      TOLE=0.0D0 TOLZ=0.0D0 $END
 $GUESS GUESS=HUCKEL $END
 $STATPT METHOD=QA OPTTOL=1D-04 NSTEP=200 HSSEND=.T. UPHESS=POWELL IFOLOW=1
       ITBMAT=300 HESS=READ $END
 ! [qphorus:disabled] FORCE
!  $FORCE NVIB=2 $END
 $SCF DIRSCF=.T. FDIFF=.F. DIIS=.T. DAMP=.T. SHIFT=.T. SOSCF=.F. $END
 $DATA
 C3H7F
 C1
C      6.0            1.5824178112          3.5770400419         -0.4510166787
S   8
  1    6665.0000000       0.0006920
  2    1000.0000000       0.0053290
  3     228.0000000       0.0270770
  4      64.7100000       0.1017180
  5      21.0600000       0.2747400
  6       7.4950000       0.4485640
  7       2.7970000       0.2850740
  8       0.5215000       0.0152040
S   8
  1    6665.0000000      -0.0001460
  2    1000.0000000      -0.0011540
  3     228.0000000      -0.0057250
  4      64.7100000      -0.0233120
  5      21.0600000      -0.0639550
  6       7.4950000      -0.1499810
  7       2.7970000      -0.1272620
  8       0.5215000       0.5445290
S   1
  1       0.1596000       1.0000000
S   1
  1       0.0469000       1.0000000
P   3
  1       9.4390000       0.0381090
  2       2.0020000       0.2094800
  3       0.5456000       0.5085570
P   1
  1       0.1517000       1.0000000
P   1
  1       0.0404100       1.0000000
D   1
  1       0.5500000       1.0000000
D   1
  1       0.1510000       1.0000000

C      6.0            1.5346222839          4.4097415491         -1.7017962789
S   8
  1    6665.0000000       0.0006920
  2    1000.0000000       0.0053290
  3     228.0000000       0.0270770
  4      64.7100000       0.1017180
  5      21.0600000       0.2747400
  6       7.4950000       0.4485640
  7       2.7970000       0.2850740
  8       0.5215000       0.0152040
S   8
  1    6665.0000000      -0.0001460
  2    1000.0000000      -0.0011540
  3     228.0000000      -0.0057250
  4      64.7100000      -0.0233120
  5      21.0600000      -0.0639550
  6       7.4950000      -0.1499810
  7       2.7970000      -0.1272620
  8       0.5215000       0.5445290
S   1
  1       0.1596000       1.0000000
S   1
  1       0.0469000       1.0000000
P   3
  1       9.4390000       0.0381090
  2       2.0020000       0.2094800
  3       0.5456000       0.5085570
P   1
  1       0.1517000       1.0000000
P   1
  1       0.0404100       1.0000000
D   1
  1       0.5500000       1.0000000
D   1
  1       0.1510000       1.0000000

C      6.0            0.6178577710          4.1060001198         -2.7406459473
S   8
  1    6665.0000000       0.0006920
  2    1000.0000000       0.0053290
  3     228.0000000       0.0270770
  4      64.7100000       0.1017180
  5      21.0600000       0.2747400
  6       7.4950000       0.4485640
  7       2.7970000       0.2850740
  8       0.5215000       0.0152040
S   8
  1    6665.0000000      -0.0001460
  2    1000.0000000      -0.0011540
  3     228.0000000      -0.0057250
  4      64.7100000      -0.0233120
  5      21.0600000      -0.0639550
  6       7.4950000      -0.1499810
  7       2.7970000      -0.1272620
  8       0.5215000       0.5445290
S   1
  1       0.1596000       1.0000000
S   1
  1       0.0469000       1.0000000
P   3
  1       9.4390000       0.0381090
  2       2.0020000       0.2094800
  3       0.5456000       0.5085570
P   1
  1       0.1517000       1.0000000
P   1
  1       0.0404100       1.0000000
D   1
  1       0.5500000       1.0000000
D   1
  1       0.1510000       1.0000000

H      1.0            0.9352119120          3.9720772910          0.2651085609
S   3
  1      13.0100000       0.0196850
  2       1.9620000       0.1379770
  3       0.4446000       0.4781480
S   1
  1       0.1220000       1.0000000
S   1
  1       0.0297400       1.0000000
P   1
  1       0.7270000       1.0000000
P   1
  1       0.1410000       1.0000000

H      1.0            2.5455393031          3.5734798717         -0.0314342053
S   3
  1      13.0100000       0.0196850
  2       1.9620000       0.1379770
  3       0.4446000       0.4781480
S   1
  1       0.1220000       1.0000000
S   1
  1       0.0297400       1.0000000
P   1
  1       0.7270000       1.0000000
P   1
  1       0.1410000       1.0000000

H      1.0            1.3096193050          2.5635693314         -0.6112506757
S   3
  1      13.0100000       0.0196850
  2       1.9620000       0.1379770
  3       0.4446000       0.4781480
S   1
  1       0.1220000       1.0000000
S   1
  1       0.0297400       1.0000000
P   1
  1       0.7270000       1.0000000
P   1
  1       0.1410000       1.0000000

H      1.0            1.8123823650          5.4285980569         -1.5785897266
S   3
  1      13.0100000       0.0196850
  2       1.9620000       0.1379770
  3       0.4446000       0.4781480
S   1
  1       0.1220000       1.0000000
S   1
  1       0.0297400       1.0000000
P   1
  1       0.7270000       1.0000000
P   1
  1       0.1410000       1.0000000

H      1.0           -0.1389343580          3.7628500608         -2.5370652630
S   3
  1      13.0100000       0.0196850
  2       1.9620000       0.1379770
  3       0.4446000       0.4781480
S   1
  1       0.1220000       1.0000000
S   1
  1       0.0297400       1.0000000
P   1
  1       0.7270000       1.0000000
P   1
  1       0.1410000       1.0000000

H      1.0            0.6426688031          4.7410255091         -3.6216214742
S   3
  1      13.0100000       0.0196850
  2       1.9620000       0.1379770
  3       0.4446000       0.4781480
S   1
  1       0.1220000       1.0000000
S   1
  1       0.0297400       1.0000000
P   1
  1       0.7270000       1.0000000
P   1
  1       0.1410000       1.0000000

H      1.0            1.5850915831          3.2046769411         -3.1147985610
S   3
  1      13.0100000       0.0196850
  2       1.9620000       0.1379770
  3       0.4446000       0.4781480
S   1
  1       0.1220000       1.0000000
S   1
  1       0.0297400       1.0000000
P   1
  1       0.7270000       1.0000000
P   1
  1       0.1410000       1.0000000

F      9.0            3.1543666431          3.5072918970         -2.9555265977
S   8
  1   14710.0000000       0.0007210
  2    2207.0000000       0.0055530
  3     502.8000000       0.0282670
  4     142.6000000       0.1064440
  5      46.4700000       0.2868140
  6      16.7000000       0.4486410
  7       6.3560000       0.2647610
  8       1.3160000       0.0153330
S   8
  1   14710.0000000      -0.0001650
  2    2207.0000000      -0.0013080
  3     502.8000000      -0.0064950
  4     142.6000000      -0.0266910
  5      46.4700000      -0.0736900
  6      16.7000000      -0.1707760
  7       6.3560000      -0.1123270
  8       1.3160000       0.5628140
S   1
  1       0.3897000       1.0000000
S   1
  1       0.0986300       1.0000000
P   3
  1      22.6700000       0.0448780
  2       4.9770000       0.2357180
  3       1.3470000       0.5085210
P   1
  1       0.3471000       1.0000000
P   1
  1       0.0850200       1.0000000
D   1
  1       1.6400000       1.0000000
D   1
  1       0.4640000       1.0000000

 $END

 $HESS
ENERGY IS     -218.2692288599 E(NUC) IS      122.6367897064
 1  1  5.14740959365624300D-01  8.69743560415971200D-03 -1.99048114643404400D-03 -4.75029314541028200D-02 -1.56418670766651600D-02
 1  2 -2.04219928781021100D-02 -7.36638364378485200D-03  1.04182658637621000D-02 -3.54510331025717800D-02 -9.02068066688963800D-02
 1  3  4.80007082142743800D-02  7.86156151473949700D-02 -2.77871435422647900D-01  2.80517322644869600D-02 -3.17842416578382700D-02
 1  4 -8.54442935742778000D-02 -8.75882486611127800D-02 -1.09274754211399400D-02  2.10050289557580900D-03 -4.45817273798008400D-03
 1  5  8.65615890261605000D-03 -1.64625375302088900D-03  2.73924770299274900D-03  2.91070424728126000D-03 -1.41211306404457000D-03
 1  6 -1.14456987524308200D-03 -8.45417836372241600D-03  4.25312676786307300D-03  5.19873566323988300D-03  1.91801287691628500D-02
 1  7 -9.64347121134192900D-03  5.70443217246084500D-03 -3.50451991163684000D-04
 2  1  8.69743560415971200D-03  5.24719976371749100D-01  3.29388306346567300D-02 -6.65803353713711900D-03 -1.17074738860817700D-01
 2  2  6.09977314029560200D-02  1.79472351081427300D-03  1.14441867023820200D-02  8.40728574028326900D-03  4.87455929649011200D-02
 2  3 -1.05273706872520900D-01 -9.26276537614355200D-02  2.82856340938634300D-02 -5.31696738270875900D-02  2.04351043451816500D-03
 2  4 -8.90317318712038600D-02 -2.44801912516860900D-01 -2.62659740776345400D-02  3.68557576631910000D-03 -1.11643208365777800D-02
 2  5  2.46842925993850500D-02  7.03925726423424700D-04  6.41082932305238500D-04 -4.39992396725442600D-03 -3.41015058972719100D-03
 2  6 -4.23326282730047600D-05  3.32730407458401900D-03 -1.27461285630097400D-04  4.63902850805840300D-04 -6.38025267061441500D-03
 2  7  7.32614089702585100D-03 -5.69169046321186200D-03 -2.76890155105978100D-03
 3  1 -1.99048114643404400D-03  3.29388306346567300D-02  4.93549724417980500D-01 -3.56280461362105700D-02  7.91749200628185100D-02
 3  2 -1.71121935151808500D-01 -7.41802039315149800D-04  1.11406232443972400D-02 -1.09607492096202200D-02  7.80322727070423500D-02
 3  3 -9.15900140086421100D-02 -1.84797241444170000D-01 -3.47697952843695500D-02  1.94242046244859600D-03 -4.95480555651197100D-02
 3  4 -9.70412288171414700D-03 -2.27181148360716400D-02 -5.25515581256162700D-02  3.64387338536165100D-04 -1.60733756783464200D-03
 3  5  2.23195912930481900D-03  1.52670700701899000D-03  7.50837129165696200D-04  5.17699139826639800D-04  3.16416018302087200D-04
 3  6 -6.11170469358088300D-04  1.86871441073344400D-03 -5.78383358554369400D-03 -4.75171853963206500D-03 -3.12409356710620700D-02
 3  7  8.37560777478681800D-03 -4.61397221091922700D-03  2.08942339979573300D-03
 4  1 -4.75029314541028200D-02 -6.65803353713711900D-03 -3.56280461362105700D-02  3.08207427216436100D-01  1.80076707597869100D-01
 4  2  2.17555234598196300D-01 -1.90749365093104400D-01 -4.99023288200649400D-02 -1.12416029153136000D-01  3.80335413609454700D-03
 4  3 -3.56108978623000700D-03  2.97152971715438100D-03  1.09007980302606800D-03  1.57009534635293000D-02 -2.57004484963205300D-02
 4  4  1.53927705469290800D-04 -5.88872193861369500D-03  1.14991680813736900D-02 -6.41946002267139200D-02 -8.19968705228817800D-02
 4  5 -3.44949932822014300D-03 -5.37105652722760400D-03 -2.41421675491891500D-03 -1.01020032542899200D-02  6.49395250426534200D-04
 4  6 -3.91196980764031100D-03 -1.32180302023747100D-02 -5.08033020684849400D-02 -2.74079360910906200D-02 -5.46495084386940700D-02
 4  7  4.46655480837567600D-02 -1.39722047736202700D-02  2.31869072537698900D-02
 5  1 -1.56418670766651600D-02 -1.17074738860817700D-01  7.91749200628185100D-02  1.80076707597869100D-01  5.58320617475095300D-01
 5  2 -2.30030533221245600D-02 -8.11915838658596500D-02 -1.28437525581070300D-01 -7.74935261254478100D-02 -2.96236675088852900D-03
 5  3  7.94119332360805800D-03 -7.46742689125555800D-03 -6.18167482796094100D-04  6.17587860373509600D-04 -5.35256995149628900D-05
 5  4  4.56410792022525200D-03 -1.62317234627889500D-02  2.52756930730195200D-02 -7.19749282030164300D-02 -3.11558586349046500D-01
 5  5 -7.65151057701323300D-03 -1.80502337501683100D-02 -6.21087757991356100D-03 -2.21048091452844400D-02  1.14980370842445100D-02
 5  6  8.09489313737864200D-03  1.64725726108170200D-02  1.66354594582611500D-02 -1.03576739915067800D-02  4.35532411873761400D-02
 5  7 -2.23845314709974300D-02  1.48605239559661400D-02 -2.67105213875083100D-02
 6  1 -2.04219928781021100D-02  6.09977314029560200D-02 -1.71121935151808500D-01  2.17555234598196300D-01 -2.30030533221245600D-02
 6  2  5.10854892569040700D-01 -1.90205064814226100D-01 -2.51193031208248000D-02 -2.29788596002965600D-01 -5.81757679207716100D-03
 6  3  1.64632105651868600D-02 -2.71521910417324600D-02 -4.14523009922170300D-03  7.12735873602332700D-03 -1.45488278396053600D-02
 6  4  1.19075376576643100D-03 -1.38703600528651500D-03  2.66722242539868500D-03 -7.96440702230233900D-03 -7.50173983807326200D-03
 6  5 -4.77144818822820400D-02  2.33504493459670100D-03  1.18955033071672600D-04  1.52781056550980300D-03 -2.06520413855529900D-02
 6  6 -8.21000496392032200D-03 -6.39984804299970100D-03  3.02699979718472400D-02 -7.22110049042703300D-03  1.58665122648204200D-03
 6  7 -2.12132964049569600D-03 -1.23451767616269500D-02 -1.99875297174354100D-02
 7  1 -7.36638364378485200D-03  1.79472351081427300D-03 -7.41802039315149800D-04 -1.90749365093104400D-01 -8.11915838658596500D-02
 7  2 -1.90205064814226100D-01  4.60483882537379400D-01  6.72366427346276200D-02  2.46631003820308400D-01 -2.42385721990691500D-04
 7  3 -1.42044422459769000D-03  2.94101059687175300D-03 -3.36856625446921600D-04  4.80616315866414500D-04 -3.12068932532964000D-03
 7  4  7.95436945021378800D-04 -9.29864973636153300D-04  1.78760768513908100D-03 -8.63270337171282400D-03 -1.59764215502714800D-03
 7  5 -8.46940310697771300D-03 -9.43880077250459600D-02 -1.09349365084522100D-01 -4.44835425178692800D-03 -1.32042976231491600D-01
 7  6  1.10444519240267500D-01 -5.46484003394539700D-02 -1.83349713663879500D-02  1.78242124419018000D-02 -4.91522818120791000D-03
 7  7 -9.14510059833349000D-03 -3.39740541608447400D-03  1.50879766521140900D-02
 8  1  1.04182658637621000D-02  1.14441867023820200D-02  1.11406232443972400D-02 -4.99023288200649400D-02 -1.28437525581070300D-01
 8  2 -2.51193031208248000D-02  6.72366427346276200D-02  6.15921636667234900D-01 -1.04176859337896900D-01  2.79544925722288400D-04
 8  3 -1.99280928938712000D-03  3.25445710760024800D-03  1.42009743893472200D-03 -1.83960665819958400D-03  4.99553186429383900D-03
 8  4  1.28632135120596500D-03  7.42490192229272600D-04  1.22133072780995200D-03 -2.32837864483066900D-02 -4.81191105966630200D-03
 8  5 -2.35682220268107200D-02 -1.06589063825634600D-01 -2.85950071950590500D-01  3.42408602697555700D-02  1.11101449025571700D-01
 8  6 -2.14419616701999700D-01  8.27625360561357700D-02  8.80011756710830300D-03  1.30766580448967400D-02  3.34640897152501500D-02
 8  7 -2.07812310370381900D-02 -3.69549664237840600D-03 -1.81842839408288100D-02
 9  1 -3.54510331025717800D-02  8.40728574028326900D-03 -1.09607492096202200D-02 -1.12416029153136000D-01 -7.74935261254478100D-02
 9  2 -2.29788596002965600D-01  2.46631003820308400D-01 -1.04176859337896900D-01  3.21548476844145200D-01 -7.88699878610820700D-04
 9  3 -1.92438731208190900D-03  5.08570319155358200D-03 -7.79561103421639100D-04  1.40346378579807400D-03 -3.88752252696216000D-03
 9  4 -1.11873549753140800D-04 -2.29571046202465900D-03  9.79960285664080700D-04  1.45715435974922200D-03  1.20935344172885500D-04
 9  5 -1.02185535141390300D-03 -1.53475216269421300D-03  2.50192230726207000D-02 -4.25797049246703400D-02 -6.89105562849982600D-02
 9  6  9.48994122392452200D-02 -8.34750130129055500D-02  1.70224523244425700D-02  3.01350142414939800D-02  7.67934639024994000D-02
 9  7 -4.51101495219450900D-02  2.58879780700545800D-02 -3.27184478476530000D-02
10  1 -9.02068066688963800D-02  4.87455929649011200D-02  7.80322727070423500D-02  3.80335413609454700D-03 -2.96236675088852900D-03
10  2 -5.81757679207716100D-03 -2.42385721990691500D-04  2.79544925722288400D-04 -7.88699878610820700D-04  9.21209529402831100D-02
10  3 -5.48838780284041900D-02 -8.44356921818457400D-02 -1.12367185386206900D-02  1.47991138482878000D-02  2.32915524181820300D-02
10  4  5.31673706211065900D-03 -5.68509177792208900D-03 -1.12596838518032100D-02  1.83925154274237200D-04 -8.03665667132159700D-05
10  5  3.41752657510548500D-04  3.27597354303271400D-04 -1.81403932850154900D-04 -3.56788217120956400D-04 -5.23846923418370100D-04
10  6  1.19277501066709100D-04  6.19078631777466600D-04  2.60711535193217300D-04  3.93328014717283900D-05  4.90181993078426500D-04
10  7  1.97283658457747900D-04 -1.74940503223084500D-04 -1.19202141270885700D-04
11  1  4.80007082142743800D-02 -1.05273706872520900D-01 -9.15900140086421100D-02 -3.56108978623000700D-03  7.94119332360805800D-03
11  2  1.64632105651868600D-02 -1.42044422459769000D-03 -1.99280928938712000D-03 -1.92438731208190900D-03 -5.48838780284041900D-02
11  3  1.09435444412819300D-01  9.59044805525618300D-02  4.92657382819236000D-04 -2.38106563541728100D-03 -2.11755503610484100D-03
11  4  1.22778533589592600D-02 -1.07802532913153000D-02 -1.94851487741114300D-02 -1.75111316489881500D-04  6.35529317765228300D-04
11  5 -7.46813734291899700D-04  1.63338949281995700D-04 -3.39536060286463000D-05  7.22792536823153500D-05  3.22805004486612300D-04
11  6  6.41396528206763700D-05 -6.51808050520174200D-04  1.02101534501240000D-03  6.72710322409506200D-04  2.66586036664034700D-03
11  7 -2.23397395485065400D-03  1.68989329691152700D-03  1.40428925431463000D-03
12  1  7.86156151473949700D-02 -9.26276537614355200D-02 -1.84797241444170000D-01  2.97152971715438100D-03 -7.46742689125555800D-03
12  2 -2.71521910417324600D-02  2.94101059687175300D-03  3.25445710760024800D-03  5.08570319155358200D-03 -8.44356921818457400D-02
12  3  9.59044805525618300D-02  2.08644016311840100D-01 -1.92567598211672900D-03  2.95565270142151700D-03  4.80079881112680200D-03
12  4  3.43538765024446100D-04 -8.37731439141411100D-05 -1.16758669620941800D-03 -3.61278385827771700D-04  1.86895840044421500D-04
12  5  1.12949867943355000D-03  5.34865675816712700D-04 -1.63949724356902200D-04 -7.73330472938322200D-04 -4.36203935614903300D-04
12  6  1.75606857421022200D-05  9.19993883141722100D-04 -1.48413165835367600D-03  5.78555242870067100D-04 -4.64952996627349600D-03
12  7  3.24186698393072700D-03 -2.57204918297456800D-03 -2.03551325619679200D-03
13  1 -2.77871435422647900D-01  2.82856340938634300D-02 -3.47697952843695500D-02  1.09007980302606800D-03 -6.18167482796094100D-04
13  2 -4.14523009922170300D-03 -3.36856625446921600D-04  1.42009743893472200D-03 -7.79561103421639100D-04 -1.12367185386206900D-02
13  3  4.92657382819236000D-04 -1.92567598211672900D-03  2.99557096479015200D-01 -3.17401221808340000D-02  4.25344892370328300D-02
13  4 -1.16380155457628600D-02  1.06719435310842800D-03 -1.81638587855683400D-03 -4.49538121084173300D-05  2.89141298184564400D-04
13  5 -2.96408637201722600D-04  1.95767970022158400D-04  2.05144144135556800D-04  2.89748304950184300D-04 -2.08841014816361200D-04
13  6 -1.36784128462741400D-04 -1.79677415554748200D-04  1.31158412109058000D-03  5.50140646282540700D-04  2.14163389765731700D-03
13  7 -8.13923738931317400D-04  2.05353487177947900D-04 -1.03282037325971900D-03
14  1  2.80517322644869600D-02 -5.31696738270875900D-02  1.94242046244859600D-03  1.57009534635293000D-02  6.17587860373509600D-04
14  2  7.12735873602332700D-03  4.80616315866414500D-04 -1.83960665819958400D-03  1.40346378579807400D-03  1.47991138482878000D-02
14  3 -2.38106563541728100D-03  2.95565270142151700D-03 -3.17401221808340000D-02  5.30621219078179400D-02 -7.76043270548097700D-03
14  4 -2.73189283447768700D-02  3.73656798211415300D-03 -5.23580016281992700D-03 -1.33850856851090500D-04  1.90965982736383300D-04
14  5 -4.37490620421683200D-04  1.39515810931953700D-04  2.26388781526516800D-04 -3.14553433181400900D-05  4.99370458032969300D-04
14  6  4.03751654572050600D-04  6.78775724245327300D-04 -7.24823634410532000D-04 -7.08634540619974200D-04 -1.78350654849682600D-03
14  7  2.44456733821589500D-04 -1.38350910533458700D-04  1.13918946857219100D-03
15  1 -3.17842416578382700D-02  2.04351043451816500D-03 -4.95480555651197100D-02 -2.57004484963205300D-02 -5.35256995149628900D-05
15  2 -1.45488278396053600D-02 -3.12068932532964000D-03  4.99553186429383900D-03 -3.88752252696216000D-03  2.32915524181820300D-02
15  3 -2.11755503610484100D-03  4.80079881112680200D-03  4.25344892370328300D-02 -7.76043270548097700D-03  6.43457224027806800D-02
15  4 -2.83212827491246400D-03  1.82317425868622900D-05 -1.25070441362209700D-03  6.93323973915602700D-04 -4.11648306787668800D-05
15  5  5.61485718402485500D-04  2.26025499668871700D-05  3.65600826964505300D-04  5.78754839624350000D-04 -6.01842208239962600D-04
15  6 -2.48114278208534100D-04 -2.18202252058371400D-03 -1.87090812567348500D-03  2.48940440260481300D-03  2.27914709383897200D-03
15  7 -6.32813167753508400D-04  3.13529583903862700D-04 -1.14885834074916200D-03
16  1 -8.54442935742778000D-02 -8.90317318712038600D-02 -9.70412288171414700D-03  1.53927705469290800D-04  4.56410792022525200D-03
16  2  1.19075376576643100D-03  7.95436945021378800D-04  1.28632135120596500D-03 -1.11873549753140800D-04  5.31673706211065900D-03
16  3  1.22778533589592600D-02  3.43538765024446100D-04 -1.16380155457628600D-02 -2.73189283447768700D-02 -2.83212827491246400D-03
16  4  9.00645755938912400D-02  9.84723189030542500D-02  1.22061448832397100D-02  7.35521102468794500D-04  6.10345176619780700D-04
16  5 -1.15336254109736200D-03  9.99402224551363100D-06 -2.59355606741824700D-04 -8.50986042106899800D-06  1.02940717455581100D-04
16  6  8.86802205874066800D-06  9.45312536436752000D-05 -2.13174141330718300D-04 -7.88964294419936400D-04 -2.53671439218527800D-04
16  7  1.25779309336325900D-04  1.63575350467962500D-04  2.26992430700956700D-04
17  1 -8.75882486611127800D-02 -2.44801912516860900D-01 -2.27181148360716400D-02 -5.88872193861369500D-03 -1.62317234627889500D-02
17  2 -1.38703600528651500D-03 -9.29864973636153300D-04  7.42490192229272600D-04 -2.29571046202465900D-03 -5.68509177792208900D-03
17  3 -1.07802532913153000D-02 -8.37731439141411100D-05  1.06719435310842800D-03  3.73656798211415300D-03  1.82317425868622900D-05
17  4  9.84723189030542500D-02  2.66919945683873800D-01  2.15340919359052200D-02 -1.95918455267712200D-05  1.77555108766343400D-04
17  5  3.13955729629117400D-03  8.23251801558772600D-04  5.97068557912526200D-04  8.73820960194896700D-04  1.15778506411170400D-04
17  6  3.90244118105573600D-04 -1.99724751134573000D-04 -9.51127658240652500D-05 -1.34073396691448100D-03  4.52801495943100000D-04
17  7 -2.58397405452585200D-04  5.80350950973515500D-04  6.80171076055616900D-04
18  1 -1.09274754211399400D-02 -2.62659740776345400D-02 -5.25515581256162700D-02  1.14991680813736900D-02  2.52756930730195200D-02
18  2  2.66722242539868500D-03  1.78760768513908100D-03  1.22133072780995200D-03  9.79960285664080700D-04 -1.12596838518032100D-02
18  3 -1.94851487741114300D-02 -1.16758669620941800D-03 -1.81638587855683400D-03 -5.23580016281992700D-03 -1.25070441362209700D-03
18  4  1.22061448832397100D-02  2.15340919359052200D-02  5.63855876314035100D-02 -1.31151065567076400D-03  2.58368994586191300D-03
18  5 -4.04122711265460000D-03 -6.45330117030843300D-04 -6.26854574001928500D-04 -1.17791127026800400D-04  2.68579986175527200D-04
18  6 -2.08066237388610700D-04 -9.36334893964115000D-06  3.96537460885877800D-04  1.32790651008055400D-03 -5.13325589011589300D-04
18  7 -2.03521231341300200D-04 -1.18836303763993800D-04 -3.67424282272899800D-04
19  1  2.10050289557580900D-03  3.68557576631910000D-03  3.64387338536165100D-04 -6.41946002267139200D-02 -7.19749282030164300D-02
19  2 -7.96440702230233900D-03 -8.63270337171282400D-03 -2.32837864483066900D-02  1.45715435974922200D-03  1.83925154274237200D-04
19  3 -1.75111316489881500D-04 -3.61278385827771700D-04 -4.49538121084173300D-05 -1.33850856851090500D-04  6.93323973915602700D-04
19  4  7.35521102468794500D-04 -1.95918455267712200D-05 -1.31151065567076400D-03  6.27326238440160900D-02  9.08863898413209700D-02
19  5  1.38788091700032900D-02  1.15919669257690900D-03 -2.30630024469014400D-03 -6.97145310062955900D-03 -2.35322798190903600D-04
19  6 -9.38571069630626800D-05  4.20238385799680300D-03  5.51020927978414800D-03  3.99419039131491300D-03 -8.58657529898077300D-03
19  7  7.04474052749858400D-04 -5.87094666051749600D-04  4.59191342244021600D-03
20  1 -4.45817273798008400D-03 -1.11643208365777800D-02 -1.60733756783464200D-03 -8.19968705228817800D-02 -3.11558586349046500D-01
20  2 -7.50173983807326200D-03 -1.59764215502714800D-03 -4.81191105966630200D-03  1.20935344172885500D-04 -8.03665667132159700D-05
20  3  6.35529317765228300D-04  1.86895840044421500D-04  2.89141298184564400D-04  1.90965982736383300D-04 -4.11648306787668800D-05
20  4  6.10345176619780700D-04  1.77555108766343400D-04  2.58368994586191300D-03  9.08863898413209700D-02  3.22941773330965700D-01
20  5  3.83526976418962500D-03 -9.37409575242859100D-04  1.87729872126410800D-03  1.70309231011574900D-04  4.75093064693818200D-04
20  6  1.19409596379294500D-03 -8.72512076376618300D-04 -3.28313863193704700D-03 -5.18419868697451600D-05  4.29228415598482100D-03
20  7  7.77029997027197200D-05  5.57246930100172600D-04 -1.13130672674134200D-03
21  1  8.65615890261605000D-03  2.46842925993850500D-02  2.23195912930481900D-03 -3.44949932822014300D-03 -7.65151057701323300D-03
21  2 -4.77144818822820400D-02 -8.46940310697771300D-03 -2.35682220268107200D-02 -1.02185535141390300D-03  3.41752657510548500D-04
21  3 -7.46813734291899700D-04  1.12949867943355000D-03 -2.96408637201722600D-04 -4.37490620421683200D-04  5.61485718402485500D-04
21  4 -1.15336254109736200D-03  3.13955729629117400D-03 -4.04122711265460000D-03  1.38788091700032900D-02  3.83526976418962500D-03
21  5  5.01010624248675400D-02 -4.29775138561517800D-03  4.34110772671507200D-04 -1.58108014112643900D-04  1.29485684527757800D-03
21  6 -3.33417551056530200D-04 -1.53251659874261200D-03 -6.44326148325825300D-03  1.10380655754288700D-04  3.56743864042565400D-03
21  7 -6.64431157720466900D-05  5.56419518689160900D-04 -3.11577084528369500D-03
22  1 -1.64625375302088900D-03  7.03925726423424700D-04  1.52670700701899000D-03 -5.37105652722760400D-03 -1.80502337501683100D-02
22  2  2.33504493459670100D-03 -9.43880077250459600D-02 -1.06589063825634600D-01 -1.53475216269421300D-03  3.27597354303271400D-04
22  3  1.63338949281995700D-04  5.34865675816712700D-04  1.95767970022158400D-04  1.39515810931953700D-04  2.26025499668871700D-05
22  4  9.99402224551363100D-06  8.23251801558772600D-04 -6.45330117030843300D-04  1.15919669257690900D-03 -9.37409575242859100D-04
22  5 -4.29775138561517800D-03  1.04380635746484900D-01  1.14582968395651400D-01  6.86180919361374100D-04  1.00340314827571500D-02
22  6  1.25153951916685700D-02 -3.23784287572622300D-03 -5.89073408039960000D-03 -4.31970453051572200D-03 -5.75400200828911000D-05
22  7 -8.79013186254518100D-03  9.57895827041017500D-04  4.66397060762043500D-03
23  1  2.73924770299274900D-03  6.41082932305238500D-04  7.50837129165696200D-04 -2.41421675491891500D-03 -6.21087757991356100D-03
23  2  1.18955033071672600D-04 -1.09349365084522100D-01 -2.85950071950590500D-01  2.50192230726207000D-02 -1.81403932850154900D-04
23  3 -3.39536060286463000D-05 -1.63949724356902200D-04  2.05144144135556800D-04  2.26388781526516800D-04  3.65600826964505300D-04
23  4 -2.59355606741824700D-04  5.97068557912526200D-04 -6.26854574001928500D-04 -2.30630024469014400D-03  1.87729872126410800D-03
23  5  4.34110772671507200D-04  1.14582968395651400D-01  2.96749913213186100D-01 -2.18891908558618000D-02 -9.55282345467987600D-03
23  6 -9.83257018823239700D-03 -7.60620369152941800D-04  1.07774278431630300D-03  4.88025576615507500D-04 -5.95381387900623800D-04
23  7  5.46296174114284600D-03  1.46678792865181600D-03 -2.64509877479369600D-03
24  1  2.91070424728126000D-03 -4.39992396725442600D-03  5.17699139826639800D-04 -1.01020032542899200D-02 -2.21048091452844400D-02
24  2  1.52781056550980300D-03 -4.44835425178692800D-03  3.42408602697555700D-02 -4.25797049246703400D-02 -3.56788217120956400D-04
24  3  7.22792536823153500D-05 -7.73330472938322200D-04  2.89748304950184300D-04 -3.14553433181400900D-05  5.78754839624350000D-04
24  4 -8.50986042106899800D-06  8.73820960194896700D-04 -1.17791127026800400D-04 -6.97145310062955900D-03  1.70309231011574900D-04
24  5 -1.58108014112643900D-04  6.86180919361374100D-04 -2.18891908558618000D-02  4.14036394566340400D-02  6.11545973225097100D-03
24  6  1.18489226064678100D-02  2.44513297298616700D-03  3.43785382271571300D-03  2.32859070694721100D-03  2.22175137433726500D-04
24  7  8.44598592497055100D-03 -1.10873898940366600D-03 -3.06786038214742900D-03
25  1 -1.41211306404457000D-03 -3.41015058972719100D-03  3.16416018302087200D-04  6.49395250426534200D-04  1.14980370842445100D-02
25  2 -2.06520413855529900D-02 -1.32042976231491600D-01  1.11101449025571700D-01 -6.89105562849982600D-02 -5.23846923418370100D-04
25  3  3.22805004486612300D-04 -4.36203935614903300D-04 -2.08841014816361200D-04  4.99370458032969300D-04 -6.01842208239962600D-04
25  4  1.02940717455581100D-04  1.15778506411170400D-04  2.68579986175527200D-04 -2.35322798190903600D-04  4.75093064693818200D-04
25  5  1.29485684527757800D-03  1.00340314827571500D-02 -9.55282345467987600D-03  6.11545973225097100D-03  1.25536654341058700D-01
25  6 -1.16390635350949800D-01  7.75493542160486100D-02  4.23416955217578000D-03  8.55957786742708400D-04  5.86099030535636200D-03
25  7 -6.12562369265777300D-03  4.52867438067825100D-03 -7.62314460507184500D-04
26  1 -1.14456987524308200D-03 -4.23326282730047600D-05 -6.11170469358088300D-04 -3.91196980764031100D-03  8.09489313737864200D-03
26  2 -8.21000496392032200D-03  1.10444519240267500D-01 -2.14419616701999700D-01  9.48994122392452200D-02  1.19277501066709100D-04
26  3  6.41396528206763700D-05  1.75606857421022200D-05 -1.36784128462741400D-04  4.03751654572050600D-04 -2.48114278208534100D-04
26  4  8.86802205874066800D-06  3.90244118105573600D-04 -2.08066237388610700D-04 -9.38571069630626800D-05  1.19409596379294500D-03
26  5 -3.33417551056530200D-04  1.25153951916685700D-02 -9.83257018823239700D-03  1.18489226064678100D-02 -1.16390635350949800D-01
26  6  2.12866694015077700D-01 -9.69703936343874800D-02 -1.09406180375882000D-04 -1.77998426597117400D-04  4.14043338000150700D-04
26  7 -1.29796464288576900D-03  1.39654661456178800D-03 -6.40873669653565400D-04
27  1 -8.45417836372241600D-03  3.32730407458401900D-03  1.86871441073344400D-03 -1.32180302023747100D-02  1.64725726108170200D-02
27  2 -6.39984804299970100D-03 -5.46484003394539700D-02  8.27625360561357700D-02 -8.34750130129055500D-02  6.19078631777466600D-04
27  3 -6.51808050520174200D-04  9.19993883141722100D-04 -1.79677415554748200D-04  6.78775724245327300D-04 -2.18202252058371400D-03
27  4  9.45312536436752000D-05 -1.99724751134573000D-04 -9.36334893964115000D-06  4.20238385799680300D-03 -8.72512076376618300D-04
27  5 -1.53251659874261200D-03 -3.23784287572622300D-03 -7.60620369152941800D-04  2.44513297298616700D-03  7.75493542160486100D-02
27  6 -9.69703936343874800D-02  9.10287365402998700D-02 -6.46842994848628700D-03 -1.17630059561987800D-04 -1.66251115292078900D-03
27  7  3.72867904028955700D-03 -3.66602617860135400D-03 -9.93245943335663300D-04
28  1  4.25312676786307300D-03 -1.27461285630097400D-04 -5.78383358554369400D-03 -5.08033020684849400D-02  1.66354594582611500D-02
28  2  3.02699979718472400D-02 -1.83349713663879500D-02  8.80011756710830300D-03  1.70224523244425700D-02  2.60711535193217300D-04
28  3  1.02101534501240000D-03 -1.48413165835367600D-03  1.31158412109058000D-03 -7.24823634410532000D-04 -1.87090812567348500D-03
28  4 -2.13174141330718300D-04 -9.51127658240652500D-05  3.96537460885877800D-04  5.51020927978414800D-03 -3.28313863193704700D-03
28  5 -6.44326148325825300D-03 -5.89073408039960000D-03  1.07774278431630300D-03  3.43785382271571300D-03  4.23416955217578000D-03
28  6 -1.09406180375882000D-04 -6.46842994848628700D-03  6.48614263004089500D-02 -1.76051721475516500D-02 -1.27776034222342900D-02
28  7 -5.22939842043561700D-03 -5.56657219871223100D-03 -1.62713510408344600D-02
29  1  5.19873566323988300D-03  4.63902850805840300D-04 -4.75171853963206500D-03 -2.74079360910906200D-02 -1.03576739915067800D-02
29  2 -7.22110049042703300D-03  1.78242124419018000D-02  1.30766580448967400D-02  3.01350142414939800D-02  3.93328014717283900D-05
29  3  6.72710322409506200D-04  5.78555242870067100D-04  5.50140646282540700D-04 -7.08634540619974200D-04  2.48940440260481300D-03
29  4 -7.88964294419936400D-04 -1.34073396691448100D-03  1.32790651008055400D-03  3.99419039131491300D-03 -5.18419868697451600D-05
29  5  1.10380655754288700D-04 -4.31970453051572200D-03  4.88025576615507500D-04  2.32859070694721100D-03  8.55957786742708400D-04
29  6 -1.77998426597117400D-04 -1.17630059561987800D-04 -1.76051721475516500D-02  2.20385968108555200D-02 -4.52335496730139500D-02
29  7  2.17073521799220700D-02 -2.40983656220191600D-02  2.03478586386484100D-02
30  1  1.91801287691628500D-02 -6.38025267061441500D-03 -3.12409356710620700D-02 -5.46495084386940700D-02  4.35532411873761400D-02
30  2  1.58665122648204200D-03 -4.91522818120791000D-03  3.34640897152501500D-02  7.67934639024994000D-02  4.90181993078426500D-04
30  3  2.66586036664034700D-03 -4.64952996627349600D-03  2.14163389765731700D-03 -1.78350654849682600D-03  2.27914709383897200D-03
30  4 -2.53671439218527800D-04  4.52801495943100000D-04 -5.13325589011589300D-04 -8.58657529898077300D-03  4.29228415598482100D-03
30  5  3.56743864042565400D-03 -5.75400200828911000D-05 -5.95381387900623800D-04  2.22175137433726500D-04  5.86099030535636200D-03
30  6  4.14043338000150700D-04 -1.66251115292078900D-03 -1.27776034222342900D-02 -4.52335496730139500D-02 -6.17616518536345500D-02
30  7  5.35820735069094100D-02 -3.07534444878100300D-02  1.54122317120233300D-02
31  1 -9.64347121134192900D-03  7.32614089702585100D-03  8.37560777478681800D-03  4.46655480837567600D-02 -2.23845314709974300D-02
31  2 -2.12132964049569600D-03 -9.14510059833349000D-03 -2.07812310370381900D-02 -4.51101495219450900D-02  1.97283658457747900D-04
31  3 -2.23397395485065400D-03  3.24186698393072700D-03 -8.13923738931317400D-04  2.44456733821589500D-04 -6.32813167753508400D-04
31  4  1.25779309336325900D-04 -2.58397405452585200D-04 -2.03521231341300200D-04  7.04474052749858400D-04  7.77029997027197200D-05
31  5 -6.64431157720466900D-05 -8.79013186254518100D-03  5.46296174114284600D-03  8.44598592497055100D-03 -6.12562369265777300D-03
31  6 -1.29796464288576900D-03  3.72867904028955700D-03 -5.22939842043561700D-03  2.17073521799220700D-02  5.35820735069094100D-02
31  7 -5.95742583851849500D-03  1.21338542151538800D-02 -2.92453688949712400D-02
32  1  5.70443217246084500D-03 -5.69169046321186200D-03 -4.61397221091922700D-03 -1.39722047736202700D-02  1.48605239559661400D-02
32  2 -1.23451767616269500D-02 -3.39740541608447400D-03 -3.69549664237840600D-03  2.58879780700545800D-02 -1.74940503223084500D-04
32  3  1.68989329691152700D-03 -2.57204918297456800D-03  2.05353487177947900D-04 -1.38350910533458700D-04  3.13529583903862700D-04
32  4  1.63575350467962500D-04  5.80350950973515500D-04 -1.18836303763993800D-04 -5.87094666051749600D-04  5.57246930100172600D-04
32  5  5.56419518689160900D-04  9.57895827041017500D-04  1.46678792865181600D-03 -1.10873898940366600D-03  4.52867438067825100D-03
32  6  1.39654661456178800D-03 -3.66602617860135400D-03 -5.56657219871223100D-03 -2.40983656220191600D-02 -3.07534444878100300D-02
32  7  1.21338542151538800D-02  1.31039940811237800D-02  2.84398057649206500D-02
33  1 -3.50451991163684000D-04 -2.76890155105978100D-03  2.08942339979573300D-03  2.31869072537698900D-02 -2.67105213875083100D-02
33  2 -1.99875297174354100D-02  1.50879766521140900D-02 -1.81842839408288100D-02 -3.27184478476530000D-02 -1.19202141270885700D-04
33  3  1.40428925431463000D-03 -2.03551325619679200D-03 -1.03282037325971900D-03  1.13918946857219100D-03 -1.14885834074916200D-03
33  4  2.26992430700956700D-04  6.80171076055616900D-04 -3.67424282272899800D-04  4.59191342244021600D-03 -1.13130672674134200D-03
33  5 -3.11577084528369500D-03  4.66397060762043500D-03 -2.64509877479369600D-03 -3.06786038214742900D-03 -7.62314460507184500D-04
33  6 -6.40873669653565400D-04 -9.93245943335663300D-04 -1.62713510408344600D-02  2.03478586386484100D-02  1.54122317120233300D-02
33  7 -2.92453688949712400D-02  2.84398057649206500D-02  4.59316297663180900D-02
 $END
