 $CONTRL SCFTYP=MCSCF RUNTYP=ENERGY ICHARG=0 MULT=1 MPLEVL=2 EXETYP=RUN
      INTTYP=HONDO ICUT=13 ITOL=30 D5=.T. MAXIT=100 GENCON=.F. WIDE=1 FSTINT=.T.
 $END
 $SYSTEM TIMLIM=60000 MWORDS=200 MASMEM=200000000 MXBCST=-1 KDIAG=0 NOJAC=1 $END
 $MOORTH NOSTF=.T. NOZERO=.T. SYMS=.T. SYMDEN=.T. SYMVEC=.T. SYMVX=.T.
      TOLE=0.0D0 TOLZ=0.0D0 $END
 $GUESS GUESS=MOREAD NORB=160 $END
 $DET NCORE=22 NACT=10 NELS=12 CVGTOL=1D-8 ITERMX=1000 NSTATE=9
      WSTATE(1)=1,1,1,1,1 $END
 $MCSCF MAXIT=70 ACURCY=1D-8 CISTEP=ALDET ENGTOL=1D-12 IFORB=1 ISTATE=1
      SOSCF=.T. $END
 $XMCQDPT NSTATE=5 EDSHFT=2D-2 GENZRO=1D-20 ISTATE(1)=1 THRCON=1D-8 THRERI=1D-20
      THRGEN=1D-20 WSTATE(1)=1,1,1,1,1 $END
 $MCQGENS GEN1=3 GEN2=3 GEN3=1 USEGEN1=.T. $END
 $DATA
o_bq XMCQDPT2/ALDET-CASSCF(12,10) Andrew-style geometry
C1
C      6.0    -0.0450782261     1.4807810883     0.0000000000
S   8
  1    6665.0000000       0.0006920
  2    1000.0000000       0.0053290
  3     228.0000000       0.0270770
  4      64.7100000       0.1017180
  5      21.0600000       0.2747400
  6       7.4950000       0.4485640
  7       2.7970000       0.2850740
  8       0.5215000       0.0152040
S   8
  1    6665.0000000      -0.0001460
  2    1000.0000000      -0.0011540
  3     228.0000000      -0.0057250
  4      64.7100000      -0.0233120
  5      21.0600000      -0.0639550
  6       7.4950000      -0.1499810
  7       2.7970000      -0.1272620
  8       0.5215000       0.5445290
S   1
  1       0.1596000       1.0000000
P   3
  1       9.4390000       0.0381090
  2       2.0020000       0.2094800
  3       0.5456000       0.5085570
P   1
  1       0.1517000       1.0000000
D   1
  1       0.5500000       1.0000000

C      6.0     1.3045915656     0.7016426529     0.0000000000
S   8
  1    6665.0000000       0.0006920
  2    1000.0000000       0.0053290
  3     228.0000000       0.0270770
  4      64.7100000       0.1017180
  5      21.0600000       0.2747400
  6       7.4950000       0.4485640
  7       2.7970000       0.2850740
  8       0.5215000       0.0152040
S   8
  1    6665.0000000      -0.0001460
  2    1000.0000000      -0.0011540
  3     228.0000000      -0.0057250
  4      64.7100000      -0.0233120
  5      21.0600000      -0.0639550
  6       7.4950000      -0.1499810
  7       2.7970000      -0.1272620
  8       0.5215000       0.5445290
S   1
  1       0.1596000       1.0000000
P   3
  1       9.4390000       0.0381090
  2       2.0020000       0.2094800
  3       0.5456000       0.5085570
P   1
  1       0.1517000       1.0000000
D   1
  1       0.5500000       1.0000000

C      6.0     1.2405223961    -0.7735654712     0.0000000000
S   8
  1    6665.0000000       0.0006920
  2    1000.0000000       0.0053290
  3     228.0000000       0.0270770
  4      64.7100000       0.1017180
  5      21.0600000       0.2747400
  6       7.4950000       0.4485640
  7       2.7970000       0.2850740
  8       0.5215000       0.0152040
S   8
  1    6665.0000000      -0.0001460
  2    1000.0000000      -0.0011540
  3     228.0000000      -0.0057250
  4      64.7100000      -0.0233120
  5      21.0600000      -0.0639550
  6       7.4950000      -0.1499810
  7       2.7970000      -0.1272620
  8       0.5215000       0.5445290
S   1
  1       0.1596000       1.0000000
P   3
  1       9.4390000       0.0381090
  2       2.0020000       0.2094800
  3       0.5456000       0.5085570
P   1
  1       0.1517000       1.0000000
D   1
  1       0.5500000       1.0000000

C      6.0     0.0339756812    -1.4096965476     0.0000000000
S   8
  1    6665.0000000       0.0006920
  2    1000.0000000       0.0053290
  3     228.0000000       0.0270770
  4      64.7100000       0.1017180
  5      21.0600000       0.2747400
  6       7.4950000       0.4485640
  7       2.7970000       0.2850740
  8       0.5215000       0.0152040
S   8
  1    6665.0000000      -0.0001460
  2    1000.0000000      -0.0011540
  3     228.0000000      -0.0057250
  4      64.7100000      -0.0233120
  5      21.0600000      -0.0639550
  6       7.4950000      -0.1499810
  7       2.7970000      -0.1272620
  8       0.5215000       0.5445290
S   1
  1       0.1596000       1.0000000
P   3
  1       9.4390000       0.0381090
  2       2.0020000       0.2094800
  3       0.5456000       0.5085570
P   1
  1       0.1517000       1.0000000
D   1
  1       0.5500000       1.0000000

C      6.0    -1.2380102911    -0.6753858178     0.0000000000
S   8
  1    6665.0000000       0.0006920
  2    1000.0000000       0.0053290
  3     228.0000000       0.0270770
  4      64.7100000       0.1017180
  5      21.0600000       0.2747400
  6       7.4950000       0.4485640
  7       2.7970000       0.2850740
  8       0.5215000       0.0152040
S   8
  1    6665.0000000      -0.0001460
  2    1000.0000000      -0.0011540
  3     228.0000000      -0.0057250
  4      64.7100000      -0.0233120
  5      21.0600000      -0.0639550
  6       7.4950000      -0.1499810
  7       2.7970000      -0.1272620
  8       0.5215000       0.5445290
S   1
  1       0.1596000       1.0000000
P   3
  1       9.4390000       0.0381090
  2       2.0020000       0.2094800
  3       0.5456000       0.5085570
P   1
  1       0.1517000       1.0000000
D   1
  1       0.5500000       1.0000000

C      6.0    -1.2905225577     0.6875519449     0.0000000000
S   8
  1    6665.0000000       0.0006920
  2    1000.0000000       0.0053290
  3     228.0000000       0.0270770
  4      64.7100000       0.1017180
  5      21.0600000       0.2747400
  6       7.4950000       0.4485640
  7       2.7970000       0.2850740
  8       0.5215000       0.0152040
S   8
  1    6665.0000000      -0.0001460
  2    1000.0000000      -0.0011540
  3     228.0000000      -0.0057250
  4      64.7100000      -0.0233120
  5      21.0600000      -0.0639550
  6       7.4950000      -0.1499810
  7       2.7970000      -0.1272620
  8       0.5215000       0.5445290
S   1
  1       0.1596000       1.0000000
P   3
  1       9.4390000       0.0381090
  2       2.0020000       0.2094800
  3       0.5456000       0.5085570
P   1
  1       0.1517000       1.0000000
D   1
  1       0.5500000       1.0000000

O      8.0    -0.0398433785     2.7143255481     0.0000000000
S   8
  1   11720.0000000       0.0007100
  2    1759.0000000       0.0054700
  3     400.8000000       0.0278370
  4     113.7000000       0.1048000
  5      37.0300000       0.2830620
  6      13.2700000       0.4487190
  7       5.0250000       0.2709520
  8       1.0130000       0.0154580
S   8
  1   11720.0000000      -0.0001600
  2    1759.0000000      -0.0012630
  3     400.8000000      -0.0062670
  4     113.7000000      -0.0257160
  5      37.0300000      -0.0709240
  6      13.2700000      -0.1654110
  7       5.0250000      -0.1169550
  8       1.0130000       0.5573680
S   1
  1       0.3023000       1.0000000
S   1
  1       0.0789600       1.0000000
P   3
  1      17.7000000       0.0430180
  2       3.8540000       0.2289130
  3       1.0460000       0.5087280
P   1
  1       0.2753000       1.0000000
P   1
  1       0.0685600       1.0000000
D   1
  1       1.1850000       1.0000000
D   1
  1       0.3320000       1.0000000

O      8.0     2.3701827636     1.3230538234     0.0000000000
S   8
  1   11720.0000000       0.0007100
  2    1759.0000000       0.0054700
  3     400.8000000       0.0278370
  4     113.7000000       0.1048000
  5      37.0300000       0.2830620
  6      13.2700000       0.4487190
  7       5.0250000       0.2709520
  8       1.0130000       0.0154580
S   8
  1   11720.0000000      -0.0001600
  2    1759.0000000      -0.0012630
  3     400.8000000      -0.0062670
  4     113.7000000      -0.0257160
  5      37.0300000      -0.0709240
  6      13.2700000      -0.1654110
  7       5.0250000      -0.1169550
  8       1.0130000       0.5573680
S   1
  1       0.3023000       1.0000000
S   1
  1       0.0789600       1.0000000
P   3
  1      17.7000000       0.0430180
  2       3.8540000       0.2289130
  3       1.0460000       0.5087280
P   1
  1       0.2753000       1.0000000
P   1
  1       0.0685600       1.0000000
D   1
  1       1.1850000       1.0000000
D   1
  1       0.3320000       1.0000000

H      1.0     2.1902390294    -1.3176810390     0.0000000000
S   3
  1      13.0100000       0.0196850
  2       1.9620000       0.1379770
  3       0.4446000       0.4781480
S   1
  1       0.1220000       1.0000000
P   1
  1       0.7270000       1.0000000

H      1.0    -0.0034843590    -2.5045497916     0.0000000000
S   3
  1      13.0100000       0.0196850
  2       1.9620000       0.1379770
  3       0.4446000       0.4781480
S   1
  1       0.1220000       1.0000000
P   1
  1       0.7270000       1.0000000

H      1.0    -2.1674037412    -1.2553456340     0.0000000000
S   3
  1      13.0100000       0.0196850
  2       1.9620000       0.1379770
  3       0.4446000       0.4781480
S   1
  1       0.1220000       1.0000000
P   1
  1       0.7270000       1.0000000

H      1.0    -2.2366688824     1.2378692437     0.0000000000
S   3
  1      13.0100000       0.0196850
  2       1.9620000       0.1379770
  3       0.4446000       0.4781480
S   1
  1       0.1220000       1.0000000
P   1
  1       0.7270000       1.0000000

 $END
 $VEC
 1  1  4.57468955873989300D-04  5.52703109284234900D-04 -6.72995633361748300D-04  1.90145684665133000D-05  1.90536700064301300D-04
 1  2  0.00000000000000000D+00  2.60929163372596500D-03  7.65706301895926300D-03  0.00000000000000000D+00  3.86169592352312300D-04
 1  3 -1.86222721460000600D-04 -1.99946870892275500D-04  1.47388045364247300D-04  0.00000000000000000D+00  0.00000000000000000D+00
 1  4 -5.02901895118976400D-04 -6.49329529116379600D-04 -3.68871483136201000D-04 -2.22530717463506400D-04 -1.35450397433945700D-04
 1  5  0.00000000000000000D+00 -5.71218396498201000D-03 -5.88967831965675800D-03  0.00000000000000000D+00  1.58889383222101300D-04
 1  6 -3.12597857223783100D-04  1.53708474001700900D-04  2.55626242001124300D-04  0.00000000000000000D+00  0.00000000000000000D+00
 1  7  4.16883397901965200D-01  2.27113970925415000D-03 -9.50265995361585800D-03 -6.43184695421251800D-05  1.43030123549751600D-04
 1  8  0.00000000000000000D+00  3.02190892896581000D-03 -2.11770367101907700D-03  0.00000000000000000D+00  5.89163451742660300D-05
 1  9  5.72527757053186900D-05 -1.16169120879594200D-04  2.53076223386690800D-04  0.00000000000000000D+00  0.00000000000000000D+00
 1 10  7.71238912888414400D-03 -1.68623293175686300D-04  3.99062137027828900D-03 -2.66263909998906500D-05  2.17412269715414800D-05
 1 11  0.00000000000000000D+00  9.34439093254326900D-04  1.93329633277685900D-03  0.00000000000000000D+00 -1.13290399529913800D-04
 1 12 -3.97173675877512700D-05  1.53007767117779100D-04  2.53160852262728900D-05  0.00000000000000000D+00  0.00000000000000000D+00
 1 13 -1.05220927955130600D-02  2.53959054464848400D-04 -4.15435343201694100D-03 -1.11982889569444400D-05  3.18811132218789100D-05
 1 14  0.00000000000000000D+00 -1.39772086806098700D-03 -1.93640094512006500D-03  0.00000000000000000D+00  7.96002496902667500D-05
 1 15  1.04269336524122000D-04 -1.83869586214357100D-04 -3.11276009309154400D-05  0.00000000000000000D+00  0.00000000000000000D+00
 1 16 -5.73212019723863200D-01 -2.92434657345568400D-03  1.10053687286945700D-02 -1.55660790008431800D-04 -1.29719968525126100D-05
 1 17  0.00000000000000000D+00  3.62134901831596700D-03 -1.35856470307971600D-03  0.00000000000000000D+00  7.87426735697069800D-05
 1 18 -2.96565542154316700D-04  2.17822868584766300D-04 -5.54257738115103400D-05  0.00000000000000000D+00  0.00000000000000000D+00
 1 19  4.16722481989501200D-01  1.28499930985794200D-03 -5.54324370879884700D-03 -3.81828004989980000D-03 -1.28005642940581800D-05
 1 20 -7.89872441448164000D-04  0.00000000000000000D+00 -2.95847338338338800D-04  2.10465301619038200D-03  0.00000000000000000D+00
 1 21 -3.98618769760375800D-04  1.43124595590589400D-03  0.00000000000000000D+00  1.33234614417318500D-05  8.32395191533176900D-05
 1 22 -9.65629805949742500D-05  5.01588428689560200D-06  0.00000000000000000D+00  0.00000000000000000D+00  2.00510759640160800D-04
 1 23 -3.39190285683620400D-04  1.38679526043526800D-04  8.46203716948917800D-05  0.00000000000000000D+00  0.00000000000000000D+00
 1 24 -5.72978052282284900D-01 -1.58326747303171400D-03  6.65233124689409200D-03  3.80900948761150500D-03  9.04139295681113400D-04
 1 25  5.46787893932085000D-04  0.00000000000000000D+00 -2.29325513908182000D-03 -1.07475096599103600D-03  0.00000000000000000D+00
 1 26 -1.40421353291667900D-03 -3.45905115122482200D-04  0.00000000000000000D+00 -8.90170358446097800D-05 -4.94184231448200800D-05
 1 27  1.38435458989454500D-04 -5.81354452606472300D-05  0.00000000000000000D+00  0.00000000000000000D+00  3.08811736308978700D-04
 1 28 -1.38184594926476400D-04 -1.70627141382493200D-04  3.46318946910775500D-04  0.00000000000000000D+00  0.00000000000000000D+00
 1 29 -4.79322046297444200D-05 -7.02641310019207500D-04  4.39302736513235900D-05 -4.89455949345931900D-05  0.00000000000000000D+00
 1 30  5.35496711213048100D-05  3.95767081344334700D-04  2.32845188563479900D-06  3.93771638227134800D-06  0.00000000000000000D+00
 1 31 -9.73734103429298300D-05 -5.01804276493314400D-04 -2.34361969209933200D-05 -1.23135686862881600D-05  0.00000000000000000D+00
 1 32  1.10742807828962600D-04  5.48991877761604500D-04  1.45710921014428400D-04 -5.97446527194097100D-05  0.00000000000000000D+00
 2  1 -1.87488316128855100D-04 -4.00963152733818500D-04 -3.27429655400694700D-03  3.92627011886199500D-05 -2.56718884494227200D-04
 2  2  0.00000000000000000D+00  7.74141217692177100D-04 -1.97194134202626800D-03  0.00000000000000000D+00 -6.18683487155862700D-05
 2  3  1.80239201825488900D-04 -1.18370853110136400D-04  1.04527044903360200D-04  0.00000000000000000D+00  0.00000000000000000D+00
 2  4  2.01899273460407700D-05 -2.10772716471378400D-04 -3.32229168760602500D-03 -1.82164522213243000D-04 -5.52901089512525800D-05
 2  5  0.00000000000000000D+00 -3.50717267690291300D-04  1.57639591367675900D-03  0.00000000000000000D+00 -8.03414324805141200D-06
 2  6  1.82307365886899100D-04 -1.74273222638791900D-04  9.93331532309632700D-05  0.00000000000000000D+00  0.00000000000000000D+00
 2  7 -5.72962984897361300D-01 -2.47785868872943800D-03  6.37495939779559000D-03  1.73602663140414700D-05 -1.71657641252060100D-05
 2  8  0.00000000000000000D+00 -3.65591621505054600D-04  1.43382623256388200D-03  0.00000000000000000D+00 -3.40904900774650300D-04
 2  9 -7.19438653270989100D-06  3.48099287307314600D-04  8.24005860784010300D-05  0.00000000000000000D+00  0.00000000000000000D+00
 2 10 -1.03814849712883700D-02  2.99870158609993900D-04 -1.16211403230669500D-03  2.81778723557539600D-05  8.72105364269626400D-05
 2 11  0.00000000000000000D+00 -2.87627249974901800D-04 -1.10135059690962900D-03  0.00000000000000000D+00  4.41110578474579700D-05
 2 12  7.99421139925126400D-05 -1.24053171839900900D-04  6.79373122702429600D-05  0.00000000000000000D+00  0.00000000000000000D+00
 2 13 -7.32534903280874200D-03  2.33846126848774800D-04  1.22001239533348100D-04  6.83521980623911800D-05  6.09825461267631800D-05
 2 14  0.00000000000000000D+00 -3.99217547529944400D-04 -2.13657562110044200D-04  0.00000000000000000D+00 -4.61333096459231200D-06
 2 15  7.56050384335800100D-05 -7.09917074691877900D-05  6.45818284292925800D-05  0.00000000000000000D+00  0.00000000000000000D+00
 2 16 -4.16596823313158400D-01 -1.65745409384668000D-03  3.13636586704992200D-03  2.56678646681513700D-05  1.10837434619862600D-05
 2 17  0.00000000000000000D+00  3.24353126173791300D-04  8.60956057920599100D-04  0.00000000000000000D+00 -1.85804936066365100D-04
 2 18 -1.09605059071501100D-04  2.95409995137876900D-04  2.36691638436238000D-04  0.00000000000000000D+00  0.00000000000000000D+00
 2 19 -5.72765122489233700D-01 -1.17111478077926600D-03  4.47334815954742400D-03  5.73231954492462900D-04  2.97683520138260500D-05
 2 20  9.89210192511583000D-04  0.00000000000000000D+00 -2.11975572580076900D-04 -1.69117884372477700D-03  0.00000000000000000D+00
 2 21  7.61440631189662100D-05 -8.91865140442791400D-05  0.00000000000000000D+00 -9.88294024740850800D-06 -1.41206994621675900D-04
 2 22  1.51089934869065400D-04 -1.45441136644362800D-05  0.00000000000000000D+00  0.00000000000000000D+00 -3.09563133885687200D-04
 2 23  4.35130985127503600D-04 -1.25567851241896000D-04  9.75861247437286200D-05  0.00000000000000000D+00  0.00000000000000000D+00
 2 24 -4.16377585063697900D-01 -7.17829804626215200D-04  2.54633048843957600D-03 -6.31730775620092900D-04  5.91810503655923100D-04
 2 25  3.69906355134488300D-04  0.00000000000000000D+00 -6.84727850990619100D-04 -7.33527127910907700D-04  0.00000000000000000D+00
 2 26  3.33795827224314700D-04  1.34528624121931700D-04  0.00000000000000000D+00 -7.35840640666282200D-05 -4.03642519668374200D-05
 2 27  1.13948316033499500D-04 -5.78256071052923200D-05  0.00000000000000000D+00  0.00000000000000000D+00  8.45755004973167000D-05
 2 28 -7.93397507115690700D-06 -7.66415254261625500D-05  3.30422226350169000D-04  0.00000000000000000D+00  0.00000000000000000D+00
 2 29  2.11033242754825400D-04 -3.87639225178800900D-04 -2.68622662648437900D-04  1.61321884308153100D-04  0.00000000000000000D+00
 2 30 -1.52167945077817900D-04 -4.06609130965393300D-04  1.06891333202557700D-05 -7.38297835049242200D-05  0.00000000000000000D+00
 2 31 -1.28494694147955700D-04 -2.64834017813196000D-04 -6.53120723207562500D-05 -2.51617724770479300D-05  0.00000000000000000D+00
 2 32  1.86018694541869800D-04 -5.85283892572909500D-04  2.40889581496311400D-04 -1.40386705911829400D-04  0.00000000000000000D+00
 3  1  4.02312290260666100D-01  2.02463528805017300D-03 -2.70745554797553900D-03  2.02201616884896800D-05  2.63890877209092000D-04
 3  2  0.00000000000000000D+00  1.31449625209600100D-03  8.85030570605925500D-05  0.00000000000000000D+00 -1.57443461913410900D-04
 3  3  2.11756973679988900D-04 -5.43135117665883700D-05  3.22748431941903800D-04  0.00000000000000000D+00  0.00000000000000000D+00
 3  4  8.26389952217772300D-01  4.08948284801008100D-03 -5.28089119325674200D-03  5.97510372057807200D-04  3.54926376188842700D-04
 3  5  0.00000000000000000D+00  9.08252467308882600D-04  3.30835489444367400D-04  0.00000000000000000D+00  2.35072641567662700D-04
 3  6  2.05172736318452700D-04 -4.40245377886194300D-04  3.90663899901926100D-04  0.00000000000000000D+00  0.00000000000000000D+00
 3  7  7.60448301973400900D-03  1.15337199087567700D-04 -7.58980425999837200D-04  2.07713344383569400D-06 -5.16793892182247100D-05
 3  8  0.00000000000000000D+00  8.32753388595165000D-04  4.02192387805777100D-04  0.00000000000000000D+00  1.52578411708637900D-04
 3  9 -2.32875562400676200D-04  8.02971506918776000D-05  7.46886700586374300D-05  0.00000000000000000D+00  0.00000000000000000D+00
 3 10 -3.96346346776773400D-01 -1.87804090048055800D-03  4.68886604800477500D-03  7.72946943628931900D-05 -8.48675499065939700D-05
 3 11  0.00000000000000000D+00  6.82546055346700600D-05  1.29924254139122400D-03  0.00000000000000000D+00 -9.42793174162462100D-05
 3 12 -3.11623481134457800D-05  1.25441665529598200D-04 -2.03413213015902100D-05  0.00000000000000000D+00  0.00000000000000000D+00
 3 13  5.62690206398248300D-02  1.68811829119936800D-04 -1.43989473068877800D-03 -3.07960177126339100D-05 -7.46667828655585500D-05
 3 14  0.00000000000000000D+00 -8.41034062134564000D-04  2.29071362458874500D-04  0.00000000000000000D+00  1.43515868632921700D-04
 3 15  7.76650327417417500D-05 -2.21180901374783900D-04 -7.33643369259981900D-05  0.00000000000000000D+00  0.00000000000000000D+00
 3 16 -1.07798768735115700D-03 -1.49714003150053600D-04  1.33853332464956400D-03 -5.25057623338791800D-05 -2.98482696350763800D-06
 3 17  0.00000000000000000D+00  7.70372633831234100D-04  4.61696849462864100D-04  0.00000000000000000D+00 -1.45488757510201500D-04
 3 18  6.25372763206421400D-05  8.29514811894773100D-05 -1.01882137258852300D-04  0.00000000000000000D+00  0.00000000000000000D+00
 3 19  5.32400649065108600D-05  2.35611522213935000D-04 -5.10181582128149700D-04  7.34832858878637000D-04 -1.01201783014211700D-05
 3 20 -1.67173684843172000D-04  0.00000000000000000D+00 -3.24044022868310200D-04  5.12755977347266600D-04  0.00000000000000000D+00
 3 21 -4.74337051274487700D-05 -5.88504259824299300D-04  0.00000000000000000D+00 -6.72469704190723000D-05  1.24538527552708700D-04
 3 22 -5.72915571335808100D-05  2.39656546546191200D-05  0.00000000000000000D+00  0.00000000000000000D+00  1.73241360177972500D-04
 3 23 -3.58501897244801700D-04  1.85260537066832700D-04  1.31246041055222900D-04  0.00000000000000000D+00  0.00000000000000000D+00
 3 24 -1.79155076175035000D-05  6.63930725121369900D-04 -1.63042758387444900D-03  7.11493759316402000D-04 -3.23325467399069500D-04
 3 25 -2.13120903813620700D-04  0.00000000000000000D+00  1.34016463477230600D-03  7.24677414496878200D-04  0.00000000000000000D+00
 3 26 -6.39364232447446600D-04 -3.54148881231340400D-04  0.00000000000000000D+00  1.40304893500361300D-04 -1.20165354353120600D-05
 3 27 -1.28288358065012500D-04  1.99812860704448800D-04  0.00000000000000000D+00  0.00000000000000000D+00 -6.04451493855905200D-04
 3 28  2.12067725545810300D-05  5.83244721301344100D-04 -5.92468489311178500D-04  0.00000000000000000D+00  0.00000000000000000D+00
 3 29 -2.13783293546130900D-05 -2.80147242128716100D-04 -2.86488375049279700D-05 -3.65379939344491800D-05  0.00000000000000000D+00
 3 30  1.27650408499718300D-04 -7.21414542268258200D-05 -8.03818432173577800D-06  1.60842360641465400D-04  0.00000000000000000D+00
 3 31 -6.01281199923719500D-05 -4.26030706112581600D-05 -3.81554937727476300D-05 -4.76367467780943800D-05  0.00000000000000000D+00
 3 32  1.69438562234553700D-05 -4.19491622621684400D-05 -1.08004694333763300D-05 -5.46876337033892800D-05  0.00000000000000000D+00
 4  1 -1.94398966247695700D-01 -9.82292360560190700D-04  2.76784698466758600D-03  2.71344626409258400D-05 -1.67025663704251300D-04
 4  2  0.00000000000000000D+00  4.68941903371571600D-04 -9.00662733423684200D-04  0.00000000000000000D+00 -5.02452097790954400D-05
 4  3 -2.06481054529676600D-04  2.56726264308807000D-04 -1.39171880602080400D-05  0.00000000000000000D+00  0.00000000000000000D+00
 4  4  3.60564208039613500D-01  1.84824510900517300D-03 -3.69591735542321200D-03  2.76264935773700700D-04  1.13092576110230700D-04
 4  5  0.00000000000000000D+00  1.13524613525561200D-03  3.59113890025511900D-04  0.00000000000000000D+00  1.77065606493844600D-04
 4  6  1.19671729374125700D-04 -2.96737335867978100D-04  1.68627380374702800D-04  0.00000000000000000D+00  0.00000000000000000D+00
 4  7 -8.59865092038691500D-03 -1.70718890851817100D-04  2.11666691330556300D-03 -8.03243604764834100D-06  2.98084676522163300D-05
 4  8  0.00000000000000000D+00 -9.92928938329736500D-04  5.99095276277539900D-04  0.00000000000000000D+00 -8.51481170122725400D-05
 4  9 -2.43557325786631200D-04  3.28705442799071800D-04  4.57872748322420700D-05  0.00000000000000000D+00  0.00000000000000000D+00
 4 10  4.40069412137381100D-01  1.98577730318105600D-03 -6.27170125233246800D-03 -1.49791091750313800D-04  1.98883758797888000D-05
 4 11  0.00000000000000000D+00  8.60478871251319800D-04 -1.84425286659309000D-03  0.00000000000000000D+00  3.49517870869202000D-04
 4 12  1.94598801870973400D-04 -5.44116672740196100D-04 -1.07899259390638000D-04  0.00000000000000000D+00  0.00000000000000000D+00
 4 13 -8.01807231786574600D-01 -3.48743426410339500D-03  9.24399434387747200D-03 -1.39019636309906700D-04  1.79485522696245500D-04
 4 14  0.00000000000000000D+00  2.11789441283692600D-03  7.69952368674795500D-04  0.00000000000000000D+00 -3.02635134694971700D-04
 4 15 -3.05589097655693300D-04  6.08224232350843300D-04  1.90052124322201800D-06  0.00000000000000000D+00  0.00000000000000000D+00
 4 16  1.53482248434759100D-02  3.43468996626064200D-04 -3.07334106966667000D-03 -3.10526900174043300D-05 -3.22711424019499900D-05
 4 17  0.00000000000000000D+00 -1.06327541647993700D-03  1.43202567945283700D-03  0.00000000000000000D+00  2.44709482291566800D-04
 4 18  1.17519809297399500D-04 -3.62229291588966200D-04 -1.88320950071478600D-06  0.00000000000000000D+00  0.00000000000000000D+00
 4 19 -3.63589263702653900D-05 -1.62090523076958600D-04  4.59225990666670800D-04 -3.38552880260677100D-04 -2.83690057551865700D-06
 4 20  8.02492956599117100D-05  0.00000000000000000D+00 -3.45442345709339300D-05 -3.13172226049517200D-04  0.00000000000000000D+00
 4 21 -1.44760482611782900D-05  2.57068703770438900D-04  0.00000000000000000D+00  2.95397838723065300D-05 -4.85653120481698400D-05
 4 22  1.90255281758503700D-05  3.13777648829061100D-10  0.00000000000000000D+00  0.00000000000000000D+00 -6.05117133939006700D-05
 4 23  2.01421644745175000D-04 -1.40909931351212300D-04 -1.74796727181899000D-05  0.00000000000000000D+00  0.00000000000000000D+00
 4 24 -4.90735386165918200D-05  3.20207525818529600D-04 -8.63866961806350300D-04  3.63805173095987200D-04 -1.41583060142789200D-04
 4 25 -8.36145622880120300D-05  0.00000000000000000D+00  5.76647275544963800D-04  3.37298858306060100D-04  0.00000000000000000D+00
 4 26 -3.16226953778637200D-04 -1.44741415923415800D-04  0.00000000000000000D+00  5.92937916119461600D-05 -8.71614339383351200D-06
 4 27 -5.05776482180725900D-05  7.75982835030302000D-05  0.00000000000000000D+00  0.00000000000000000D+00 -2.76278230205421900D-04
 4 28  4.96651055384130300D-06  2.71311719651579000D-04 -2.38353771044939900D-04  0.00000000000000000D+00  0.00000000000000000D+00
 4 29  1.50223201644111700D-04  2.00675794742950300D-04 -1.02973900740605500D-04  9.04731113961156200D-06  0.00000000000000000D+00
 4 30 -2.16754408723723700D-04  3.61106200301090700D-05 -3.31932738393055500D-05 -2.73549992321902400D-04  0.00000000000000000D+00
 4 31  3.47997565092679500D-04 -3.75868985923916400D-04  3.65370954791322900D-04  2.21924964580061500D-04  0.00000000000000000D+00
 4 32 -2.04469525188438400D-04 -3.51936923058106300D-04 -1.03551787159015600D-04  8.49722147281606000D-05  0.00000000000000000D+00
 5  1  7.41018801939729400D-01  3.69583233752965300D-03 -5.23589842964815700D-03 -4.22027914811569500D-05  6.88422152757725400D-04
 5  2  0.00000000000000000D+00 -1.51805434403195300D-03  1.68274490048247500D-03  0.00000000000000000D+00  5.41704202149735300D-05
 5  3  5.27414825163960500D-04 -5.81585245378786000D-04 -8.90373882295418700D-05  0.00000000000000000D+00  0.00000000000000000D+00
 5  4 -4.25795925765963800D-01 -2.05310505187708000D-03  3.47597706541634800D-03 -3.93306986053386500D-04 -2.07095561483359200D-04
 5  5  0.00000000000000000D+00 -1.98716891603175700D-03  1.06999771744433400D-03  0.00000000000000000D+00 -4.37727794194878500D-04
 5  6 -6.80191925827939000D-05  5.05746986777573900D-04 -3.36908456523549800D-05  0.00000000000000000D+00  0.00000000000000000D+00
 5  7  3.80424831979850900D-03  2.63307247916370500D-05 -1.13550261260962100D-04  1.70499566277157300D-06 -2.68613553012600000D-05
 5  8  0.00000000000000000D+00  6.24182605861359400D-04  6.73421706232068900D-04  0.00000000000000000D+00  5.67719136439877200D-05
 5  9  1.54408475541431500D-04 -2.11180389185566600D-04 -6.90854717446121000D-05  0.00000000000000000D+00  0.00000000000000000D+00
 5 10 -2.03913589490936200D-01 -7.57082044407659300D-04  5.90832427096807000D-04  3.96418570609152800D-05 -1.97779090423739100D-06
 5 11  0.00000000000000000D+00  6.81645702511619900D-04 -5.45724320596465200D-04  0.00000000000000000D+00  1.19216206224083400D-04
 5 12 -1.26389651926117600D-04  7.17344570204121300D-06 -1.25362927747202300D-04  0.00000000000000000D+00  0.00000000000000000D+00
 5 13 -4.82587641417883200D-01 -2.09274470695424900D-03  5.05014719716802300D-03 -6.74480109339988300D-05  8.00342018927164000D-05
 5 14  0.00000000000000000D+00  9.85338383058575400D-04  8.07862582256136900D-04  0.00000000000000000D+00 -7.01817667152400100D-06
 5 15 -1.07510671848048800D-04  1.14528848519432000D-04 -6.03410224527741700D-05  0.00000000000000000D+00  0.00000000000000000D+00
 5 16  9.17125553565780900D-03  3.02214661496160200D-04 -1.70380017147682000D-03  2.18238936449498900D-05 -3.41781135738049300D-05
 5 17  0.00000000000000000D+00 -3.62370447338848600D-04  7.77069803289106700D-04  0.00000000000000000D+00 -1.69581402863824800D-04
 5 18  2.21358384251012100D-05  1.47445564438595400D-04 -1.24823686632571400D-04  0.00000000000000000D+00  0.00000000000000000D+00
 5 19 -6.04451009759907100D-05  7.18782349779172900D-04 -1.88804573714716300D-03  1.84869719866334800D-04 -1.70332805117447600D-05
 5 20 -3.70648839795581600D-04  0.00000000000000000D+00  2.70980377655566400D-04  1.63676251871987100D-03  0.00000000000000000D+00
 5 21  9.22034720019920800D-05 -3.90199340478549600D-04  0.00000000000000000D+00 -9.85378072753521900D-05  2.20007857434423100D-04
 5 22 -1.21470050159029500D-04  5.51981171207830200D-06  0.00000000000000000D+00  0.00000000000000000D+00  2.36139998421491900D-04
 5 23 -8.78725734664801800D-04  6.42585736243320000D-04 -1.03985090970207900D-04  0.00000000000000000D+00  0.00000000000000000D+00
 5 24 -2.92368047637544500D-05 -4.18720831342535600D-04  1.11998690019249300D-03 -1.36939356026498200D-04  1.78291519963010500D-04
 5 25  1.12891898803900700D-04  0.00000000000000000D+00 -6.69580708493644900D-04 -7.67030499864019200D-04  0.00000000000000000D+00
 5 26  2.20126876734936100D-04  6.08018473770392800D-05  0.00000000000000000D+00 -7.88017972193019600D-05  1.71989022805934500D-05
 5 27  6.16028949387701800D-05 -8.89486579519709400D-05  0.00000000000000000D+00  0.00000000000000000D+00  2.80526118403207300D-04
 5 28  1.14674785073879800D-04 -3.95200903477076900D-04  3.89160447959065400D-04  0.00000000000000000D+00  0.00000000000000000D+00
 5 29 -1.05441221249754100D-04 -4.35952337967098600D-05  6.77076226353729100D-05 -5.11798067865277100D-05  0.00000000000000000D+00
 5 30  7.98027153120857300D-05 -4.00547995692600600D-04 -2.58400255906185000D-05  1.06255366457759600D-04  0.00000000000000000D+00
 5 31  1.69330022259434400D-04 -2.44187080832591400D-04  1.70418815085451700D-04  7.62515041161846100D-05  0.00000000000000000D+00
 5 32  2.42825512987866100D-06 -2.43351251330746300D-04 -5.82045952850153600D-06 -3.23886490084682800D-05  0.00000000000000000D+00
 6  1  5.06405818467040400D-01  2.41752615183225700D-03 -3.52140748949717800D-03  3.67286427306911300D-05  4.44341055197514500D-04
 6  2  0.00000000000000000D+00 -5.34073975766363000D-04  4.17243233080042500D-04  0.00000000000000000D+00 -8.55523171225055800D-07
 6  3  3.62196648128655000D-04 -3.61341124957213000D-04  1.12182426728301300D-04  0.00000000000000000D+00  0.00000000000000000D+00
 6  4  1.04751311138354600D-01  4.61867560378546900D-04 -1.08392610413238600D-03  7.38554204961086900D-06  5.94506195150880600D-05
 6  5  0.00000000000000000D+00 -7.82322278738287000D-04  5.52497650774361600D-04  0.00000000000000000D+00 -1.51537382713097200D-04
 6  6  1.47357077546385200D-04  4.18030516670495200D-06  1.95267266348132000D-04  0.00000000000000000D+00  0.00000000000000000D+00
 6  7 -1.48834300308427100D-02 -5.01609308806774500D-04  3.27794224981986300D-03  6.60575425862370200D-05 -2.25685979745359300D-05
 6  8  0.00000000000000000D+00 -1.54898854111784700D-03  1.06909705762692700D-04  0.00000000000000000D+00 -4.03413165594267300D-05
 6  9 -1.16530538117398000D-04  1.56871854676974600D-04  9.60368720331384900D-05  0.00000000000000000D+00  0.00000000000000000D+00
 6 10  7.82001349991662800D-01  3.16876365978817600D-03 -7.32656587185994300D-03 -2.00431389254787000D-04 -4.65488311377033500D-05
 6 11  0.00000000000000000D+00 -3.43559118543560300D-04 -1.31851048697379700D-03  0.00000000000000000D+00  5.48313926487476400D-05
 6 12  2.92292985337693800D-04 -3.47124377986484800D-04  1.53183034454348400D-04  0.00000000000000000D+00  0.00000000000000000D+00
 6 13  3.53424562739447800D-01  1.23062274357811400D-03 -1.52332714811940300D-03 -1.71021431383420700D-05 -1.02941173873881100D-04
 6 14  0.00000000000000000D+00  8.59495926086559100D-04 -5.02647749047499500D-04  0.00000000000000000D+00 -4.79037157760153500D-05
 6 15  6.68391666922421600D-05 -1.89354509162816200D-05  2.85010667041517300D-04  0.00000000000000000D+00  0.00000000000000000D+00
 6 16 -6.65561299637798100D-03 -2.50636301597104300D-04  1.29207133481050300D-03 -4.62201423348149700D-05  2.59797515497153400D-05
 6 17  0.00000000000000000D+00  7.33318020267785900D-05 -8.51949700898477800D-04  0.00000000000000000D+00 -2.14055149554959200D-04
 6 18  5.96669167059906200D-05  1.54388232849253200D-04 -4.08394798384526400D-05  0.00000000000000000D+00  0.00000000000000000D+00
 6 19 -2.59188238140606900D-05  3.50923612771075800D-04 -8.23801794393713900D-04  7.00345555572111500D-04 -1.42637908529027600D-05
 6 20 -2.22088481871478300D-04  0.00000000000000000D+00  3.16007697846016300D-06  8.19863463594300600D-04  0.00000000000000000D+00
 6 21 -2.73638400135197600D-05 -5.79729822170548000D-04  0.00000000000000000D+00 -8.55813777576406200D-05  1.51968033381157500D-04
 6 22 -6.63866556235137400D-05  1.51686975990467000D-05  0.00000000000000000D+00  0.00000000000000000D+00  2.09688010048348400D-04
 6 23 -5.34562642334614000D-04  3.24874632286361900D-04  1.56680160100774200D-05  0.00000000000000000D+00  0.00000000000000000D+00
 6 24 -8.18362512820716000D-06 -5.48762713698082800D-05  2.37678647875173900D-04  7.22632564939946300D-04 -1.12318549529454600D-05
 6 25 -9.01778420308435800D-06  0.00000000000000000D+00  1.30081585629883800D-05 -2.96588458423739300D-04  0.00000000000000000D+00
 6 26 -3.43059001077970800D-04 -2.95851326116830800D-04  0.00000000000000000D+00  3.80547213475886900D-06 -4.66058750434852800D-06
 6 27  8.55115369682141700D-07  3.93159990213388500D-05  0.00000000000000000D+00  0.00000000000000000D+00 -9.45239447235476600D-05
 6 28  1.46581561025745500D-04 -5.20576163021925400D-05  7.09374793357456600D-06  0.00000000000000000D+00  0.00000000000000000D+00
 6 29  1.27965491903908100D-04  2.54907836839666500D-04 -8.99602423570846400D-05  4.01218614052305200D-05  0.00000000000000000D+00
 6 30 -3.24483824284028100D-04  6.55126624323906600D-04  2.63753130491796300D-05 -3.65992875021165600D-04  0.00000000000000000D+00
 6 31 -1.46660662737406000D-04  6.27166404873038900D-04 -1.58312086354059500D-04 -4.55042818422776300D-05  0.00000000000000000D+00
 6 32  9.16800193938804000D-05  2.94225998409732000D-05  7.35593563192145400D-05 -4.68565628912537000D-05  0.00000000000000000D+00
 7  1 -3.71559896602530800D-04 -5.47888265295680200D-04 -2.31418648079671200D-03 -3.77019233419161700D-05 -1.21696429145302800D-04
 7  2  0.00000000000000000D+00  8.84327032893240900D-04 -1.63557569161536400D-03  0.00000000000000000D+00 -1.71681947467982200D-04
 7  3  4.21598527855675600D-04 -2.49916580387678200D-04  1.42883767129806300D-04  0.00000000000000000D+00  0.00000000000000000D+00
 7  4  4.21655686444166600D-04  5.48181996899067700D-04  2.31454357927157100D-03  8.66818568645106800D-05  9.36064181233154700D-05
 7  5  0.00000000000000000D+00  1.85932568974198200D-03  5.26677765194903700D-05  0.00000000000000000D+00 -1.66068398486854700D-04
 7  6 -8.38215188157943400D-05  2.49889917302766200D-04 -3.68085452978946800D-04  0.00000000000000000D+00  0.00000000000000000D+00
 7  7  5.01007953458016900D-01  2.25959146676792000D-03 -5.00399366715242000D-03 -3.30320079632352200D-05  9.59391909900031000D-05
 7  8  0.00000000000000000D+00  4.25196040289605100D-04 -9.54078910153966200D-04  0.00000000000000000D+00  3.06270878597611000D-04
 7  9 -4.40846689959886000D-05 -2.62186209601799200D-04 -2.54589506767970600D-04  0.00000000000000000D+00  0.00000000000000000D+00
 7 10  9.21288975277384700D-03 -1.67750201187092100D-04  1.68879341481107000D-03 -4.50690232138427500D-05 -3.58972366432382700D-06
 7 11  0.00000000000000000D+00  3.29496847567044600D-04  1.17215667802185300D-03  0.00000000000000000D+00  6.34675764167938500D-05
 7 12 -2.31348451032722700D-04  1.67880874616126000D-04 -2.10477486279636100D-05  0.00000000000000000D+00  0.00000000000000000D+00
 7 13 -9.25397470165113800D-03  1.66561927173424400D-04 -1.68956721439673600D-03 -1.98961629189560400D-05  4.15143585260984400D-05
 7 14  0.00000000000000000D+00 -8.50478777645264200D-04 -8.71358765102337400D-04  0.00000000000000000D+00  1.41801758597026600D-04
 7 15  2.60488553491650600D-05 -1.67850613946301900D-04  1.57992904025901300D-04  0.00000000000000000D+00  0.00000000000000000D+00
 7 16 -5.01086540616406600D-01 -2.26013493128697700D-03  5.00496957237414300D-03 -9.96914974941129100D-05 -1.94289823243036500D-05
 7 17  0.00000000000000000D+00  1.03931458239840900D-03  1.08655938354897300D-04  0.00000000000000000D+00 -2.34477708975197700D-04
 7 18 -2.77478396577286000D-05  2.62225548632944500D-04  3.02424598133055400D-04  0.00000000000000000D+00  0.00000000000000000D+00
 7 19 -5.00654985715321400D-01 -1.10649528221938900D-03  3.90305804499722900D-03 -1.28670472811957100D-04  2.12229398549063500D-05
 7 20  9.14896102394201700D-04  0.00000000000000000D+00 -1.96639977149015100D-04 -1.33938587306662300D-03  0.00000000000000000D+00
 7 21 -9.26355731858076100D-05  2.25210999787373500D-04  0.00000000000000000D+00 -4.84066442745173900D-06 -1.46648343578396400D-04
 7 22  1.51489008006010900D-04 -4.82473667684816500D-06  0.00000000000000000D+00  0.00000000000000000D+00 -2.37920813773934200D-04
 7 23  3.21347854914393200D-04 -8.34270411403472700D-05  8.09658547399352000D-05  0.00000000000000000D+00  0.00000000000000000D+00
 7 24  5.00813651934615200D-01  1.10677932598677200D-03 -3.90474533398421900D-03  1.28323978499600400D-04 -7.81993108255794000D-04
 7 25 -4.76102664807649000D-04  0.00000000000000000D+00  1.06210995795651300D-03  8.40374976431761500D-04  0.00000000000000000D+00
 7 26 -2.41263243652835500D-04 -3.23458634030448400D-05  0.00000000000000000D+00  1.07607606028682800D-04  4.39370617187440200D-05
 7 27 -1.51544667747436900D-04  7.33539290941868500D-05  0.00000000000000000D+00  0.00000000000000000D+00 -1.20902941357158300D-04
 7 28  3.73550158737669100D-05  8.35479254833895800D-05 -3.20277044787977000D-04  0.00000000000000000D+00  0.00000000000000000D+00
 7 29 -2.92707303166618200D-04  3.37764026704219500D-04  2.79844560851619100D-04 -1.66788111932108300D-04  0.00000000000000000D+00
 7 30  1.95438196299952500D-04  3.40620452853574800D-04  1.35678352230266200D-05  9.82024747224537600D-05  0.00000000000000000D+00
 7 31 -1.95924697698701000D-04 -3.40716857541114100D-04 -7.83160391994000100D-05 -6.08820630534584500D-05  0.00000000000000000D+00
 7 32  2.92633444025717700D-04 -3.37697581031658200D-04  2.84395036915518600D-04 -1.58934023954977100D-04  0.00000000000000000D+00
 8  1 -4.74119445693480600D-04 -4.76681026578863700D-04 -2.22359371477250800D-03  4.81876518450928100D-05 -3.09873873266611000D-04
 8  2  0.00000000000000000D+00 -4.97081135520656000D-04 -3.18435189933910300D-03  0.00000000000000000D+00 -1.35676911210052400D-04
 8  3 -2.56543698662039200D-06  1.38242348196440000D-04 -1.17845154601342200D-04  0.00000000000000000D+00  0.00000000000000000D+00
 8  4 -4.43501267402567300D-04 -4.76410979398818600D-04 -2.22337795187502500D-03 -2.92393354621445200D-04 -1.13205869157876900D-04
 8  5  0.00000000000000000D+00 -2.50838141747281900D-03 -2.02302681628279600D-03  0.00000000000000000D+00  5.25334558750788000D-05
 8  6 -1.90796317303703900D-04  1.38262861428514300D-04  7.59884289804074400D-06  0.00000000000000000D+00  0.00000000000000000D+00
 8  7  5.01179870134209700D-01  2.43148003345579500D-03 -5.70233091442042200D-03 -8.25564013773967200D-05  1.78570440783940500D-04
 8  8  0.00000000000000000D+00  1.87760760939460200D-03 -9.23177063207914000D-04  0.00000000000000000D+00  1.52414767034422400D-04
 8  9  6.07967122019360500D-05 -2.13211479236293900D-04  1.21379193627777500D-04  0.00000000000000000D+00  0.00000000000000000D+00
 8 10  9.14920405556006500D-03 -9.56043209237602200D-05  1.78770199357638700D-03 -2.61149634411396300D-05  2.26368364315853800D-05
 8 11  0.00000000000000000D+00  5.60575909609887000D-04  5.49781144310362300D-04  0.00000000000000000D+00 -1.17453377233300500D-04
 8 12 -2.82566818140326900D-05  1.45710059047269000D-04 -5.17829345726935300D-05  0.00000000000000000D+00  0.00000000000000000D+00
 8 13  9.13429477676747400D-03 -9.57254713862204900D-05  1.78736098433915900D-03  3.27001166062204300D-05 -1.13197374131243600D-05
 8 14  0.00000000000000000D+00  1.95528591886937400D-04  7.60174584966870500D-04  0.00000000000000000D+00 -1.17220408785204900D-05
 8 15 -1.33970830639193400D-04  1.45692871517688500D-04  1.87563973998230500D-05  0.00000000000000000D+00  0.00000000000000000D+00
 8 16  5.01057451666475100D-01  2.43090575932070500D-03 -5.70118304179312500D-03  1.95891445351356900D-04  1.78453431882103800D-05
 8 17  0.00000000000000000D+00 -1.73818072959512100D-03  1.16440568108851900D-03  0.00000000000000000D+00 -7.38653021512155000D-06
 8 18  2.20558741720855900D-04 -2.13172211505905000D-04  1.49312207792636700D-05  0.00000000000000000D+00  0.00000000000000000D+00
 8 19 -5.00897343117467300D-01 -1.26224074118657500D-03  4.81451094290320900D-03  1.61209811892090600D-03 -8.95412841994759100D-07
 8 20  8.93634221871019700D-04  0.00000000000000000D+00  1.99064164263492900D-04 -2.10544791768050600D-03  0.00000000000000000D+00
 8 21 -3.72373288277268400D-05 -7.32477907397797100D-04  0.00000000000000000D+00 -3.30784268533715300D-05 -1.06011645501458700D-04
 8 22  1.39090072354900800D-04  1.31798409137881500D-05  0.00000000000000000D+00  0.00000000000000000D+00 -2.22717429615092600D-04
 8 23  5.52661129252294500D-04 -3.29943699637139700D-04 -1.15181647744987500D-04  0.00000000000000000D+00  0.00000000000000000D+00
 8 24 -5.00782040112330900D-01 -1.26193770185946400D-03  4.81360971410575500D-03  1.61218827773822000D-03  7.74148304283368000D-04
 8 25  4.46021051345220900D-04  0.00000000000000000D+00 -1.92251689847025900D-03 -8.80267709843596500D-04  0.00000000000000000D+00
 8 26 -6.15775493108874300D-04 -3.98568972686321600D-04  0.00000000000000000D+00 -9.76328458423383400D-05 -4.14206220459577100D-05
 8 27  1.39053467888283300D-04 -2.98650534066048600D-05  0.00000000000000000D+00  0.00000000000000000D+00  4.45099184781181000D-04
 8 28 -1.15201669280888000D-04 -3.29897515500303800D-04  3.30062062009841800D-04  0.00000000000000000D+00  0.00000000000000000D+00
 8 29 -2.00748096047594000D-04 -2.47262391673908200D-04  1.54248020316748900D-04 -1.08635202771554900D-04  0.00000000000000000D+00
 8 30 -8.40423256033573100D-07  1.64554819071467600D-04 -7.83656770801574700D-06  4.39042305499818200D-05  0.00000000000000000D+00
 8 31 -9.38311706703983400D-07  1.64434913354315600D-04  4.19240688064757800D-05  1.51678318797845000D-05  0.00000000000000000D+00
 8 32 -2.00678478438126400D-04 -2.47347737727975900D-04 -1.71156779016076600D-04  7.92120430243328800D-05  0.00000000000000000D+00
 9  1  3.84252825502352300D-03 -6.57596134873936800D-02 -5.61002531472180200D-02  7.42715653046575400D-03  2.74053435113359000D-02
 9  2  0.00000000000000000D+00  9.96538567748564900D-03  7.81205382566846000D-03  0.00000000000000000D+00 -2.27469634829032100D-03
 9  3 -3.48325956035428800D-03  5.75795590864467900D-03 -7.88604366862395500D-04  0.00000000000000000D+00  0.00000000000000000D+00
 9  4  3.84257551161160800D-03 -6.57593355151660000D-02 -5.60991460923877500D-02  2.00181588944551300D-02  2.01369842389301300D-02
 9  5  0.00000000000000000D+00  1.78037140208967000D-03  1.25357166978774300D-02  0.00000000000000000D+00 -2.58948650288442700D-03
 9  6 -3.16843092984984400D-03  5.75791743273422300D-03 -9.98497430186679100D-04  0.00000000000000000D+00  0.00000000000000000D+00
 9  7  6.75277129977349400D-03 -8.27877968033166600D-02 -3.75480259776694800D-02  7.35209203512514000D-03 -9.86686133904848700D-03
 9  8  0.00000000000000000D+00 -6.25239043848011300D-03  1.34701296793896900D-02  0.00000000000000000D+00 -5.53958658288251700D-03
 9  9  1.24535915147280400D-03  4.29422743140973400D-03 -2.74745115173197000D-03  0.00000000000000000D+00  0.00000000000000000D+00
 9 10  1.51665630611250900D-02 -2.59859130465569500D-01 -1.58298323060413600D-01  1.40448964912453800D-01 -4.88651752530158500D-03
 9 11  0.00000000000000000D+00  5.62463808574234800D-02 -5.43505948216218400D-03  0.00000000000000000D+00 -1.58914780161196900D-02
 9 12  2.79278974311698700D-03  1.30986882730027900D-02  1.00548046633539000D-02  0.00000000000000000D+00  0.00000000000000000D+00
 9 13  1.51667223529445100D-02 -2.59859009028644700D-01 -1.58297796674059900D-01 -7.44664960511075300D-02  1.19182256928654400D-01
 9 14  0.00000000000000000D+00 -3.28334529713793100D-02  4.59929336713743400D-02  0.00000000000000000D+00 -9.42136877195881200D-03
 9 15 -3.67731549580016100D-03  1.30986842677592700D-02  1.43692425272609700D-02  0.00000000000000000D+00  0.00000000000000000D+00
 9 16  6.75297403094609100D-03 -8.27881970632461100D-02 -3.75492709020460200D-02 -1.22214250821246200D-02  1.43353100551559100D-03
 9 17  0.00000000000000000D+00  1.47922326191637200D-02  1.32275469653879700D-03  0.00000000000000000D+00  1.60936339709744900D-03
 9 18 -5.90350127038738400D-03  4.29413787328999100D-03  2.01973956085238300D-03  0.00000000000000000D+00  0.00000000000000000D+00
 9 19  8.47621784328991500D-04 -8.87081227893651300D-02 -8.80507917078352500D-02 -1.93211235598862000D-03 -8.82649320162511800D-04
 9 20 -2.31282681134630900D-02  0.00000000000000000D+00 -2.91591964498246500D-03 -2.22901461124162500D-02  0.00000000000000000D+00
 9 21 -6.07290007840529400D-04 -5.90630114916001300D-03  0.00000000000000000D+00  3.68290955825048300D-04 -9.13359801443366400D-04
 9 22  5.45068845618287300D-04 -1.03008594445569600D-04  0.00000000000000000D+00  0.00000000000000000D+00 -7.43492360439755400D-04
 9 23  1.46367906330966900D-03 -7.20186702869885000D-04  3.72915034143661100D-04  0.00000000000000000D+00  0.00000000000000000D+00
 9 24  8.43975191046144700D-04 -8.87096997775374700D-02 -8.80519834002108200D-02 -1.93169913654193300D-03 -1.95884404187211000D-02
 9 25 -1.23313542470162200D-02  0.00000000000000000D+00 -1.78455068878878600D-02 -1.36727985936840900D-02  0.00000000000000000D+00
 9 26 -4.81128867850450600D-03 -3.47965679622716900D-03  0.00000000000000000D+00 -5.15535815011432600D-04 -2.95112650779365700D-05
 9 27  5.45047080089340900D-04 -6.92344249128723800D-04  0.00000000000000000D+00  0.00000000000000000D+00  6.32006294704608900D-04
 9 28  8.81839829816430600D-05 -7.20190277686248000D-04  1.29012414974258500D-03  0.00000000000000000D+00  0.00000000000000000D+00
 9 29 -3.98090909626427500D-02 -8.29583222877048000D-03  4.15791764815525200D-03 -2.62427931063477800D-03  0.00000000000000000D+00
 9 30 -1.33064231016613400D-01 -1.58477720871223400D-02  2.48137309349818700D-03 -1.77709297613614300D-02  0.00000000000000000D+00
 9 31 -1.33063697813026200D-01 -1.58475970494197000D-02 -1.66301090889732300D-02 -6.73819160865909500D-03  0.00000000000000000D+00
 9 32 -3.98082572603300800D-02 -8.29570147835170500D-03 -4.35187018913924000D-03  2.28821537558628300D-03  0.00000000000000000D+00
10  1 -6.65516112543167500D-03 -5.23388640964819400D-02 -6.45245212546005800D-02  1.72304221705769100D-04 -6.36754165968579600D-02
10  2  0.00000000000000000D+00 -7.23052666782537200D-03 -4.11049983667304500D-02  0.00000000000000000D+00 -3.99836555314976700D-06
10  3 -4.24134631611018100D-04  4.28132997164131100D-04  3.63946899936668300D-03  0.00000000000000000D+00  0.00000000000000000D+00
10  4  6.65657762601444600D-03  5.23245588735696800D-02  6.45195838099204600D-02  5.52349939962532300D-02  3.16989922704927000D-02
10  5  0.00000000000000000D+00  3.19839642471974100D-02  2.68183845910452900D-02  0.00000000000000000D+00  3.04812744812242200D-03
10  6 -2.62132348779661500D-03 -4.26803960325769700D-04 -1.60960391360072900D-03  0.00000000000000000D+00  0.00000000000000000D+00
10  7  1.73144610329251700D-04 -2.08031814896420400D-02 -9.17300279237876800D-03  2.14504094510376000D-02 -2.27437675718951100D-03
10  8  0.00000000000000000D+00  1.91874449580756700D-03 -6.02677969104191200D-03  0.00000000000000000D+00 -1.63973097090095800D-03
10  9  1.60028914378084500D-03  3.94418271201590700D-05  8.76578252179338500D-04  0.00000000000000000D+00  0.00000000000000000D+00
10 10  3.42142860830269800D-04  6.54350570774846300D-04 -2.31149638417231400D-03 -1.41985675013291300D-02 -2.79398812414204000D-02
10 11  0.00000000000000000D+00 -6.09827421067572400D-03 -1.27294814893924500D-02  0.00000000000000000D+00 -2.05872106563636500D-03
10 12  1.55197545328084100D-03  5.06745612355655400D-04 -2.43040447445661700D-03  0.00000000000000000D+00  0.00000000000000000D+00
10 13 -3.42929183262563900D-04 -6.38913469773936300D-04  2.32364580230999000D-03  1.71099300493445100D-02  2.62425538353883300D-02
10 14  0.00000000000000000D+00  7.98168457313032900D-03  1.16393977930696800D-02  0.00000000000000000D+00 -2.47033889157659100D-03
10 15  2.97781873594829000D-03 -5.07479844371697200D-04 -5.92707378209213900D-04  0.00000000000000000D+00  0.00000000000000000D+00
10 16 -1.72274626985346400D-04  2.07840251864824300D-02  9.15765364579908800D-03  1.26945012104864600D-02 -1.74350506174070800D-02
10 17  0.00000000000000000D+00  6.17495350018826100D-03  1.35364373787946900D-03  0.00000000000000000D+00 -1.33125430970091300D-04
10 18  1.71916756461181400D-04 -3.87913254912012700D-05 -2.05983233311529100D-03  0.00000000000000000D+00  0.00000000000000000D+00
10 19 -3.19727756546004100D-03  2.96933544884597200D-01  3.86440276933158400D-01  6.23595920597904500D-02  1.68280331616787700D-02
10 20  2.36875564139214200D-01  0.00000000000000000D+00  1.00764967951855300D-02  1.32915273745727900D-01  0.00000000000000000D+00
10 21  3.58251048931956100D-03  3.51822133667400500D-03  0.00000000000000000D+00  4.11795482775845900D-03 -6.81148517334669200D-03
10 22  2.69353034558827100D-03 -4.89663248048577700D-04  0.00000000000000000D+00  0.00000000000000000D+00  2.07363628261278800D-03
10 23 -4.54376017845915000D-03  2.47012389584649900D-03 -3.28268532250070900D-04  0.00000000000000000D+00  0.00000000000000000D+00
10 24  3.19779276841717800D-03 -2.96964948442086800D-01 -3.86478044063439600D-01 -6.23630048919706700D-02 -1.96725467966340400D-01
10 25 -1.33040272019235400D-01  0.00000000000000000D+00 -1.10070312017933200D-01 -7.52006632215779000D-02  0.00000000000000000D+00
10 26 -1.25633101712020200D-03 -4.86232063818181500D-03  0.00000000000000000D+00  3.71087724294779700D-03 -1.01734781064554200D-03
10 27 -2.69352943230223900D-03  5.71024551447554300D-03  0.00000000000000000D+00  0.00000000000000000D+00  2.64286963628553600D-03
10 28 -1.72458130433008500D-04 -2.47041150585252700D-03  3.47344242903031100D-03  0.00000000000000000D+00  0.00000000000000000D+00
10 29  1.31315637109629400D-03  2.59344783261957100D-03  4.56330648089758800D-04  1.05258335836350000D-04  0.00000000000000000D+00
10 30  2.42215306192451300D-02  6.58688701652041800D-03 -3.26977748647589000D-04  1.81924226438199100D-03  0.00000000000000000D+00
10 31 -2.42139559095293000D-02 -6.58651553491190200D-03 -1.73765791228824400D-03 -6.26577809759115900D-04  0.00000000000000000D+00
10 32 -1.32011975281506200D-03 -2.59389456799714600D-03  1.35985115490188400D-04 -4.47250055855883500D-04  0.00000000000000000D+00
11  1 -8.46373434177671200D-03  1.29171109765561800D-01  5.48155950200468300D-02 -2.71194266759209400D-03 -5.15749361692489500D-02
11  2  0.00000000000000000D+00  7.44493259901026300D-03 -2.66320591260948900D-02  0.00000000000000000D+00  1.19928366109252000D-03
11  3  9.85784895901712500D-03 -1.10571326201096100D-02  7.05269200549899300D-04  0.00000000000000000D+00  0.00000000000000000D+00
11  4 -8.46288982409668400D-03  1.29179044461376800D-01  5.48247440631066100D-02 -4.32980599357501400D-02 -2.81359522150288700D-02
11  5  0.00000000000000000D+00 -2.67789118892585700D-02 -6.86823062949259400D-03  0.00000000000000000D+00  7.16379145465681000D-03
11  6  3.89343092450040900D-03 -1.10572223791572400D-02  4.68225299294461200D-03  0.00000000000000000D+00  0.00000000000000000D+00
11  7 -7.64208027912418500D-03  1.55338938055696900D-01  1.13424310716541700D-01 -3.53116952353538400D-02  2.98266356510721600D-03
11  8  0.00000000000000000D+00 -2.30511237888322100D-02  1.46116626925280100D-02  0.00000000000000000D+00 -6.75426583331631800D-03
11  9  1.19633109846832400D-02 -5.20904515136696200D-03  4.43729579501856000D-03  0.00000000000000000D+00  0.00000000000000000D+00
11 10  3.61338234773518100D-03 -8.86278408014891100D-02 -7.62749191419894400D-02  2.25387507154133900D-01 -8.42086937020035100D-03
11 11  0.00000000000000000D+00  7.70297387969087200D-02 -2.50561538040731500D-02  0.00000000000000000D+00 -7.82060815315256700D-03
11 12  3.21308582982419600D-03  4.60752232332836100D-03  1.73721927443593500D-02  0.00000000000000000D+00  0.00000000000000000D+00
11 13  3.61405663803631300D-03 -8.86383701525575000D-02 -7.62889409375238800D-02 -1.19993847124904500D-01  1.90973923929353800D-01
11 14  0.00000000000000000D+00 -6.02188405063511200D-02  5.41762818822908300D-02  0.00000000000000000D+00 -1.25768422223720400D-02
11 15  7.96897064171179200D-03  4.60787158066049700D-03  1.41999941871380500D-02  0.00000000000000000D+00  0.00000000000000000D+00
11 16 -7.64188623564702800D-03  1.55336741013600400D-01  1.13423559917137400D-01  2.02442447678761500D-02 -2.90844014515176700D-02
11 17  0.00000000000000000D+00  2.41823140109324900D-02 -1.26507572564071800D-02  0.00000000000000000D+00  3.95397546607282100D-03
11 18  1.25488923393144800D-03 -5.20886470000437700D-03  1.15773018669238800D-02  0.00000000000000000D+00  0.00000000000000000D+00
11 19 -3.43485023750941900D-03  1.87382388806250800D-01  2.07873416517713600D-01  1.16230450676145300D-02  5.10135016433271600D-03
11 20  4.69241984139973400D-02  0.00000000000000000D+00  1.71533573285972900D-03  3.82109458883142900D-02  0.00000000000000000D+00
11 21 -5.96813398380753600D-04  9.23973246778927300D-03  0.00000000000000000D+00 -7.69566455615267300D-04  1.99277950067118900D-03
11 22 -1.22321304505579500D-03 -1.79917615357352100D-04  0.00000000000000000D+00  0.00000000000000000D+00  4.93588136329039700D-04
11 23 -2.70652057205316100D-03  2.21293243572403900D-03  2.17798442473183500D-04  0.00000000000000000D+00  0.00000000000000000D+00
11 24 -3.43551400812181800D-03  1.87339535334272600D-01  2.07816603601908700D-01  1.16131579841859800D-02  3.80559188443811100D-02
11 25  2.78648951542920800D-02  0.00000000000000000D+00  3.22166570412813600D-02  2.05840216377688500D-02  0.00000000000000000D+00
11 26  8.29999832436521100D-03  4.10313189619608600D-03  0.00000000000000000D+00  1.43743551799464600D-03 -2.13834365885018800D-04
11 27 -1.22360115210952900D-03  1.29224711583611300D-03  0.00000000000000000D+00  0.00000000000000000D+00 -2.06924313840947800D-03
11 28 -1.43397634930992700D-04  2.21264077334047300D-03 -1.49098270463068200D-03  0.00000000000000000D+00  0.00000000000000000D+00
11 29  5.27809318605299100D-02  2.48312553451310000D-03 -8.17416836624099100D-03  4.97497678142355300D-03  0.00000000000000000D+00
11 30 -3.76729408336533700D-02 -1.60759277950037900D-04  4.69230814443405900D-03 -6.11458262975423800D-03  0.00000000000000000D+00
11 31 -3.76877818336697000D-02 -1.65133653479329300D-04 -7.64269156322643300D-03  1.00492272323801100D-03  0.00000000000000000D+00
11 32  5.27797274679105400D-02  2.48298645327926400D-03  8.39589188195356000D-03 -4.59055841026750000D-03  0.00000000000000000D+00
12  1  1.53074038253040300D-03 -1.35286570905192700D-02 -1.79825197653062500D-02  3.10524188548932800D-03 -2.64240375417220300D-03
12  2  0.00000000000000000D+00  1.43421409826385800D-03  2.25849018915154900D-03  0.00000000000000000D+00  3.72861843102742800D-03
12  3 -5.84043749416092300D-03  2.11181906313345300D-03 -5.87329459606010500D-03  0.00000000000000000D+00  0.00000000000000000D+00
12  4 -1.53034899013439100D-03  1.35234336353907300D-02  1.79794542017098400D-02  3.84191204150496900D-03 -1.36720820733129500D-03
12  5  0.00000000000000000D+00 -1.23760789829497200D-03 -2.37087926681065000D-03  0.00000000000000000D+00 -9.58398817805841100D-04
12  6  3.06963168242698600D-03 -2.11123286462117800D-03  7.72041367966183200D-03  0.00000000000000000D+00  0.00000000000000000D+00
12  7 -1.05385404185295500D-02  1.27230916660115400D-01  4.74069231595893700D-02 -1.10557195765819100D-01 -7.20004575247200400D-02
12  8  0.00000000000000000D+00 -2.69429950785330500D-02 -2.05056840723210500D-02  0.00000000000000000D+00  4.71767506889318800D-03
12  9  1.16474169085160600D-03 -5.88241675974478000D-03  1.62736491440334200D-02  0.00000000000000000D+00  0.00000000000000000D+00
12 10 -1.37482969208541500D-02  2.40256280574338600D-01  2.09387945165552100D-01  1.17001808987616900D-01 -8.23675654908912900D-02
12 11  0.00000000000000000D+00  2.89167502215859700D-02 -4.54011236732067000D-04  0.00000000000000000D+00 -2.68515402014012400D-03
12 12  6.74674467972342500D-03 -4.06159065958326900D-03  1.60837667231729000D-02  0.00000000000000000D+00  0.00000000000000000D+00
12 13  1.37486853532567000D-02 -2.40253248885188500D-01 -2.09384947387990900D-01  1.29843364803098300D-01 -6.01452794145966400D-02
12 14  0.00000000000000000D+00  1.48565546090925000D-02 -2.48166471236834800D-02  0.00000000000000000D+00  7.67688259650737000D-03
12 15 -1.17383646526990700D-02  4.06148205619180500D-03 -1.27559701094834900D-02  0.00000000000000000D+00  0.00000000000000000D+00
12 16  1.05395668772744100D-02 -1.27244201735042500D-01 -4.74119869243215100D-02  7.06335336754536000D-03  1.31752424912311800D-01
12 17  0.00000000000000000D+00  4.28388174002998300D-03  3.35865483441944800D-02  0.00000000000000000D+00  1.01536700263244300D-02
12 18 -1.60363704664991300D-02  5.88270044017463900D-03 -6.35764992068362600D-03  0.00000000000000000D+00  0.00000000000000000D+00
12 19  2.50381618342203300D-04 -6.98410337404995000D-03 -3.04526791015214300D-03  3.77840081536394900D-03  7.88569505830516200D-04
12 20  1.27993668546394900D-02  0.00000000000000000D+00  2.38899387395819200D-03  4.10869292280037100D-03  0.00000000000000000D+00
12 21  3.27215598473118600D-03 -5.34136650357915500D-04  0.00000000000000000D+00  3.53243494935513000D-04 -6.67321394800749400D-04
12 22  3.14077899865287400D-04 -2.57672404200636900D-04  0.00000000000000000D+00  0.00000000000000000D+00 -5.70175610882949200D-04
12 23  1.15611464907975500D-03 -5.85939038196818900D-04 -1.22621322298550800D-03  0.00000000000000000D+00  0.00000000000000000D+00
12 24 -2.49889767110408500D-04  6.97977788328780000D-03  3.04077163343716500D-03 -3.77823193160892100D-03 -1.06886886215789900D-02
12 25 -7.08338855310796400D-03  0.00000000000000000D+00 -2.36309554927637000D-03 -4.12360960513843400D-03  0.00000000000000000D+00
12 26  2.09869592234821500D-03 -2.56675163767671500D-03  0.00000000000000000D+00  2.18714969736383400D-04  9.52795118345194200D-05
12 27 -3.13994481570778900D-04  6.39020323606750000D-04  0.00000000000000000D+00  0.00000000000000000D+00 -1.64411418736306500D-03
12 28  1.05827722000189800D-03  5.85836967361163800D-04 -2.50309823188192100D-04  0.00000000000000000D+00  0.00000000000000000D+00
12 29  1.38138135111854500D-02 -1.22874603582057700D-02 -6.27246303149035900D-03  1.58471483484169100D-03  0.00000000000000000D+00
12 30  1.96459657070280800D-01  4.85145898811802600D-02  2.95887487138885900D-03  2.05100844525095600D-02  0.00000000000000000D+00
12 31 -1.96454131654979300D-01 -4.85141049327339500D-02 -1.62810990756959400D-02 -1.28190042768624600D-02  0.00000000000000000D+00
12 32 -1.38191233007671600D-02  1.22873268967829500D-02 -4.50997206976188600D-03  4.63986126848250700D-03  0.00000000000000000D+00
13  1  2.27121644981452200D-03  1.34798919293122000D-01  9.16177400087381500D-02  5.80450016737646200D-03  1.01636397931075200D-01
13  2  0.00000000000000000D+00 -5.52549784732294200D-04  3.61669280447433400D-02  0.00000000000000000D+00  3.51185866702933500D-04
13  3  7.49900579744823000D-03 -7.85019166415106200D-03  8.37515229144985000D-05  0.00000000000000000D+00  0.00000000000000000D+00
13  4  2.27120186187972300D-03  1.34798445371599900D-01  9.16150630641874900D-02  8.51105852116866600D-02  5.58527115328050700D-02
13  5  0.00000000000000000D+00  3.15960645248458000D-02  1.76069102637726700D-02  0.00000000000000000D+00  5.64841279393702100D-03
13  6  2.20178914525544200D-03 -7.85020193919252500D-03  3.61624304137140300D-03  0.00000000000000000D+00  0.00000000000000000D+00
13  7 -5.69240198916018800D-03  1.03103937020992500D-01  7.03841556987041800D-02 -3.65394840265474100D-02 -4.27450646426149300D-02
13  8  0.00000000000000000D+00 -2.30535497418871500D-02 -1.83518258445806700D-02  0.00000000000000000D+00 -1.79298547440250400D-03
13  9  4.64113571518487800D-03 -2.84815024078234500D-03  1.00218898591149700D-02  0.00000000000000000D+00  0.00000000000000000D+00
13 10 -2.58225284252404300D-03  3.56127067131595900D-02  8.75524419395902100D-03  1.38587803852489300D-01 -3.38117324279196300D-02
13 11  0.00000000000000000D+00  4.45484712809976500D-02 -2.33883056206381500D-02  0.00000000000000000D+00 -2.94543205941753300D-04
13 12  4.98030230614731300D-04 -2.03487024672900000D-04  8.57005986892261200D-03  0.00000000000000000D+00  0.00000000000000000D+00
13 13 -2.58197927281137400D-03  3.56090006958889400D-02  8.74681969837579600D-03 -9.85828671227564100D-02  1.03106112047875700D-01
13 14  0.00000000000000000D+00 -4.25334906323133800D-02  2.68791223346569600D-02  0.00000000000000000D+00 -6.12837902510905300D-03
13 15  6.33159456635104300D-03 -2.03215541241949800D-04  4.67946994432255900D-03  0.00000000000000000D+00  0.00000000000000000D+00
13 16 -5.69248935467157000D-03  1.03102284514444700D-01  7.03846679922113100D-02 -1.87444441942879300D-02 -5.30175844897787200D-02
13 17  0.00000000000000000D+00 -4.36356104416144400D-03 -2.91404339007199400D-02  0.00000000000000000D+00 -4.48542223228202600D-03
13 18  7.33349526100681400D-03 -2.84807302872455700D-03  8.22651055903539000D-03  0.00000000000000000D+00  0.00000000000000000D+00
13 19  1.08414263415632500D-03 -1.93557954005040800D-01 -2.88710578398128300D-01 -5.45189127799253200D-02 -1.70214401037622900D-02
13 20 -2.77035472692095600D-01  0.00000000000000000D+00 -1.30954524304177900D-02 -1.45990415573439300D-01  0.00000000000000000D+00
13 21 -1.23797949464520400D-03 -3.26896348367468300D-03  0.00000000000000000D+00 -6.39284929586267500D-03  1.17389260511674500D-02
13 22 -5.34607675530483900D-03  4.37419781417044800D-04  0.00000000000000000D+00  0.00000000000000000D+00 -4.00395306521738800D-03
13 23  4.20883694790244200D-03 -2.04883882685157100D-04  2.42220428393267700D-03  0.00000000000000000D+00  0.00000000000000000D+00
13 24  1.08398818631891400D-03 -1.93548152687732900D-01 -2.88700540157425000D-01 -5.45182864534041300D-02 -2.31389631258055500D-01
13 25 -1.53279863932539100D-01  0.00000000000000000D+00 -1.19871913513327100D-01 -8.43462431482419100D-02  0.00000000000000000D+00
13 26 -2.21136884014218300D-03 -2.70664592259905300D-03  0.00000000000000000D+00  6.87626176571267400D-03 -1.53016723337372100D-03
13 27 -5.34609453233901300D-03  9.28559589254018300D-03  0.00000000000000000D+00  0.00000000000000000D+00  3.37832204625626900D-04
13 28 -1.33127211208303700D-04 -2.04704993417326700D-04  5.31727354335076100D-03  0.00000000000000000D+00  0.00000000000000000D+00
13 29  3.54531517964581900D-02 -4.45544234719402400D-03 -6.45559095353351800D-03  3.02926847062045000D-03  0.00000000000000000D+00
13 30  4.40355260331099000D-02  8.72124691798466400D-03  3.27617620078173700D-03  4.18895205300412600D-03  0.00000000000000000D+00
13 31  4.40309162524353100D-02  8.71935597379447400D-03  1.98892964561825300D-03  4.93173958012296600D-03  0.00000000000000000D+00
13 32  3.54534589040306200D-02 -4.45522934024602600D-03  5.85172470172496900D-03 -4.07544083270869300D-03  0.00000000000000000D+00
14  1  4.92792442509794900D-03 -1.83008835034787500D-01 -1.24654873635082000D-01  1.09602732145250500D-02 -1.65974296672566000D-02
14  2  0.00000000000000000D+00  1.28622938655705400D-02  2.03640810605455800D-02  0.00000000000000000D+00 -7.90529296018615200D-03
14  3 -2.34686195538902100D-03  1.02521549155752300D-02  8.01355133442327400D-03  0.00000000000000000D+00  0.00000000000000000D+00
14  4  4.92803741673119300D-03 -1.83007131584210600D-01 -1.24654020738595800D-01 -1.98535681622514200D-02  1.19148376285542000D-03
14  5  0.00000000000000000D+00  1.12024954493295600D-02  2.13238670562526500D-02  0.00000000000000000D+00 -9.74774522340854900D-03
14  6 -5.04621704159853500D-04  1.02523669275684000D-02  6.78542543280941400D-03  0.00000000000000000D+00  0.00000000000000000D+00
14  7 -3.08919081421897900D-03  3.66563713594823500D-02  3.75122842055392500D-02 -1.96597261534357200D-01 -1.34089061234547200D-01
14  8  0.00000000000000000D+00 -7.81019171821315800D-02 -2.30111610873635800D-02  0.00000000000000000D+00  7.64999930614156100D-03
14  9 -7.43669815550902800D-03 -2.13301150632358100D-04  1.61171948405075900D-02  0.00000000000000000D+00  0.00000000000000000D+00
14 10 -7.83646292258699500D-03  8.63106400657153300D-02  4.02807345525214500D-02  2.60920011983376100D-01 -4.47258342737890700D-02
14 11  0.00000000000000000D+00  9.41198233282867600D-02 -2.30790089103726000D-02  0.00000000000000000D+00 -1.50807495766479600D-03
14 12  4.07323957830519800D-03 -2.56516462064028200D-03  1.29544883797814900D-02  0.00000000000000000D+00  0.00000000000000000D+00
14 13 -7.83660307291155800D-03  8.63086276954532100D-02  4.02719045910667200D-02 -1.69208838186230100D-01  2.03590294833157200D-01
14 14  0.00000000000000000D+00 -6.70547243285682000D-02  6.99617687428171500D-02  0.00000000000000000D+00 -7.04000481948936100D-03
14 15  9.60511802778753900D-03 -2.56511320829807300D-03  9.26505801286116800D-03  0.00000000000000000D+00  0.00000000000000000D+00
14 16 -3.08986039760970000D-03  3.66632985212474700D-02  3.75149701824686700D-02 -1.78041300844759000D-02 -2.37305613512412900D-01
14 17  0.00000000000000000D+00  1.91307410940117900D-02 -7.91414798933576800D-02  0.00000000000000000D+00 -1.57529390894801600D-02
14 18  1.59662267086674600D-02 -2.13287619187162000D-04  5.10563723794234100D-04  0.00000000000000000D+00  0.00000000000000000D+00
14 19  2.56986245169453400D-03 -2.02216800060801600D-02  1.55633323268161800D-02  1.82060081564974100D-02  9.50564412012239900D-03
14 20  1.17824386508610100D-01  0.00000000000000000D+00 -8.37061258173055500D-04  5.38780437043223000D-02  0.00000000000000000D+00
14 21 -3.24144785830491200D-03 -3.82963403305361000D-03  0.00000000000000000D+00  4.18202065086589500D-03 -8.24448961111756700D-03
14 22  4.06246896025179400D-03 -2.46623072056059500D-04  0.00000000000000000D+00  0.00000000000000000D+00  2.47128399746562200D-03
14 23 -2.43164089113676700D-03 -3.96431063289341700D-05  1.45610562153660100D-03  0.00000000000000000D+00  0.00000000000000000D+00
14 24  2.56967917394156900D-03 -2.02205114171561100D-02  1.55654039019716500D-02  1.82065612658998100D-02  9.72785606851037700D-02
14 25  6.71539241609423200D-02  0.00000000000000000D+00  4.70746252251296500D-02  2.62179484161907900D-02  0.00000000000000000D+00
14 26 -1.69552655505891500D-03 -4.72247306822094800D-03  0.00000000000000000D+00 -4.95175706386416000D-03  8.89291489043808500D-04
14 27  4.06246557482031400D-03 -6.33724057590529500D-03  0.00000000000000000D+00  0.00000000000000000D+00 -2.29745223284621000D-03
14 28  2.33727897265884900D-03 -3.98267398126067600D-05 -1.72372422856807300D-03  0.00000000000000000D+00  0.00000000000000000D+00
14 29 -7.61063506942846100D-02 -3.52940570211662700D-02  6.59035253568948000D-04 -5.50965347768337500D-03  0.00000000000000000D+00
14 30  8.55631485687623900D-02  2.82797680433251900D-02  5.73456673592033200D-03  8.40808637045442400D-03  0.00000000000000000D+00
14 31  8.55562527859269100D-02  2.82773376835272400D-02  4.41318917246340300D-03  9.17065337963951900D-03  0.00000000000000000D+00
14 32 -7.60999024277855800D-02 -3.52928465152203400D-02 -5.10017897083657600D-03 -2.18508335948461400D-03  0.00000000000000000D+00
15  1  5.45485012625312100D-04  1.58768058858514100D-02  6.01862410350816100D-02  8.21138667222419200D-03 -1.92919430008568300D-02
15  2  0.00000000000000000D+00  6.84202528673114000D-02 -2.71440253915986200D-02  0.00000000000000000D+00 -1.10118745028883800D-02
15  3  1.14142434657240400D-02 -4.02368962835586300D-04  8.28821334833308400D-03  0.00000000000000000D+00  0.00000000000000000D+00
15  4 -5.45582214778883000D-04 -1.58713980208053400D-02 -6.01868831708848900D-02  2.08165987004283300D-02  2.54141991061804200D-03
15  5  0.00000000000000000D+00  5.77223856046521300D-02 -4.56736876721583900D-02  0.00000000000000000D+00  4.12199898818549000D-04
15  6 -8.13751465538163900D-04  4.01551566719667000D-04 -1.53549612863777300D-02  0.00000000000000000D+00  0.00000000000000000D+00
15  7 -2.38595964075042100D-03  2.56777768124120500D-02  2.84554495153438700D-02  3.00836875719049300D-01 -4.74950005193351500D-02
15  8  0.00000000000000000D+00  8.40281422318614100D-02 -4.05787346300048100D-02  0.00000000000000000D+00 -3.77125045020530300D-03
15  9  3.37344695804752700D-03  3.97803492157684500D-04 -1.11087652059664200D-02  0.00000000000000000D+00  0.00000000000000000D+00
15 10  9.06424785020177800D-04 -5.05997422595050100D-02 -8.00618564204726300D-02 -1.15114647779866000D-01 -1.70268916485510500D-01
15 11  0.00000000000000000D+00 -3.93678346147332700D-02 -8.73035900773429700D-02  0.00000000000000000D+00 -6.74161954405786800D-03
15 12  6.77229807139554000D-03 -3.06785273376466100D-05 -1.69117740925604800D-02  0.00000000000000000D+00  0.00000000000000000D+00
15 13 -9.06828476832350300D-04  5.06117928285512300D-02  8.00708848341334200D-02  8.99154305282488500D-02  1.84855810384265300D-01
15 14  0.00000000000000000D+00  5.59287320917095700D-02  7.77599102981737600D-02  0.00000000000000000D+00 -1.60772949221164000D-02
15 15  1.60471934781853600D-02  3.01014439310318600D-05  1.69528098664307700D-03  0.00000000000000000D+00  0.00000000000000000D+00
15 16  2.38614254060449900D-03 -2.56806469034928300D-02 -2.84708375510664000D-02  1.91598701834032900D-01 -2.36789529979881700D-01
15 17  0.00000000000000000D+00  7.71701760570970800D-02 -5.24753649401147500D-02  0.00000000000000000D+00 -9.92072923987634100D-03
15 18  1.03185579587521200D-02 -3.97828718875716000D-04  1.97819499237877300D-03  0.00000000000000000D+00  0.00000000000000000D+00
15 19 -2.11510355280866200D-04 -1.90579081176854500D-02 -1.74800636628845400D-02  3.37695475629752300D-03  5.23629586717865100D-03
15 20 -1.60254563739455800D-02  0.00000000000000000D+00 -1.09866495437893500D-02 -7.88175143535716500D-03  0.00000000000000000D+00
15 21 -4.10465900844734200D-03 -3.66586088201921500D-03  0.00000000000000000D+00 -3.51818886363125700D-04  1.97871432268581400D-04
15 22  1.53947454094586100D-04 -2.05951948580488500D-04  0.00000000000000000D+00  0.00000000000000000D+00  1.31434641657397500D-03
15 23 -2.47911184042371000D-03  1.16476542384983300D-03  3.05589381844118900D-03  0.00000000000000000D+00  0.00000000000000000D+00
15 24  2.11250172283902400D-04  1.90596288318002000D-02  1.74806324738313800D-02 -3.37922164946151400D-03  1.64875300458546500D-02
15 25  3.47336287763357000D-03  0.00000000000000000D+00  1.32687874559493700D-03  1.34515472366249400D-02  0.00000000000000000D+00
15 26  1.12222837444944000D-03  5.38801211191330500D-03  0.00000000000000000D+00 -2.14538559504841100D-04  3.68778234262438700D-04
15 27 -1.54239674757681700D-04 -1.71489918599075400D-04  0.00000000000000000D+00  0.00000000000000000D+00  3.82219016550131900D-03
15 28 -2.65768660800012300D-03 -1.16450355750118000D-03  3.69660699195562200D-04  0.00000000000000000D+00  0.00000000000000000D+00
15 29  2.48487165440478200D-01  7.60134361610818900D-02 -1.48833372461873200D-02  1.22266887278291700D-02  0.00000000000000000D+00
15 30  1.22397978731980100D-01  4.40640811170165200D-02 -4.58468814222110700D-03  7.20753760708839800D-03  0.00000000000000000D+00
15 31 -1.22421146813491100D-01 -4.40705503481194000D-02 -8.53551462643988000D-03  3.64935341097256600D-04  0.00000000000000000D+00
15 32 -2.48512570182994700D-01 -7.60206084485847600D-02 -1.80330164170484800D-02  6.77458089579797300D-03  0.00000000000000000D+00
16  1  3.93882152466161100D-04 -6.43281868645758600D-02  2.61834696202103300D-03 -1.51671612682806600D-02 -5.19749302433489200D-02
16  2  0.00000000000000000D+00 -1.72418240872902100D-02 -2.41719102451025400D-03  0.00000000000000000D+00  1.09833530046923700D-02
16  3 -1.63129539181793200D-02  5.32960091348698800D-03 -1.60619944670071100D-03  0.00000000000000000D+00  0.00000000000000000D+00
16  4  3.93907622473745100D-04 -6.43370746321109300D-02  2.60501567948305500D-03 -3.74276956835780500D-02 -3.91300790011531000D-02
16  5  0.00000000000000000D+00  6.53917372026964300D-03 -1.61466069323139000D-02  0.00000000000000000D+00 -8.28248922539872300D-03
16  6  2.95257812969820800D-03  5.32991109570053500D-03 -1.44560423949039000D-02  0.00000000000000000D+00  0.00000000000000000D+00
16  7 -4.47316026483591000D-03  4.74034411593806500D-02  8.15219790716679700D-02  2.24458144445414600D-01 -5.22718968998299700D-02
16  8  0.00000000000000000D+00  4.69756412310991200D-02 -3.77830186536873300D-02  0.00000000000000000D+00 -5.86896622487933400D-03
16  9  5.33945443937227700D-03  5.29511785507109700D-04 -6.95878969396644200D-03  0.00000000000000000D+00  0.00000000000000000D+00
16 10  6.99875912289050700D-04 -6.39536213760529000D-02 -6.28174588957684900D-02 -7.99385850267694500D-03 -2.32976287952747900D-01
16 11  0.00000000000000000D+00 -2.25944971113829700D-02 -9.47953277984242300D-02  0.00000000000000000D+00 -7.08894167444398300D-05
16 12 -3.78583464336627300D-03  3.85672406011071300D-03  4.48248165021372100D-03  0.00000000000000000D+00  0.00000000000000000D+00
16 13  7.00071657034684900D-04 -6.39471830963823100D-02 -6.28033194470401900D-02 -1.97744124923390100D-01 -1.23405118615547000D-01
16 14  0.00000000000000000D+00 -7.07837763383850100D-02 -6.69620146224253300D-02  0.00000000000000000D+00 -6.22048695960547200D-03
16 15  2.36384043875146300D-03  3.85664652085402300D-03  3.83335245439717900D-04  0.00000000000000000D+00  0.00000000000000000D+00
16 16 -4.47244427433377600D-03  4.73939036259324300D-02  8.15173860376764300D-02 -1.57487240522030500D-01  1.68198675744276000D-01
16 17  0.00000000000000000D+00 -5.62008324675885400D-02  2.17767830320589400D-02  0.00000000000000000D+00  7.75465264375143000D-03
16 18 -8.28398499566870300D-03  5.29332351917346400D-04  2.12821936663629100D-03  0.00000000000000000D+00  0.00000000000000000D+00
16 19  2.28401149147339400D-03 -3.44303012750915300D-02 -2.70968520438183000D-02  1.31373952236377800D-02  8.29545675463512800D-03
16 20  9.23108262068389800D-02  0.00000000000000000D+00  1.27072451542427200D-02  4.82035377844244500D-02  0.00000000000000000D+00
16 21  1.05866161937355800D-03 -2.09467980147009700D-03  0.00000000000000000D+00  2.89926185668708200D-03 -5.88951989782474300D-03
16 22  2.99025804113762100D-03 -2.73882104681099800D-04  0.00000000000000000D+00  0.00000000000000000D+00  1.64094308071331900D-03
16 23  8.09778038192074200D-04 -2.45072111890541700D-03 -1.58586976117279500D-03  0.00000000000000000D+00  0.00000000000000000D+00
16 24  2.28430500191185800D-03 -3.44338564304719100D-02 -2.70984289147100900D-02  1.31377941888979700D-02  7.58003274934719600D-02
16 25  5.33525762272042000D-02  0.00000000000000000D+00  3.53911622742832400D-02  3.51140644558888800D-02  0.00000000000000000D+00
16 26 -2.34334344396048400D-03 -1.29912982303833100D-04  0.00000000000000000D+00 -3.48657286991324700D-03  4.95974055853214800D-04
16 27  2.99059881406003800D-03 -4.53240087048298200D-03  0.00000000000000000D+00  0.00000000000000000D+00  2.20786151219509200D-03
16 28  2.43273825285724500D-04 -2.45113533748082400D-03 -1.20796376913510500D-03  0.00000000000000000D+00  0.00000000000000000D+00
16 29  1.98951215958185000D-01  5.22886400429514400D-02 -1.29379648884629700D-02  1.06041424467826600D-02  0.00000000000000000D+00
16 30  1.44071480555821700D-01  3.45664172482257900D-02  3.28235228597724500D-04  1.06420789933489300D-02  0.00000000000000000D+00
16 31  1.44055779369167200D-01  3.45615411031340900D-02  9.05041757593323800D-03  5.60616189309623400D-03  0.00000000000000000D+00
16 32  1.98909472878364900D-01  5.22763685367305700D-02  1.56500302616556800D-02 -5.89954192107097200D-03  0.00000000000000000D+00
17  1 -6.08691537004541800D-03  1.94692819826911100D-01  1.61598518138980500D-01 -1.00653315610920600D-02  2.19926892608997900D-01
17  2  0.00000000000000000D+00  8.12233034784312600D-03 -3.43264425697620100D-02  0.00000000000000000D+00 -2.89052425637471600D-02
17  3  4.13843405741164900D-02 -1.24790980103692500D-02 -6.16961237122588200D-04  0.00000000000000000D+00  0.00000000000000000D+00
17  4  6.08679083677480500D-03 -1.94693470748868400D-01 -1.61597082199236700D-01 -1.95494065838180900D-01 -1.01271624061082000D-01
17  5  0.00000000000000000D+00  3.37869030723597400D-02  1.01327769990077200D-02  0.00000000000000000D+00 -2.42688133932144500D-02
17  6  1.17896542059697900D-02  1.24791591872447300D-02 -3.48410716489733200D-02  0.00000000000000000D+00  0.00000000000000000D+00
17  7 -3.46783438627099000D-03  3.30228631616547000D-02  8.95852869060475100D-02  5.32970059253876300D-04 -2.78585356709138500D-02
17  8  0.00000000000000000D+00 -2.94710514354874700D-02  1.22367305667627100D-02  0.00000000000000000D+00  7.27307452712900200D-03
17  9 -7.21114821687627500D-03 -6.19263102528280000D-05 -1.15584350145265100D-02  0.00000000000000000D+00  0.00000000000000000D+00
17 10 -1.27428019831784900D-04  5.00054107481282700D-03 -3.63923865991152800D-02  1.79015598814940100D-02  2.28482721017309400D-02
17 11  0.00000000000000000D+00 -1.04455072823069500D-03 -5.81725445517443900D-03  0.00000000000000000D+00  7.25299900283874400D-03
17 12 -6.09413082315663000D-03 -1.15886817968216100D-03  8.28356872961445800D-04  0.00000000000000000D+00  0.00000000000000000D+00
17 13  1.27326415665677400D-04 -4.99763109065820700D-03  3.63947740332029200D-02 -1.08234405408066400D-02 -2.69208312434527700D-02
17 14  0.00000000000000000D+00  4.51874400499617200D-03  3.81697089017860600D-03  0.00000000000000000D+00  3.37777327163854900D-03
17 15 -4.53642700556141500D-03  1.15865373392282200D-03  6.26031476559262800D-03  0.00000000000000000D+00  0.00000000000000000D+00
17 16  3.46774147443368300D-03 -3.30192351848297300D-02 -8.95850755579344300D-02  2.43980371365769100D-02  1.34635568578258700D-02
17 17  0.00000000000000000D+00 -2.53317573886839500D-02  1.93995232243929700D-02  0.00000000000000000D+00 -5.08134297018301900D-03
17 18  5.01971364332815500D-03  6.16293268549036100D-05  1.30198546925782500D-02  0.00000000000000000D+00  0.00000000000000000D+00
17 19 -7.63116125373498800D-03  1.53615436294982400D-01  1.00598586513962800D-01 -2.15353201964428200D-02 -1.88761909302167600D-02
17 20 -2.80991367495450100D-01  0.00000000000000000D+00 -1.38631382090001900D-02 -1.31496297455173500D-01  0.00000000000000000D+00
17 21 -2.64447753755268100D-03 -3.23565814794439200D-03  0.00000000000000000D+00 -9.91491273597957600D-03  1.92516844159721200D-02
17 22 -9.33677167999255400D-03  7.66234610901986700D-04  0.00000000000000000D+00  0.00000000000000000D+00  9.37865338694735400D-04
17 23 -2.53049087100153900D-03  1.59262553230683600D-03  1.28976843444095100D-03  0.00000000000000000D+00  0.00000000000000000D+00
17 24  7.63137252101939300D-03 -1.53623587000515600D-01 -1.00602686093064000D-01  2.15357127536523000D-02  2.33896270266590700D-01
17 25  1.56870414383359400D-01  0.00000000000000000D+00  1.06939325871099800D-01  7.77648988688352100D-02  0.00000000000000000D+00
17 26  1.47966323888530400D-03  3.90820802933080600D-03  0.00000000000000000D+00 -1.13831422315255500D-02  2.04596939578496000D-03
17 27  9.33717283574071900D-03 -1.49686237510223800D-02  0.00000000000000000D+00  0.00000000000000000D+00  2.63101547478552100D-03
17 28 -1.03805397304254200D-03 -1.59296150174296200D-03  1.09040057091020800D-03  0.00000000000000000D+00  0.00000000000000000D+00
17 29  3.43148350397226200D-02  2.02637095984855700D-02 -5.02679177824520900D-04  2.63246366161567200D-04  0.00000000000000000D+00
17 30 -1.77879147507083600D-02 -9.72139706191772100D-03  1.55335603748868500D-04  2.39795374333222400D-04  0.00000000000000000D+00
17 31  1.77799720657813400D-02  9.71955757967886800D-03 -1.30496507905002100D-04 -2.54723301694324900D-04  0.00000000000000000D+00
17 32 -3.43200441027897500D-02 -2.02648809180769000D-02 -4.79678260716991700D-04  3.03754803157718400D-04  0.00000000000000000D+00
18  1  0.00000000000000000D+00  0.00000000000000000D+00  0.00000000000000000D+00  0.00000000000000000D+00  0.00000000000000000D+00
18  2  2.27849191687994700D-01  0.00000000000000000D+00  0.00000000000000000D+00  1.09908022538010100D-01  0.00000000000000000D+00
18  3  0.00000000000000000D+00  0.00000000000000000D+00  0.00000000000000000D+00  1.92347241619363200D-03  7.58474529177157100D-03
18  4  0.00000000000000000D+00  0.00000000000000000D+00  0.00000000000000000D+00  0.00000000000000000D+00  0.00000000000000000D+00
18  5  2.27856818684637800D-01  0.00000000000000000D+00  0.00000000000000000D+00  1.09911740425621400D-01  0.00000000000000000D+00
18  6  0.00000000000000000D+00  0.00000000000000000D+00  0.00000000000000000D+00  5.60809867567496800D-03  5.45983102949536500D-03
18  7  0.00000000000000000D+00  0.00000000000000000D+00  0.00000000000000000D+00  0.00000000000000000D+00  0.00000000000000000D+00
18  8  1.59583521140098200D-01  0.00000000000000000D+00  0.00000000000000000D+00  9.45955728847672500D-02  0.00000000000000000D+00
18  9  0.00000000000000000D+00  0.00000000000000000D+00  0.00000000000000000D+00 -1.20640006965452500D-02  6.57978052010770700D-03
18 10  0.00000000000000000D+00  0.00000000000000000D+00  0.00000000000000000D+00  0.00000000000000000D+00  0.00000000000000000D+00
18 11  1.55121308490301700D-01  0.00000000000000000D+00  0.00000000000000000D+00  9.32361582246414000D-02  0.00000000000000000D+00
18 12  0.00000000000000000D+00  0.00000000000000000D+00  0.00000000000000000D+00  3.63598007131950100D-03  1.18071605734862400D-02
18 13  0.00000000000000000D+00  0.00000000000000000D+00  0.00000000000000000D+00  0.00000000000000000D+00  0.00000000000000000D+00
18 14  1.55129161590288500D-01  0.00000000000000000D+00  0.00000000000000000D+00  9.32413818966904000D-02  0.00000000000000000D+00
18 15  0.00000000000000000D+00  0.00000000000000000D+00  0.00000000000000000D+00  8.40597822117539500D-03  9.05427825094395600D-03
18 16  0.00000000000000000D+00  0.00000000000000000D+00  0.00000000000000000D+00  0.00000000000000000D+00  0.00000000000000000D+00
18 17  1.59592230457828200D-01  0.00000000000000000D+00  0.00000000000000000D+00  9.46012574922595500D-02  0.00000000000000000D+00
18 18  0.00000000000000000D+00  0.00000000000000000D+00  0.00000000000000000D+00  1.17308807282002000D-02 -7.15760048335233300D-03
18 19  0.00000000000000000D+00  0.00000000000000000D+00  0.00000000000000000D+00  0.00000000000000000D+00  0.00000000000000000D+00
18 20  0.00000000000000000D+00  2.23283581195221300D-01  0.00000000000000000D+00  0.00000000000000000D+00  1.51476735064434300D-01
18 21  0.00000000000000000D+00  0.00000000000000000D+00  9.46357422678000000D-03  0.00000000000000000D+00  0.00000000000000000D+00
18 22  0.00000000000000000D+00  0.00000000000000000D+00 -3.52287534750336600D-05 -1.39589695744344900D-02  0.00000000000000000D+00
18 23  0.00000000000000000D+00  0.00000000000000000D+00  0.00000000000000000D+00 -5.70699915841686400D-04 -1.53181964386657100D-02
18 24  0.00000000000000000D+00  0.00000000000000000D+00  0.00000000000000000D+00  0.00000000000000000D+00  0.00000000000000000D+00
18 25  0.00000000000000000D+00  2.23298811830710300D-01  0.00000000000000000D+00  0.00000000000000000D+00  1.51487112771957300D-01
18 26  0.00000000000000000D+00  0.00000000000000000D+00  9.46465158639670000D-03  0.00000000000000000D+00  0.00000000000000000D+00
18 27  0.00000000000000000D+00  0.00000000000000000D+00 -1.20712506597930800D-02 -7.01168488297161400D-03  0.00000000000000000D+00
18 28  0.00000000000000000D+00  0.00000000000000000D+00  0.00000000000000000D+00 -1.29802184020363900D-02 -8.15510846988266000D-03
18 29  0.00000000000000000D+00  0.00000000000000000D+00  0.00000000000000000D+00  0.00000000000000000D+00  5.38620017251675500D-03
18 30  0.00000000000000000D+00  0.00000000000000000D+00  0.00000000000000000D+00  0.00000000000000000D+00  5.02374897210724900D-03
18 31  0.00000000000000000D+00  0.00000000000000000D+00  0.00000000000000000D+00  0.00000000000000000D+00  5.02388975091172400D-03
18 32  0.00000000000000000D+00  0.00000000000000000D+00  0.00000000000000000D+00  0.00000000000000000D+00  5.38638190081158800D-03
19  1  0.00000000000000000D+00  0.00000000000000000D+00  0.00000000000000000D+00  0.00000000000000000D+00  1.19444330796890000D-11
19  2  1.25814059753338500D-01  0.00000000000000000D+00  0.00000000000000000D+00  6.60956651185259400D-02  0.00000000000000000D+00
19  3  0.00000000000000000D+00  0.00000000000000000D+00  0.00000000000000000D+00  1.24234539327347900D-02  2.37953014184079500D-02
19  4  0.00000000000000000D+00  0.00000000000000000D+00  0.00000000000000000D+00  1.46108195077294000D-11  0.00000000000000000D+00
19  5  1.25818873194913200D-01  0.00000000000000000D+00  0.00000000000000000D+00  6.60969056638926300D-02  0.00000000000000000D+00
19  6  0.00000000000000000D+00  0.00000000000000000D+00  0.00000000000000000D+00  1.43939623751407500D-02  2.26582548174223200D-02
19  7  0.00000000000000000D+00  0.00000000000000000D+00  0.00000000000000000D+00  0.00000000000000000D+00  0.00000000000000000D+00
19  8 -1.65319895338696500D-01  0.00000000000000000D+00  0.00000000000000000D+00 -1.23814517702826900D-01  0.00000000000000000D+00
19  9  0.00000000000000000D+00  0.00000000000000000D+00  0.00000000000000000D+00  2.04876117767471300D-02  1.17474222712602200D-02
19 10  0.00000000000000000D+00  0.00000000000000000D+00  0.00000000000000000D+00  0.00000000000000000D+00  0.00000000000000000D+00
19 11 -2.52024331383296700D-01  0.00000000000000000D+00  0.00000000000000000D+00 -1.72206458264835300D-01  0.00000000000000000D+00
19 12  0.00000000000000000D+00  0.00000000000000000D+00  0.00000000000000000D+00 -5.35577717848415900D-04 -1.64152554219493400D-02
19 13  0.00000000000000000D+00  0.00000000000000000D+00  0.00000000000000000D+00 -1.08641448578343700D-11  0.00000000000000000D+00
19 14 -2.52027570137503700D-01  0.00000000000000000D+00  0.00000000000000000D+00 -1.72206537091768300D-01  0.00000000000000000D+00
19 15  0.00000000000000000D+00  0.00000000000000000D+00  0.00000000000000000D+00 -1.39471281284013300D-02 -8.67324313920781400D-03
19 16  0.00000000000000000D+00  0.00000000000000000D+00  0.00000000000000000D+00  0.00000000000000000D+00  0.00000000000000000D+00
19 17 -1.65324859181915300D-01  0.00000000000000000D+00  0.00000000000000000D+00 -1.23814970415357300D-01  0.00000000000000000D+00
19 18  0.00000000000000000D+00  0.00000000000000000D+00  0.00000000000000000D+00 -7.29912688348643200D-05  2.36170558417277900D-02
19 19  0.00000000000000000D+00  0.00000000000000000D+00  0.00000000000000000D+00  0.00000000000000000D+00  0.00000000000000000D+00
19 20  0.00000000000000000D+00  2.26405875608654900D-01  0.00000000000000000D+00  0.00000000000000000D+00  1.68096116282383500D-01
19 21  0.00000000000000000D+00  0.00000000000000000D+00  2.26393209750373200D-02  0.00000000000000000D+00  0.00000000000000000D+00
19 22  0.00000000000000000D+00  0.00000000000000000D+00  4.19914884203119300D-04 -1.01915190981105100D-02  0.00000000000000000D+00
19 23  0.00000000000000000D+00  0.00000000000000000D+00  0.00000000000000000D+00 -2.04769748280791500D-03 -1.61783391494982600D-02
19 24  0.00000000000000000D+00  1.32635597211565200D-11  1.11600898091633600D-11  0.00000000000000000D+00 -1.01700565295943400D-11
19 25  0.00000000000000000D+00  2.26411716374025800D-01  0.00000000000000000D+00  0.00000000000000000D+00  1.68100001604337000D-01
19 26  0.00000000000000000D+00  0.00000000000000000D+00  2.26392355139044400D-02  0.00000000000000000D+00  0.00000000000000000D+00
19 27  0.00000000000000000D+00  0.00000000000000000D+00 -9.03599174105643500D-03 -4.73327434011646900D-03  0.00000000000000000D+00
19 28  0.00000000000000000D+00  0.00000000000000000D+00  0.00000000000000000D+00 -1.29861704955835400D-02 -9.86403716430477700D-03
19 29  0.00000000000000000D+00  0.00000000000000000D+00  0.00000000000000000D+00  0.00000000000000000D+00 -5.16352430744896300D-03
19 30  0.00000000000000000D+00  0.00000000000000000D+00  0.00000000000000000D+00  0.00000000000000000D+00 -8.61968786883452600D-03
19 31  0.00000000000000000D+00  0.00000000000000000D+00  0.00000000000000000D+00  0.00000000000000000D+00 -8.61962613002827500D-03
19 32  0.00000000000000000D+00  0.00000000000000000D+00  0.00000000000000000D+00  0.00000000000000000D+00 -5.16357798640929400D-03
20  1  5.70945190079110200D-05 -6.51705214146415900D-03  3.35253821870434400D-02 -2.30961844911010900D-02 -2.67106476286693800D-01
20  2  0.00000000000000000D+00 -3.15675644951790600D-03 -3.94822003443848800D-02  0.00000000000000000D+00  1.96385727320967200D-02
20  3 -2.14430605861429800D-02  1.80448785404631400D-03  1.30016626961938800D-03  0.00000000000000000D+00  0.00000000000000000D+00
20  4  5.66584740349950800D-05 -6.50909506198982900D-03  3.35324274434546100D-02 -2.19749758118639800D-01 -1.53574663987578500D-01
20  5  0.00000000000000000D+00 -3.26126739311147600D-02 -2.24780508581759700D-02  0.00000000000000000D+00 -1.21432839941540400D-02
20  6  1.03392553933441700D-02  1.80402860080985200D-03 -1.98916970367052300D-02  0.00000000000000000D+00  0.00000000000000000D+00
20  7 -7.85668294707628900D-03  1.14918020511264400D-01  8.42291017676958000D-02  1.34906666992907400D-02  7.46234084083254000D-02
20  8 -1.03990310323672600D-11 -4.73168809879548300D-03  3.38903255876652500D-02  0.00000000000000000D+00  2.66276885041689700D-03
20  9  3.24935414278240100D-03 -5.91212299319938900D-03 -1.12602392623535100D-02  0.00000000000000000D+00  0.00000000000000000D+00
20 10 -3.67575998691685500D-04 -2.22676563314996200D-03 -2.07959169127620200D-02 -3.31235697775494700D-02  1.20211348297017900D-01
20 11 -1.52234024301328600D-11 -1.64062469862772800D-02  3.83646576598034600D-02 -1.05827392692276800D-11  4.23569868121827600D-03
20 12 -2.00754151458123600D-03 -2.22815716663691600D-03 -1.38387128374502600D-03  0.00000000000000000D+00  0.00000000000000000D+00
20 13 -3.67682299654523900D-04 -2.22875749668418500D-03 -2.07975122181310900D-02  1.20664230778601700D-01  3.14272129889376700D-02
20 14 -1.37843061671173300D-11  4.14278017133494800D-02  4.97867033286697500D-03  0.00000000000000000D+00  5.92097726857825900D-04
20 15  1.63614046130764900D-03 -2.22823818816552800D-03 -3.81403517707527900D-03  0.00000000000000000D+00  0.00000000000000000D+00
20 16 -7.85673130368318300D-03  1.14916457347096800D-01  8.42288337112153800D-02  5.78718994951895700D-02  4.90072169077314000D-02
20 17  0.00000000000000000D+00  3.17127746716424800D-02  1.28537597677169100D-02  0.00000000000000000D+00  1.15494180663787700D-02
20 18 -5.63745779749039500D-03 -5.91196026888834300D-03 -5.33548534465375100D-03  0.00000000000000000D+00  0.00000000000000000D+00
20 19  4.25278292094985500D-03 -1.73677768080527200D-01 -1.39256366742664200D-01  5.36253116683595700D-03  1.55784505684104500D-02
20 20  1.85078435694415700D-01  1.05308748930641000D-11  1.47317173892609000D-02  8.83801092002542000D-02  0.00000000000000000D+00
20 21  3.24302169301541500D-03  9.17142299150941100D-03  0.00000000000000000D+00  6.83758213881498500D-03 -1.38829588932647600D-02
20 22  7.04537675444977300D-03 -3.53295548163537000D-04  0.00000000000000000D+00  0.00000000000000000D+00 -7.92177005446144000D-04
20 23  5.88359357386284700D-04  2.03817648059973100D-04 -1.53344532153715100D-03  0.00000000000000000D+00  0.00000000000000000D+00
20 24  4.25248207613433800D-03 -1.73671738844043800D-01 -1.39250676968625100D-01  5.36206781512122600D-03  1.52472599187305500D-01
20 25  1.06039368340918400D-01  1.47333546359080000D-11  6.91613550239513200D-02  5.69505324885047800D-02  1.09460419289356100D-11
20 26  6.32020092784980200D-03  7.39469101499071500D-03  0.00000000000000000D+00 -8.43564884927148000D-03  1.39052536656861400D-03
20 27  7.04512348270293500D-03 -1.05376404560925800D-02  0.00000000000000000D+00  0.00000000000000000D+00  1.39354581278923000D-03
20 28 -1.59709364659306400D-03  2.03547833803806500D-04 -7.55941777804362100D-05  0.00000000000000000D+00  0.00000000000000000D+00
20 29  5.56008814976473700D-02  2.69532306219873300D-02 -3.92525239794740500D-03  3.67096610008447200D-03  0.00000000000000000D+00
20 30 -9.43265586681089500D-02 -2.50495389191641400D-02 -1.51250800759744800D-03 -7.04886153646589900D-03  0.00000000000000000D+00
20 31 -9.43252291341359800D-02 -2.50488468669614000D-02 -5.34764508816919400D-03 -4.83491434795440600D-03  0.00000000000000000D+00
20 32  5.56051298193756300D-02  2.69551782242002300D-02  5.14207159734085700D-03 -1.56327866619889200D-03  0.00000000000000000D+00
21  1  0.00000000000000000D+00  0.00000000000000000D+00  0.00000000000000000D+00  0.00000000000000000D+00  0.00000000000000000D+00
21  2  1.60882959494263800D-01  0.00000000000000000D+00  0.00000000000000000D+00  1.02527190200978600D-01  0.00000000000000000D+00
21  3  0.00000000000000000D+00  0.00000000000000000D+00  0.00000000000000000D+00  7.19344944007904600D-04  3.89563251527380400D-02
21  4  0.00000000000000000D+00  0.00000000000000000D+00  0.00000000000000000D+00  0.00000000000000000D+00  0.00000000000000000D+00
21  5 -1.60872486533429000D-01  0.00000000000000000D+00  0.00000000000000000D+00 -1.02520496715883300D-01  0.00000000000000000D+00
21  6  0.00000000000000000D+00  0.00000000000000000D+00  0.00000000000000000D+00 -3.33753297761465300D-02 -2.01042756192222900D-02
21  7  0.00000000000000000D+00  0.00000000000000000D+00  0.00000000000000000D+00  0.00000000000000000D+00  0.00000000000000000D+00
21  8  1.35317745323812800D-01  0.00000000000000000D+00  0.00000000000000000D+00  1.28719008632875800D-01  0.00000000000000000D+00
21  9  0.00000000000000000D+00  0.00000000000000000D+00  0.00000000000000000D+00 -1.08981982927785600D-02 -1.03212238661899200D-02
21 10  0.00000000000000000D+00  0.00000000000000000D+00  0.00000000000000000D+00  0.00000000000000000D+00  0.00000000000000000D+00
21 11  1.19113997545108800D-01  0.00000000000000000D+00  0.00000000000000000D+00  1.13822884943159300D-01  0.00000000000000000D+00
21 12  0.00000000000000000D+00  0.00000000000000000D+00  0.00000000000000000D+00  1.46208258317230600D-02  3.43853139104156400D-03
21 13  0.00000000000000000D+00  0.00000000000000000D+00  0.00000000000000000D+00  0.00000000000000000D+00  0.00000000000000000D+00
21 14 -1.19109618384057900D-01  0.00000000000000000D+00  0.00000000000000000D+00 -1.13818338883807500D-01  0.00000000000000000D+00
21 15  0.00000000000000000D+00  0.00000000000000000D+00  0.00000000000000000D+00  4.33436368130875800D-03 -1.43808028578246700D-02
21 16  0.00000000000000000D+00  0.00000000000000000D+00  0.00000000000000000D+00  0.00000000000000000D+00  0.00000000000000000D+00
21 17 -1.35313042668555000D-01  0.00000000000000000D+00  0.00000000000000000D+00 -1.28714793791760100D-01  0.00000000000000000D+00
21 18  0.00000000000000000D+00  0.00000000000000000D+00  0.00000000000000000D+00  3.48832505926933600D-03  1.45992321059179500D-02
21 19  0.00000000000000000D+00  0.00000000000000000D+00  0.00000000000000000D+00  0.00000000000000000D+00  0.00000000000000000D+00
21 20  0.00000000000000000D+00  3.54354265056804400D-01  0.00000000000000000D+00  0.00000000000000000D+00  2.61552304047196300D-01
21 21  0.00000000000000000D+00  0.00000000000000000D+00  3.90186817008908900D-02  0.00000000000000000D+00  0.00000000000000000D+00
21 22  0.00000000000000000D+00  0.00000000000000000D+00  1.04114334363675000D-06 -1.53475024329363500D-02  0.00000000000000000D+00
21 23  0.00000000000000000D+00  0.00000000000000000D+00  0.00000000000000000D+00 -2.23605218674960500D-03 -1.87366308812381900D-02
21 24  0.00000000000000000D+00  0.00000000000000000D+00  0.00000000000000000D+00  0.00000000000000000D+00  0.00000000000000000D+00
21 25  0.00000000000000000D+00 -3.54341507015063700D-01  0.00000000000000000D+00  0.00000000000000000D+00 -2.61542912927128900D-01
21 26  0.00000000000000000D+00  0.00000000000000000D+00 -3.90171557529049300D-02  0.00000000000000000D+00  0.00000000000000000D+00
21 27  0.00000000000000000D+00  0.00000000000000000D+00  1.32906259979129100D-02  7.67397467503173300D-03  0.00000000000000000D+00
21 28  0.00000000000000000D+00  0.00000000000000000D+00  0.00000000000000000D+00  1.51062121667810800D-02  1.13058038670568300D-02
21 29  0.00000000000000000D+00  0.00000000000000000D+00  0.00000000000000000D+00  0.00000000000000000D+00  4.47837819810800700D-03
21 30  0.00000000000000000D+00  0.00000000000000000D+00  0.00000000000000000D+00  0.00000000000000000D+00  4.26811845083356000D-03
21 31  0.00000000000000000D+00  0.00000000000000000D+00  0.00000000000000000D+00  0.00000000000000000D+00 -4.26791242296691400D-03
21 32  0.00000000000000000D+00  0.00000000000000000D+00  0.00000000000000000D+00  0.00000000000000000D+00 -4.47817057660887400D-03
22  1  4.11096069280918300D-03 -1.13494735315040400D-01 -6.26689044665998800D-02  1.19777033392950800D-01  7.49999428162564700D-02
22  2  0.00000000000000000D+00 -3.81083562117680100D-03  7.26716834357099700D-03  0.00000000000000000D+00 -1.25877375651803000D-02
22  3  5.72656573739487600D-03  6.86117182778547700D-03 -1.64587925336492500D-02  0.00000000000000000D+00  0.00000000000000000D+00
22  4 -4.11091968953814900D-03  1.13488918990954800D-01  6.26631697966925900D-02 -5.04118621642809500D-03 -1.41230416784753500D-01
22  5  0.00000000000000000D+00 -8.19628844743895000D-03 -3.32637155001385600D-04  0.00000000000000000D+00 -1.34920371385634800D-02
22  6  2.03529423093494600D-02 -6.86090517078596000D-03 -9.31242492454883000D-04  0.00000000000000000D+00  0.00000000000000000D+00
22  7 -1.50508986850294000D-02  2.29981285518099900D-01  2.24831777151811800D-01  1.80753858955297900D-02  6.71165614425856300D-02
22  8  0.00000000000000000D+00 -2.84902693215319200D-02  5.08353309427227500D-02  0.00000000000000000D+00  1.75322689644977200D-03
22  9  6.28946219960405200D-03 -8.04268909605395700D-03 -4.50448293136955200D-03  0.00000000000000000D+00  0.00000000000000000D+00
22 10  1.53914263210369400D-03 -3.80647009262477600D-02 -1.13200621631841100D-01  6.29329853511855100D-02  1.50897821592910900D-01
22 11  0.00000000000000000D+00  2.95311399117602100D-02  1.69982189801584000D-02  0.00000000000000000D+00  1.55314075270654500D-02
22 12 -1.44842887537903700D-02 -1.04711877327505700D-03  1.06004161595704900D-02  0.00000000000000000D+00  0.00000000000000000D+00
22 13 -1.53914920768794100D-03  3.80662910731806000D-02  1.13202395600546000D-01 -9.92010360923345200D-02 -1.29952332003767200D-01
22 14  0.00000000000000000D+00  4.67809590216108000D-05 -3.40715441384483100D-02  0.00000000000000000D+00  1.49290724398627100D-02
22 15 -1.59760342083858200D-02  1.04696176852301100D-03  9.71103208641383200D-03  0.00000000000000000D+00  0.00000000000000000D+00
22 16  1.50510420754282100D-02 -2.29977329416939200D-01 -2.24827903498964000D-01 -4.90827614421883600D-02 -4.92264308155219600D-02
22 17  0.00000000000000000D+00 -5.82676084841041000D-02 -7.55859671245908500D-04  0.00000000000000000D+00 -8.53429821297795400D-03
22 18  4.91680598446790900D-04  8.04261761453118800D-03 -1.70486546955498700D-05  0.00000000000000000D+00  0.00000000000000000D+00
22 19  4.98816956065109300D-04  2.34966625210900900D-02  3.32747994079318800D-02  1.74076949340080700D-02  4.57727724697593600D-02
22 20  7.98719732724475900D-03  0.00000000000000000D+00  3.20705481563157500D-02  1.70019396023449000D-03  0.00000000000000000D+00
22 21  2.05392275223735000D-03 -9.31793117324727600D-03  0.00000000000000000D+00  4.07745205309203900D-04 -7.36905962747482400D-04
22 22  3.29160757438247200D-04 -3.60890070435201900D-03  0.00000000000000000D+00  0.00000000000000000D+00  1.28570744141671200D-03
22 23 -1.94628805372903200D-03  6.60580612312165600D-04 -6.07951594685771800D-03  0.00000000000000000D+00  0.00000000000000000D+00
22 24 -4.98780454870029400D-04 -2.34940633158471300D-02 -3.32728441898501700D-02 -1.74078987784431900D-02  1.59733377103792900D-02
22 25 -4.36362132137198300D-02  0.00000000000000000D+00  1.45657499645793500D-02 -2.86251774559620200D-02  0.00000000000000000D+00
22 26  9.09603042420734300D-03  2.88085086796269700D-03  0.00000000000000000D+00 -2.25647615693729200D-03  2.58567641722368500D-03
22 27 -3.29200260286449700D-04  2.37638649252970000D-03  0.00000000000000000D+00  0.00000000000000000D+00 -3.42239793729202900D-03
22 28  4.08307667167015700D-03 -6.60678734378135000D-04  4.65500652709525500D-03  0.00000000000000000D+00  0.00000000000000000D+00
22 29  1.13228038265373200D-01  3.20731404269365400D-02 -1.15251361625200600D-02  7.51394584284010400D-03  0.00000000000000000D+00
22 30 -1.57067130214084400D-01 -5.97192200648916600D-02  2.01207791834438000D-03 -1.05353402991389000D-02  0.00000000000000000D+00
22 31  1.57064202726722700D-01  5.97190438387699600D-02  1.01293068145905400D-02  3.52613508691041600D-03  0.00000000000000000D+00
22 32 -1.13229079591889500D-01 -3.20741661386624600D-02 -1.22705989917999000D-02  6.22252527679193700D-03  0.00000000000000000D+00
23  1  0.00000000000000000D+00  0.00000000000000000D+00  0.00000000000000000D+00  0.00000000000000000D+00  0.00000000000000000D+00
23  2  1.54923836624711700D-01  0.00000000000000000D+00  0.00000000000000000D+00  7.32281108158206000D-02  0.00000000000000000D+00
23  3  0.00000000000000000D+00  0.00000000000000000D+00  0.00000000000000000D+00 -1.82840105595375900D-02  2.55421412909826300D-03
23  4  0.00000000000000000D+00  0.00000000000000000D+00  0.00000000000000000D+00  0.00000000000000000D+00  0.00000000000000000D+00
23  5 -1.54923488989968200D-01  0.00000000000000000D+00  0.00000000000000000D+00 -7.32274496975382900D-02  0.00000000000000000D+00
23  6  0.00000000000000000D+00  0.00000000000000000D+00  0.00000000000000000D+00 -1.13556342092436300D-02  1.45564468194183800D-02
23  7  0.00000000000000000D+00  0.00000000000000000D+00  0.00000000000000000D+00  0.00000000000000000D+00  0.00000000000000000D+00
23  8 -2.90790233073078700D-01  0.00000000000000000D+00  0.00000000000000000D+00 -2.25010658244933500D-01  0.00000000000000000D+00
23  9  0.00000000000000000D+00  0.00000000000000000D+00  0.00000000000000000D+00  1.69921099737875000D-02 -3.04258656979363100D-03
23 10  0.00000000000000000D+00  0.00000000000000000D+00  0.00000000000000000D+00  0.00000000000000000D+00  0.00000000000000000D+00
23 11 -1.93183703975270400D-01  0.00000000000000000D+00  0.00000000000000000D+00 -1.62832878195263500D-01  0.00000000000000000D+00
23 12  0.00000000000000000D+00  0.00000000000000000D+00  0.00000000000000000D+00 -2.72048246025404200D-02 -6.64580532333330100D-03
23 13  0.00000000000000000D+00  0.00000000000000000D+00  0.00000000000000000D+00  0.00000000000000000D+00  0.00000000000000000D+00
23 14  1.93179149509772700D-01  0.00000000000000000D+00  0.00000000000000000D+00  1.62826024360369500D-01  0.00000000000000000D+00
23 15  0.00000000000000000D+00  0.00000000000000000D+00  0.00000000000000000D+00 -7.85019847425043700D-03  2.68826033007650200D-02
23 16  0.00000000000000000D+00  0.00000000000000000D+00  0.00000000000000000D+00  0.00000000000000000D+00  0.00000000000000000D+00
23 17  2.90787824970377700D-01  0.00000000000000000D+00  0.00000000000000000D+00  2.25006039483731400D-01  0.00000000000000000D+00
23 18  0.00000000000000000D+00  0.00000000000000000D+00  0.00000000000000000D+00  1.11323410206692400D-02 -1.31929398182859000D-02
23 19  0.00000000000000000D+00  0.00000000000000000D+00  0.00000000000000000D+00  0.00000000000000000D+00  0.00000000000000000D+00
23 20  0.00000000000000000D+00  1.19428175823523500D-01  0.00000000000000000D+00  0.00000000000000000D+00  7.66227174299997100D-02
23 21  0.00000000000000000D+00  0.00000000000000000D+00  4.83983029040252100D-03  0.00000000000000000D+00  0.00000000000000000D+00
23 22  0.00000000000000000D+00  0.00000000000000000D+00 -7.74710422061537200D-04 -8.32180815481269900D-03  0.00000000000000000D+00
23 23  0.00000000000000000D+00  0.00000000000000000D+00  0.00000000000000000D+00  1.02565006816205300D-03 -9.83132722725232000D-03
23 24  0.00000000000000000D+00  0.00000000000000000D+00  0.00000000000000000D+00  0.00000000000000000D+00  0.00000000000000000D+00
23 25  0.00000000000000000D+00 -1.19425491945671500D-01  0.00000000000000000D+00  0.00000000000000000D+00 -7.66198550369630900D-02
23 26  0.00000000000000000D+00  0.00000000000000000D+00 -4.83916787719380400D-03  0.00000000000000000D+00  0.00000000000000000D+00
23 27  0.00000000000000000D+00  0.00000000000000000D+00  6.81908047321633700D-03  4.83256974205205300D-03  0.00000000000000000D+00
23 28  0.00000000000000000D+00  0.00000000000000000D+00  0.00000000000000000D+00  9.02625710189083000D-03  4.02816694222245800D-03
23 29  0.00000000000000000D+00  0.00000000000000000D+00  0.00000000000000000D+00  0.00000000000000000D+00 -1.04282760554000000D-02
23 30  0.00000000000000000D+00  0.00000000000000000D+00  0.00000000000000000D+00  0.00000000000000000D+00 -6.61481906928484200D-03
23 31  0.00000000000000000D+00  0.00000000000000000D+00  0.00000000000000000D+00  0.00000000000000000D+00  6.61451917283636500D-03
23 32  0.00000000000000000D+00  0.00000000000000000D+00  0.00000000000000000D+00  0.00000000000000000D+00  1.04280606512615100D-02
24  1 -3.03575459722037100D-03  1.36978921474954000D-01  1.56325905174241200D-01  2.34164134489243400D-01 -1.69163376908256800D-01
24  2  0.00000000000000000D+00  4.75194467647127300D-02 -7.95395831285184200D-02  0.00000000000000000D+00  1.14381285582712600D-02
24  3 -6.29629148545856600D-03 -5.14183707281273100D-03 -1.57375324687474200D-02  0.00000000000000000D+00  0.00000000000000000D+00
24  4 -3.03589056671747300D-03  1.36976071261058800D-01  1.56320159925559800D-01 -2.63591469603863800D-01  1.18190927389144200D-01
24  5  0.00000000000000000D+00 -9.26402496769710600D-02  1.37515331586701600D-03  0.00000000000000000D+00  9.94361602318800800D-03
24  6 -4.80160624933641000D-03 -5.14200977385150100D-03 -1.67336392736398000D-02  0.00000000000000000D+00  0.00000000000000000D+00
24  7  6.34884439006371200D-03 -1.08688129471179800D-01 -1.25055660586871700D-01 -4.88838156256017900D-02  2.81093004870878600D-02
24  8  0.00000000000000000D+00 -1.11366129689530900D-03 -2.01365350277384500D-02  0.00000000000000000D+00 -1.13700100507372900D-02
24  9  9.11302482753878000D-03  2.25698522319850800D-03 -3.66693367507480800D-03  0.00000000000000000D+00  0.00000000000000000D+00
24 10  8.41655434625991400D-04 -2.28220407819655600D-02 -7.74259957285387800D-03  2.60550369206068600D-02 -1.51846737705949100D-01
24 11  0.00000000000000000D+00  1.19274338515992800D-02 -5.40460255662789800D-02  0.00000000000000000D+00 -7.39260925866552500D-03
24 12  5.45457531181279700D-03  1.93803394685273300D-03  6.36169733163470200D-03  0.00000000000000000D+00  0.00000000000000000D+00
24 13  8.41671884087587100D-04 -2.28186406298550300D-02 -7.73524742450807000D-03 -1.44531554822098000D-01 -5.33818481079627600D-02
24 14  0.00000000000000000D+00 -5.27690131113109200D-02 -1.67040571035818800D-02  0.00000000000000000D+00 -2.52906285351162600D-03
24 15  5.91052469649187200D-04  1.93801038386248900D-03  9.60594852952812800D-03  0.00000000000000000D+00  0.00000000000000000D+00
24 16  6.34927765765278900D-03 -1.08694223575683000D-01 -1.25061437144787700D-01  4.87999937804341400D-02 -2.82719948164456900D-02
24 17  0.00000000000000000D+00 -1.68756757841447800D-02 -1.10347582587891500D-02  0.00000000000000000D+00  6.74128816995414100D-03
24 18 -8.99808300278108300D-03  2.25679483282693500D-03  8.41143593826555600D-03  0.00000000000000000D+00  0.00000000000000000D+00
24 19 -4.51268028003214200D-04 -4.25564812809405800D-02 -2.80329770310399000D-02  8.73909670446769600D-03  1.22604214880423300D-01
24 20  5.90491717580653000D-02  0.00000000000000000D+00  7.41033208561317200D-02  3.36172105475755900D-02  0.00000000000000000D+00
24 21 -1.26506710566158700D-03  6.23085755801534900D-03  0.00000000000000000D+00  1.47501259036862600D-03 -3.13271365079029400D-03
24 22  1.65770106042179200D-03 -8.18768590732147700D-03  0.00000000000000000D+00  0.00000000000000000D+00 -1.57143494317361500D-03
24 23 -2.45585478853890100D-05  1.59599349105899300D-03 -8.87362025021644200D-03  0.00000000000000000D+00  0.00000000000000000D+00
24 24 -4.51276582184293000D-04 -4.25549154205368500D-02 -2.80318752649056400D-02  8.73773674305343900D-03 -1.01850198550894200D-02
24 25  1.35704055108353800D-01  0.00000000000000000D+00 -7.95108895053543900D-03  8.09845075863747100D-02  0.00000000000000000D+00
24 26  6.02856499614773700D-03  2.02041369835234300D-03  0.00000000000000000D+00  4.16152188418751800D-03 -5.81914242648007600D-03
24 27  1.65762054229258200D-03 -6.39658389675331000D-03  0.00000000000000000D+00  0.00000000000000000D+00  6.24492056546290800D-03
24 28 -7.84095900552918600D-03  1.59603844006627900D-03 -3.66167216054649100D-03  0.00000000000000000D+00  0.00000000000000000D+00
24 29 -1.06611451588834300D-01 -3.19549912461676200D-02  1.01011238396118500D-02 -3.85040836179607900D-03  0.00000000000000000D+00
24 30  1.17615869422644800D-01  4.12633767754437500D-02  1.57232201121753700D-03  7.61166417236716500D-03  0.00000000000000000D+00
24 31  1.17628463029548600D-01  4.12693940409374600D-02  5.80592049288289000D-03  5.16827581554641800D-03  0.00000000000000000D+00
24 32 -1.06623174075263000D-01 -3.19589953274922100D-02 -8.38658617749345000D-03  6.82246413351772100D-03  0.00000000000000000D+00
25  1 -1.67160177024050100D-03  1.04693046283327100D-01  1.38526828346666700D-01 -1.67412835590093300D-01 -1.65850942508232800D-01
25  2  0.00000000000000000D+00  7.45052040913797100D-03 -6.62737623488769300D-02  0.00000000000000000D+00  1.42061999170360900D-02
25  3 -1.49024469012601700D-02  6.96246984224061200D-04  7.89475265242469900D-03  0.00000000000000000D+00  0.00000000000000000D+00
25  4  1.67202550268152500D-03 -1.04700948489022500D-01 -1.38536782328744000D-01  5.99161222890078300D-02  2.27909814698694800D-01
25  5  0.00000000000000000D+00  6.11237104748698800D-02  2.66911848590161900D-02  0.00000000000000000D+00  1.35439652012655300D-02
25  6 -1.28480829364480500D-02 -6.95882264817551700D-04  1.06116097753837600D-02  0.00000000000000000D+00  0.00000000000000000D+00
25  7 -2.32664604061087400D-03  3.27067008857383600D-02  1.36492754697973600D-02 -1.72968829673653900D-02 -2.69753250016865700D-01
25  8  0.00000000000000000D+00 -9.69824270120761600D-03 -1.23284537900767500D-01  0.00000000000000000D+00  2.09175181110135000D-02
25  9 -2.49931021352146100D-02  4.07558402420099800D-03 -1.04381983880395900D-03  0.00000000000000000D+00  0.00000000000000000D+00
25 10  5.13855338055821700D-04  1.64956568404885500D-03 -2.26933934417141400D-02  1.07792736980951700D-01  1.36418559248943200D-01
25 11  0.00000000000000000D+00  3.47444800091381200D-02  6.59280347589724200D-02  0.00000000000000000D+00  2.50155191452704900D-02
25 12 -2.39017788542940600D-02 -1.11374029097639900D-03  1.54295835463216500D-03  0.00000000000000000D+00  0.00000000000000000D+00
25 13 -5.13654153171355800D-04 -1.64823663562534700D-03  2.26942328011764900D-02 -6.42256184817858000D-02 -1.61559455629919600D-01
25 14  0.00000000000000000D+00 -3.97186486671077300D-02 -6.30549222173865000D-02  0.00000000000000000D+00  1.28256466790706400D-02
25 15 -1.39393453400947800D-02  1.11369866102410500D-03  2.36903082763578500D-02  0.00000000000000000D+00  0.00000000000000000D+00
25 16  2.32645221965989300D-03 -3.27002050327132700D-02 -1.36395332630753900D-02  2.24945406451630600D-01  1.49877725812963500D-01
25 17  0.00000000000000000D+00  1.01914510539204400D-01  7.00488461134286100D-02  0.00000000000000000D+00  1.27274386487917800D-02
25 18 -8.65160951051141500D-03 -4.07582913828045100D-03  2.34800011074417600D-02  0.00000000000000000D+00  0.00000000000000000D+00
25 19 -1.65191512688084300D-04 -2.88375065278028300D-02 -1.24813186466713700D-02  1.26652356260166900D-02 -1.06412862304727100D-01
25 20  9.50418885026000800D-02  0.00000000000000000D+00 -7.41294183136165800D-02  5.29613055494180900D-02  0.00000000000000000D+00
25 21 -1.79235528248571100D-03  6.95131105785208200D-03  0.00000000000000000D+00  2.53734828920375300D-03 -4.82833767042755300D-03
25 22  2.29098938122377700D-03  6.05554305159653600D-03  0.00000000000000000D+00  0.00000000000000000D+00 -1.91822731780843300D-04
25 23  1.55076649025643600D-03 -1.35894375847570900D-03  8.27059755056852900D-03  0.00000000000000000D+00  0.00000000000000000D+00
25 24  1.65259304037712100D-04  2.88403912743165100D-02  1.24824049274192500D-02 -1.26659623499765800D-02 -1.35519557939880600D-01
25 25  4.46140839634961900D-02  0.00000000000000000D+00 -8.29332775150446200D-02  3.77044146422927200D-02  0.00000000000000000D+00
25 26 -6.91619406016480100D-03 -1.92453311707765500D-03  0.00000000000000000D+00  7.52842149921500600D-03 -5.23730107425529400D-03
25 27 -2.29112042495968900D-03  6.56965431274196300D-04  0.00000000000000000D+00  0.00000000000000000D+00  5.08810016349305700D-03
25 28 -6.44704268915077700D-03  1.35894252565770800D-03 -5.00512869437942300D-03  0.00000000000000000D+00  0.00000000000000000D+00
25 29  1.28500887825790400D-01  3.89139159530113900D-02 -1.18519999649172600D-02 -1.48088716592937300D-03  0.00000000000000000D+00
25 30 -1.44084707740529500D-01 -6.79691906267851900D-02  2.52642423915792700D-03 -6.77128207603056600D-03  0.00000000000000000D+00
25 31  1.44080816910372300D-01  6.79696435191985800D-02  7.12682711561738900D-03  1.19822785300243000D-03  0.00000000000000000D+00
25 32 -1.28498457484839100D-01 -3.89142275320647400D-02 -4.64462551021231400D-03  1.10036672693370600D-02  0.00000000000000000D+00
26  1 -1.10506911804923100D-04 -4.24617726982527100D-02 -1.03776580786766100D-02  2.43687583176902000D-01  6.39718867488043400D-02
26  2  0.00000000000000000D+00  6.03339319140873300D-02  3.49456268314311700D-03  0.00000000000000000D+00  5.54596578611279400D-03
26  3 -5.08475456446596200D-03 -4.61211221646922500D-04  1.43808497397569000D-03  0.00000000000000000D+00  0.00000000000000000D+00
26  4 -1.10429944447055700D-04 -4.24601728703582500D-02 -1.03775636475823300D-02 -6.64686898440376200D-02  2.43020114294405300D-01
26  5  0.00000000000000000D+00 -2.71438619751702000D-02  5.39936334103732800D-02  0.00000000000000000D+00 -3.50535244584991900D-03
26  6  3.96648385773110000D-03 -4.61131411881173800D-04 -4.59642129218758700D-03  0.00000000000000000D+00  0.00000000000000000D+00
26  7 -1.12237444616215900D-03  1.97285561048076500D-02 -2.16106254804746700D-02  5.85210423324749700D-02 -2.04359770599483800D-01
26  8  0.00000000000000000D+00  5.63628652159699300D-02 -9.99267745292557900D-02  0.00000000000000000D+00  1.94962514793091800D-02
26  9 -2.30869873742712300D-02  3.59073589496207600D-03 -8.29884555589297800D-03  0.00000000000000000D+00  0.00000000000000000D+00
26 10 -1.20327372440665400D-03  3.11489608925471500D-02  4.17375759253288300D-02 -3.33003916532201300D-02  1.47120430658402000D-01
26 11  0.00000000000000000D+00 -1.46236857002523400D-02  8.02190977130449500D-02  0.00000000000000000D+00  1.26708763296595900D-02
26 12 -1.08413248730704000D-02 -1.82955145658912600D-03 -1.22484196137714600D-02  0.00000000000000000D+00  0.00000000000000000D+00
26 13 -1.20325213606064800D-03  3.11465997775256700D-02  4.17354018217450400D-02  1.44056018568303600D-01  4.47339084878852600D-02
26 14  0.00000000000000000D+00  7.67810003195816000D-02  2.74556787923320800D-02  0.00000000000000000D+00  4.22609092144814700D-03
26 15 -2.39659176784522700D-03 -1.82949915360307200D-03 -1.78804460191975100D-02  0.00000000000000000D+00  0.00000000000000000D+00
26 16 -1.12215032872311600D-03  1.97281048923836700D-02 -2.16131287589793100D-02 -2.06235909321171300D-01 -5.15199288784826100D-02
26 17  0.00000000000000000D+00 -1.14722296709689200D-01 -1.16053446459857100D-03  0.00000000000000000D+00 -6.21191668310442400D-03
26 18  2.62101103982217500D-03  3.59090564328212200D-03 -2.54425386749691500D-02  0.00000000000000000D+00  0.00000000000000000D+00
26 19 -4.65853563576123900D-05  1.23079175360664000D-02  5.79388836330184700D-03  1.81762520090746400D-03  2.01042562194311500D-01
26 20 -1.75665597691036800D-02  0.00000000000000000D+00  1.27778785743793100D-01 -8.40362704085925400D-03  0.00000000000000000D+00
26 21  3.10803650185376400D-03 -2.82802738687263500D-03  0.00000000000000000D+00 -2.72895237728173700D-04  1.19963443382458900D-03
26 22 -9.26739196096500600D-04 -1.04530551016904100D-02  0.00000000000000000D+00  0.00000000000000000D+00  1.01264706495794000D-04
26 23  9.71774742010293000D-06 -1.10982453915800800D-04 -1.04152677740929600D-02  0.00000000000000000D+00  0.00000000000000000D+00
26 24 -4.65748125719010100D-05  1.23076646198303800D-02  5.79264650854791200D-03  1.81703635745408200D-03 -1.15755223703897500D-01
26 25  1.65316536809627200D-01  0.00000000000000000D+00 -7.11802145127312400D-02  1.06452987964954200D-01  0.00000000000000000D+00
26 26 -4.00320701680577700D-03  1.27718458729501600D-03  0.00000000000000000D+00  8.67240448067594200D-03 -7.74563752659892900D-03
26 27 -9.26766954077047900D-04 -4.48840742182324900D-03  0.00000000000000000D+00  0.00000000000000000D+00  7.84506444805700900D-03
26 28 -7.73405913228883700D-03 -1.11005315768160300D-04 -5.25151230678859800D-03  0.00000000000000000D+00  0.00000000000000000D+00
26 29  1.59450217808911700D-01  5.18662449949979800D-02 -1.19026661010733700D-02  1.03630916869646000D-03  0.00000000000000000D+00
26 30 -1.20653680401168100D-01 -4.85887574986503800D-02 -3.07703586271444600D-03 -6.73149901230966000D-03  0.00000000000000000D+00
26 31 -1.20656517539316000D-01 -4.85911134454173700D-02 -4.29065513512208600D-03 -6.03104632161405000D-03  0.00000000000000000D+00
26 32  1.59452126886404000D-01  5.18678468030856000D-02  6.85003718671577500D-03 -9.78904295144045400D-03  0.00000000000000000D+00
27  1  1.24206022651403500D-03 -7.90352393856715600D-02 -9.63433186035470400D-02 -2.94248297397878700D-02  6.34956972536863400D-02
27  2  0.00000000000000000D+00  6.02665440188614500D-02  4.96718263055765500D-02  0.00000000000000000D+00 -2.44819742861396700D-03
27  3  4.11900155197631300D-03 -1.67080412336217800D-03 -5.09627602774489100D-02  0.00000000000000000D+00  0.00000000000000000D+00
27  4 -1.24210216763471900D-03  7.90344040427501400D-02  9.63409978634575400D-02 -6.96975971143792800D-02 -6.27738571805166500D-03
27  5  0.00000000000000000D+00 -1.28734418630202800D-02 -7.70322047168458400D-02  0.00000000000000000D+00 -4.07043656023644900D-02
27  6  3.90335439569867500D-02  1.67082164537794000D-03  2.21890466914662200D-02  0.00000000000000000D+00  0.00000000000000000D+00
27  7 -2.62524044215974700D-03  3.31033467448020100D-02  4.10928074329270400D-02  2.66991351315550200D-02  9.77793469775179200D-02
27  8  0.00000000000000000D+00 -3.07853816025947700D-02  2.42036199367595600D-04  0.00000000000000000D+00 -5.00469164393259600D-03
27  9  4.95142155786741800D-03  5.32700860650949400D-05 -1.67392936878534800D-03  0.00000000000000000D+00  0.00000000000000000D+00
27 10 -4.50346189893321500D-04 -1.61409965142602600D-02 -4.38330518423426700D-02 -3.84158904170260500D-02 -3.06965550027291600D-02
27 11  0.00000000000000000D+00 -5.98798016090160500D-02 -2.51827738161693000D-02  0.00000000000000000D+00 -7.38981593820177200D-03
27 12  7.35967804839583700D-03  3.01378898057152900D-05 -1.68062321790230400D-04  0.00000000000000000D+00  0.00000000000000000D+00
27 13  4.50268719817897200D-04  1.61403443588676800D-02  4.38348896839092800D-02  7.37007536190999800D-03  4.86162011787911700D-02
27 14  0.00000000000000000D+00 -8.13792394134755500D-03  6.44478498255649200D-02  0.00000000000000000D+00 -3.79718169327757600D-03
27 15  3.82732545996138200D-03 -3.01437666837879100D-05 -7.29128472905069300D-03  0.00000000000000000D+00  0.00000000000000000D+00
27 16  2.62520321394460700D-03 -3.31014758845123400D-02 -4.10933802654460200D-02 -7.13168101452670400D-02 -7.20171110261710500D-02
27 17  0.00000000000000000D+00 -1.56016955345902400D-02  2.65411318416318700D-02  0.00000000000000000D+00 -3.71711121762700600D-03
27 18  3.77036618998810800D-03 -5.32549723613339500D-05 -4.14152601971493800D-03  0.00000000000000000D+00  0.00000000000000000D+00
27 19 -1.09048768166230700D-04  8.47548048664744700D-03  4.06642440149373800D-03 -1.34000058021501400D-02 -4.40284575479605900D-01
27 20 -5.73266572376579700D-03  0.00000000000000000D+00 -3.16004082619167300D-01 -2.02486720182630800D-03  0.00000000000000000D+00
27 21 -5.26110597295680800D-02 -1.03755533644293000D-03  0.00000000000000000D+00  1.03331086851013700D-03 -7.29548399442020000D-04
27 22 -3.03762469067991600D-04  1.08135236586831200D-02  0.00000000000000000D+00  0.00000000000000000D+00  6.28778066966710700D-03
27 23 -4.53874995971274100D-03 -1.74903070995435000D-03  1.21318919453429000D-02  0.00000000000000000D+00  0.00000000000000000D+00
27 24  1.09054058609021400D-04 -8.47550187553711000D-03 -4.06626250354367300D-03  1.33997309252460100D-02 -2.15218724341281200D-01
27 25  3.84144243600152300D-01  0.00000000000000000D+00 -1.56278258018289200D-01  2.74665981842188900D-01  0.00000000000000000D+00
27 26 -2.54120737176552200D-02  4.60792938138267600D-02  0.00000000000000000D+00  8.39983417011408300D-03 -8.70361748511574300D-03
27 27  3.03783315001695700D-04 -4.52336393145131000D-03  0.00000000000000000D+00  0.00000000000000000D+00  1.09310305193684700D-02
27 28 -1.26800781373521000D-02  1.74904761798365000D-03 -6.49676626355768800D-04  0.00000000000000000D+00  0.00000000000000000D+00
27 29  1.47383698989491300D-04  7.53930381417851900D-03 -3.66586078048394800D-04  1.40818962667538200D-03  0.00000000000000000D+00
27 30  2.92535287009927800D-02  1.98144695783442700D-02 -3.24565332397744100D-04  2.18468884833022500D-04  0.00000000000000000D+00
27 31 -2.92523101411192300D-02 -1.98141972374113400D-02 -3.51447628575747800D-04  1.71886830964410500D-04  0.00000000000000000D+00
27 32 -1.48838671727154800D-04 -7.53988515339647800D-03 -1.40274196561516400D-03 -3.86857506758382900D-04  0.00000000000000000D+00
28  1  1.01327465998872000D-03 -4.11582728869347100D-02 -6.37363100317182400D-02 -2.15950808659093100D-01  5.90751813548703700D-02
28  2  0.00000000000000000D+00 -1.22187269442127100D-01  5.31877379952496200D-02  0.00000000000000000D+00 -5.36570676689194700D-03
28  3  7.03272342236840900D-03 -1.66701665547649800D-03  5.52331720567993700D-02  0.00000000000000000D+00  0.00000000000000000D+00
28  4  1.01330294119663500D-03 -4.11590346572829500D-02 -6.37369501666196900D-02  1.59152304927176400D-01 -1.57463462729521300D-01
28  5  0.00000000000000000D+00  1.07161869079612500D-01 -7.92113544579491900D-02  0.00000000000000000D+00 -3.74977970552047700D-02
28  6  3.91648303606048700D-02 -1.66703330540001700D-03  3.38062931928063400D-02  0.00000000000000000D+00  0.00000000000000000D+00
28  7 -1.99241122047956900D-03  6.44607072381484100D-02  1.28788886668717100D-01 -1.33480976596673500D-03  1.63426460549061700D-01
28  8  0.00000000000000000D+00 -5.08908045033508900D-02  8.31490356088879100D-02  0.00000000000000000D+00 -8.12109799405541900D-03
28  9  7.74859713503837100D-03  3.72500859016994900D-04  1.11435488207349100D-02  0.00000000000000000D+00  0.00000000000000000D+00
28 10  2.28743247968106100D-04 -1.89271101775516100D-02 -6.44748635982554400D-02 -5.98126812561204600D-03 -3.73986078107467500D-02
28 11  0.00000000000000000D+00 -1.83549607838599900D-02 -3.57087253626085300D-02  0.00000000000000000D+00 -7.46875338025719500D-03
28 12  7.13673235640982900D-03  3.32021023847400600D-04  7.29715010917950600D-03  0.00000000000000000D+00  0.00000000000000000D+00
28 13  2.28629616419622400D-04 -1.89266348575098600D-02 -6.44752668403524600D-02 -2.93948810543824300D-02 -2.38820891969805800D-02
28 14  0.00000000000000000D+00 -2.17433398337174900D-02 -3.37542201316364100D-02  0.00000000000000000D+00 -1.98950245255396600D-03
28 15  1.65747674502102500D-03  3.32025707532883600D-04  1.09513688817203800D-02  0.00000000000000000D+00  0.00000000000000000D+00
28 16 -1.99254635001492300D-03  6.44599809990308600D-02  1.28791163306871200D-01  1.42189765306614300D-01  8.05737007183965500D-02
28 17  0.00000000000000000D+00  9.74548667203187500D-02 -2.48968011504716100D-03  0.00000000000000000D+00 -4.57924094314892200D-03
28 18  4.20675780099837500D-03  3.72483142150625500D-04  1.35056047581491700D-02  0.00000000000000000D+00  0.00000000000000000D+00
28 19 -7.95276143211202900D-05  1.16168579836840100D-03 -1.21476126454590300D-02 -2.47648771291331200D-02  3.79149899074441100D-01
28 20 -3.57029856077624200D-02  0.00000000000000000D+00  2.98805758528960700D-01 -2.04089235947540300D-02  0.00000000000000000D+00
28 21  6.08241024404563800D-02 -2.61878709056140200D-03  0.00000000000000000D+00 -2.43151703759346400D-04  1.00583441440731900D-03
28 22 -7.62682710648084900D-04 -4.35885657092907300D-03  0.00000000000000000D+00  0.00000000000000000D+00  1.31306607192303800D-03
28 23 -2.98211269135154900D-04 -1.01485480278793400D-03 -1.10466067243152200D-02  0.00000000000000000D+00  0.00000000000000000D+00
28 24 -7.95657647326917800D-05  1.16173894712354900D-03 -1.21471366565051500D-02 -2.47642108693467600D-02 -2.20522712187215200D-01
28 25  3.10473906337426000D-01  0.00000000000000000D+00 -1.67100521575206400D-01  2.48547999920868400D-01  0.00000000000000000D+00
28 26 -3.26852621531869100D-02  5.13618807534787600D-02  0.00000000000000000D+00  3.96297541536504100D-03 -3.20025996865725600D-03
28 27 -7.62715446707856000D-04 -1.55403827577493000D-03  0.00000000000000000D+00  0.00000000000000000D+00  8.39024333768721700D-03
28 28 -7.37546236959124900D-03 -1.01478096809589900D-03 -6.32688871003234800D-03  0.00000000000000000D+00  0.00000000000000000D+00
28 29 -5.21165141523273700D-02 -2.62956128344389500D-02  4.69080965941566300D-04  1.10886887537548600D-03  0.00000000000000000D+00
28 30  3.50039958757610300D-02  2.27709329800625600D-02  1.13168085342943600D-03  4.74881345927454700D-04  0.00000000000000000D+00
28 31  3.50052832761100900D-02  2.27722107295000100D-02 -1.54667413576930900D-04  1.21751516934324700D-03  0.00000000000000000D+00
28 32 -5.21174820141607800D-02 -2.62964396557077300D-02  7.25655025605349700D-04  9.60906123418922100D-04  0.00000000000000000D+00
29  1  0.00000000000000000D+00  0.00000000000000000D+00  0.00000000000000000D+00  0.00000000000000000D+00  0.00000000000000000D+00
29  2  2.84308276227711500D-01  0.00000000000000000D+00  0.00000000000000000D+00  2.78524091970700800D-01  0.00000000000000000D+00
29  3  0.00000000000000000D+00  0.00000000000000000D+00  0.00000000000000000D+00  8.95197022650448900D-03 -3.89411612182377400D-02
29  4  0.00000000000000000D+00  0.00000000000000000D+00  0.00000000000000000D+00  0.00000000000000000D+00  0.00000000000000000D+00
29  5  2.84300540442463000D-01  0.00000000000000000D+00  0.00000000000000000D+00  2.78517783971794900D-01  0.00000000000000000D+00
29  6  0.00000000000000000D+00  0.00000000000000000D+00  0.00000000000000000D+00 -3.81991811568231900D-02 -1.17220397901679600D-02
29  7  0.00000000000000000D+00  0.00000000000000000D+00  0.00000000000000000D+00  0.00000000000000000D+00  0.00000000000000000D+00
29  8  7.70539986795805600D-02  0.00000000000000000D+00  0.00000000000000000D+00  6.43867513199900500D-02  0.00000000000000000D+00
29  9  0.00000000000000000D+00  0.00000000000000000D+00  0.00000000000000000D+00  7.24501201294578100D-03  2.26378262533583000D-02
29 10  0.00000000000000000D+00  0.00000000000000000D+00  0.00000000000000000D+00  0.00000000000000000D+00  0.00000000000000000D+00
29 11 -1.49522764458687900D-01  0.00000000000000000D+00  0.00000000000000000D+00 -1.44935013816492400D-01  0.00000000000000000D+00
29 12  0.00000000000000000D+00  0.00000000000000000D+00  0.00000000000000000D+00  1.08843992877164200D-02 -1.50662772926307700D-03
29 13  0.00000000000000000D+00  0.00000000000000000D+00  0.00000000000000000D+00  0.00000000000000000D+00  0.00000000000000000D+00
29 14 -1.49523365330741600D-01  0.00000000000000000D+00  0.00000000000000000D+00 -1.44936054004927400D-01  0.00000000000000000D+00
29 15  0.00000000000000000D+00  0.00000000000000000D+00  0.00000000000000000D+00 -6.74767173347822100D-03  8.67217270979559300D-03
29 16  0.00000000000000000D+00  0.00000000000000000D+00  0.00000000000000000D+00  0.00000000000000000D+00  0.00000000000000000D+00
29 17  7.70509194000179000D-02  0.00000000000000000D+00  0.00000000000000000D+00  6.43849202987082900D-02  0.00000000000000000D+00
29 18  0.00000000000000000D+00  0.00000000000000000D+00  0.00000000000000000D+00  1.59808698785154100D-02  1.75955527054183400D-02
29 19  0.00000000000000000D+00  0.00000000000000000D+00  0.00000000000000000D+00  0.00000000000000000D+00  0.00000000000000000D+00
29 20  0.00000000000000000D+00 -3.14299942623833500D-01  0.00000000000000000D+00  0.00000000000000000D+00 -2.69777820378063200D-01
29 21  0.00000000000000000D+00  0.00000000000000000D+00 -5.46103769299276500D-02  0.00000000000000000D+00  0.00000000000000000D+00
29 22  0.00000000000000000D+00  0.00000000000000000D+00  3.17438264379102600D-04 -3.20390152028874300D-03  0.00000000000000000D+00
29 23  0.00000000000000000D+00  0.00000000000000000D+00  0.00000000000000000D+00 -2.03462897555737200D-03  5.13349084642584500D-03
29 24  0.00000000000000000D+00  0.00000000000000000D+00  0.00000000000000000D+00  0.00000000000000000D+00  0.00000000000000000D+00
29 25  0.00000000000000000D+00 -3.14295759574219700D-01  0.00000000000000000D+00  0.00000000000000000D+00 -2.69775848560839400D-01
29 26  0.00000000000000000D+00  0.00000000000000000D+00 -5.46105632588810500D-02  0.00000000000000000D+00  0.00000000000000000D+00
29 27  0.00000000000000000D+00  0.00000000000000000D+00 -2.93307102822359900D-03 -1.32723551736774500D-03  0.00000000000000000D+00
29 28  0.00000000000000000D+00  0.00000000000000000D+00  0.00000000000000000D+00  5.46313733081683600D-03  8.05353090542620200D-04
29 29  0.00000000000000000D+00  0.00000000000000000D+00  0.00000000000000000D+00  0.00000000000000000D+00  2.38728420925031100D-03
29 30  0.00000000000000000D+00  0.00000000000000000D+00  0.00000000000000000D+00  0.00000000000000000D+00 -6.19542388102837900D-03
29 31  0.00000000000000000D+00  0.00000000000000000D+00  0.00000000000000000D+00  0.00000000000000000D+00 -6.19540747565172200D-03
29 32  0.00000000000000000D+00  0.00000000000000000D+00  0.00000000000000000D+00  0.00000000000000000D+00  2.38716081028097400D-03
30  1  0.00000000000000000D+00  0.00000000000000000D+00  0.00000000000000000D+00  0.00000000000000000D+00  0.00000000000000000D+00
30  2  4.05330569037744300D-01  0.00000000000000000D+00  0.00000000000000000D+00  4.66491150894967600D-01  0.00000000000000000D+00
30  3  0.00000000000000000D+00  0.00000000000000000D+00  0.00000000000000000D+00 -1.77996248608196100D-02  1.03597427728524300D-02
30  4  0.00000000000000000D+00  0.00000000000000000D+00  0.00000000000000000D+00  0.00000000000000000D+00  0.00000000000000000D+00
30  5 -4.05332488427866000D-01  0.00000000000000000D+00  0.00000000000000000D+00 -4.66493578188289800D-01  0.00000000000000000D+00
30  6  0.00000000000000000D+00  0.00000000000000000D+00  0.00000000000000000D+00 -1.78710331029560300D-02  1.02345227143345100D-02
30  7  0.00000000000000000D+00  0.00000000000000000D+00  0.00000000000000000D+00  0.00000000000000000D+00  0.00000000000000000D+00
30  8  1.18631352905485500D-02  0.00000000000000000D+00  0.00000000000000000D+00  7.28210260495964200D-02  0.00000000000000000D+00
30  9  0.00000000000000000D+00  0.00000000000000000D+00  0.00000000000000000D+00 -1.70288139072993500D-02 -2.92208282803690600D-02
30 10  0.00000000000000000D+00  0.00000000000000000D+00  0.00000000000000000D+00  0.00000000000000000D+00  0.00000000000000000D+00
30 11  1.45333253819468200D-01  0.00000000000000000D+00  0.00000000000000000D+00  1.88267018769491800D-01  0.00000000000000000D+00
30 12  0.00000000000000000D+00  0.00000000000000000D+00  0.00000000000000000D+00  1.08886927224598000D-02 -1.38490914826492700D-03
30 13  0.00000000000000000D+00  0.00000000000000000D+00  0.00000000000000000D+00  0.00000000000000000D+00  0.00000000000000000D+00
30 14 -1.45327282799282800D-01  0.00000000000000000D+00  0.00000000000000000D+00 -1.88259210540675500D-01  0.00000000000000000D+00
30 15  0.00000000000000000D+00  0.00000000000000000D+00  0.00000000000000000D+00  6.64497006990699600D-03 -8.73743384271465400D-03
30 16  0.00000000000000000D+00  0.00000000000000000D+00  0.00000000000000000D+00  0.00000000000000000D+00  0.00000000000000000D+00
30 17 -1.18710356521556600D-02  0.00000000000000000D+00  0.00000000000000000D+00 -7.28265736220443200D-02  0.00000000000000000D+00
30 18  0.00000000000000000D+00  0.00000000000000000D+00  0.00000000000000000D+00  1.67879585690416800D-02  2.93593901284812800D-02
30 19  0.00000000000000000D+00  0.00000000000000000D+00  0.00000000000000000D+00  0.00000000000000000D+00  0.00000000000000000D+00
30 20  0.00000000000000000D+00 -3.49612509805035900D-01  0.00000000000000000D+00  0.00000000000000000D+00 -1.94442084084973800D-01
30 21  0.00000000000000000D+00  0.00000000000000000D+00  1.79933152539659600D-02  0.00000000000000000D+00  0.00000000000000000D+00
30 22  0.00000000000000000D+00  0.00000000000000000D+00  9.55668791964102300D-04 -1.21774544395452700D-02  0.00000000000000000D+00
30 23  0.00000000000000000D+00  0.00000000000000000D+00  0.00000000000000000D+00  4.53135094438357200D-03 -3.14578661164303900D-02
30 24  0.00000000000000000D+00  0.00000000000000000D+00  0.00000000000000000D+00  0.00000000000000000D+00  0.00000000000000000D+00
30 25  0.00000000000000000D+00  3.49613384287844800D-01  0.00000000000000000D+00  0.00000000000000000D+00  1.94447010176915500D-01
30 26  0.00000000000000000D+00  0.00000000000000000D+00 -1.79888577062636100D-02  0.00000000000000000D+00  0.00000000000000000D+00
30 27  0.00000000000000000D+00  0.00000000000000000D+00  1.10233006335411300D-02  5.26221502155026900D-03  0.00000000000000000D+00
30 28  0.00000000000000000D+00  0.00000000000000000D+00  0.00000000000000000D+00  2.95067933999246700D-02  1.18072664359201500D-02
30 29  0.00000000000000000D+00  0.00000000000000000D+00  0.00000000000000000D+00  0.00000000000000000D+00  7.16003337984041500D-04
30 30  0.00000000000000000D+00  0.00000000000000000D+00  0.00000000000000000D+00  0.00000000000000000D+00  5.63271294423228800D-03
30 31  0.00000000000000000D+00  0.00000000000000000D+00  0.00000000000000000D+00  0.00000000000000000D+00 -5.63243652356867100D-03
30 32  0.00000000000000000D+00  0.00000000000000000D+00  0.00000000000000000D+00  0.00000000000000000D+00 -7.16276834422106500D-04
31  1  0.00000000000000000D+00  0.00000000000000000D+00  0.00000000000000000D+00  0.00000000000000000D+00  0.00000000000000000D+00
31  2  1.02668326226456400D-01  0.00000000000000000D+00  0.00000000000000000D+00  9.60711587606254300D-02  0.00000000000000000D+00
31  3  0.00000000000000000D+00  0.00000000000000000D+00  0.00000000000000000D+00  4.90304809066028600D-02  1.36519617497720300D-01
31  4  0.00000000000000000D+00  0.00000000000000000D+00  0.00000000000000000D+00  0.00000000000000000D+00  0.00000000000000000D+00
31  5  1.02682046038344000D-01  0.00000000000000000D+00  0.00000000000000000D+00  9.60757208299348900D-02  0.00000000000000000D+00
31  6  0.00000000000000000D+00  0.00000000000000000D+00  0.00000000000000000D+00  9.37017928154638300D-02  1.10730314615173000D-01
31  7  0.00000000000000000D+00  0.00000000000000000D+00  0.00000000000000000D+00  0.00000000000000000D+00  0.00000000000000000D+00
31  8 -2.99176926600526900D-01  0.00000000000000000D+00  0.00000000000000000D+00 -3.56176525148046500D-01  0.00000000000000000D+00
31  9  0.00000000000000000D+00  0.00000000000000000D+00  0.00000000000000000D+00  1.35306173768819700D-03 -1.32654030901995500D-02
31 10  0.00000000000000000D+00  0.00000000000000000D+00  0.00000000000000000D+00  0.00000000000000000D+00  0.00000000000000000D+00
31 11  2.22417886641926900D-01  0.00000000000000000D+00  0.00000000000000000D+00  2.05536804923692400D-01  0.00000000000000000D+00
31 12  0.00000000000000000D+00  0.00000000000000000D+00  0.00000000000000000D+00 -2.40920344880783600D-02 -7.67275093872021900D-03
31 13  0.00000000000000000D+00  0.00000000000000000D+00  0.00000000000000000D+00  0.00000000000000000D+00  0.00000000000000000D+00
31 14  2.22418086258480700D-01  0.00000000000000000D+00  0.00000000000000000D+00  2.05542350773801900D-01  0.00000000000000000D+00
31 15  0.00000000000000000D+00  0.00000000000000000D+00  0.00000000000000000D+00  5.40310496837098000D-03 -2.47003796826426600D-02
31 16  0.00000000000000000D+00  0.00000000000000000D+00  0.00000000000000000D+00  0.00000000000000000D+00  0.00000000000000000D+00
31 17 -2.99171787809735600D-01  0.00000000000000000D+00  0.00000000000000000D+00 -3.56177988868233000D-01  0.00000000000000000D+00
31 18  0.00000000000000000D+00  0.00000000000000000D+00  0.00000000000000000D+00 -1.21651357107090800D-02 -5.46378450312088500D-03
31 19  0.00000000000000000D+00  0.00000000000000000D+00  0.00000000000000000D+00  0.00000000000000000D+00  0.00000000000000000D+00
31 20  0.00000000000000000D+00 -3.28075408840772100D-01  0.00000000000000000D+00  0.00000000000000000D+00  5.42021269901525000D-02
31 21  0.00000000000000000D+00  0.00000000000000000D+00  1.52184114178557200D-01  0.00000000000000000D+00  0.00000000000000000D+00
31 22  0.00000000000000000D+00  0.00000000000000000D+00 -2.74614624887800600D-03 -8.81480575603659600D-03  0.00000000000000000D+00
31 23  0.00000000000000000D+00  0.00000000000000000D+00  0.00000000000000000D+00 -1.86688122870496300D-03 -1.17080940826738600D-01
31 24  0.00000000000000000D+00  0.00000000000000000D+00  0.00000000000000000D+00  0.00000000000000000D+00  0.00000000000000000D+00
31 25  0.00000000000000000D+00 -3.28080940793472900D-01  0.00000000000000000D+00  0.00000000000000000D+00  5.41985487089499100D-02
31 26  0.00000000000000000D+00  0.00000000000000000D+00  1.52180743240191400D-01  0.00000000000000000D+00  0.00000000000000000D+00
31 27  0.00000000000000000D+00  0.00000000000000000D+00 -6.26031396391836400D-03 -6.78629685003490400D-03  0.00000000000000000D+00
31 28  0.00000000000000000D+00  0.00000000000000000D+00  0.00000000000000000D+00 -1.00456272010152900D-01 -6.01679005618305900D-02
31 29  0.00000000000000000D+00  0.00000000000000000D+00  0.00000000000000000D+00  0.00000000000000000D+00 -1.07408886737441700D-02
31 30  0.00000000000000000D+00  0.00000000000000000D+00  0.00000000000000000D+00  0.00000000000000000D+00  8.30236952481395700D-03
31 31  0.00000000000000000D+00  0.00000000000000000D+00  0.00000000000000000D+00  0.00000000000000000D+00  8.30229609104567300D-03
31 32  0.00000000000000000D+00  0.00000000000000000D+00  0.00000000000000000D+00  0.00000000000000000D+00 -1.07405302424448700D-02
32  1  0.00000000000000000D+00  0.00000000000000000D+00  0.00000000000000000D+00  0.00000000000000000D+00  0.00000000000000000D+00
32  2 -1.90532502661514000D-02  0.00000000000000000D+00  0.00000000000000000D+00 -1.44294913661358100D-01  0.00000000000000000D+00
32  3  0.00000000000000000D+00  0.00000000000000000D+00  0.00000000000000000D+00 -5.60898038746886200D-02 -1.65401974693923600D-01
32  4  0.00000000000000000D+00  0.00000000000000000D+00  0.00000000000000000D+00  0.00000000000000000D+00  0.00000000000000000D+00
32  5  1.90739056542828800D-02  0.00000000000000000D+00  0.00000000000000000D+00  1.44300618678695300D-01  0.00000000000000000D+00
32  6  0.00000000000000000D+00  0.00000000000000000D+00  0.00000000000000000D+00  1.15169825947094500D-01  1.31281198625148000D-01
32  7  0.00000000000000000D+00  0.00000000000000000D+00  0.00000000000000000D+00  0.00000000000000000D+00  0.00000000000000000D+00
32  8 -3.14914178062604700D-01  0.00000000000000000D+00  0.00000000000000000D+00 -3.05569169997670100D-01  0.00000000000000000D+00
32  9  0.00000000000000000D+00  0.00000000000000000D+00  0.00000000000000000D+00 -2.58160329600884000D-02 -3.32098938719080400D-02
32 10  0.00000000000000000D+00  0.00000000000000000D+00  0.00000000000000000D+00  0.00000000000000000D+00  0.00000000000000000D+00
32 11  3.52271287027311100D-01  0.00000000000000000D+00  0.00000000000000000D+00  4.54620103151790700D-01  0.00000000000000000D+00
32 12  0.00000000000000000D+00  0.00000000000000000D+00  0.00000000000000000D+00  2.46898183434706900D-02 -2.20832216034805300D-02
32 13  0.00000000000000000D+00  0.00000000000000000D+00  0.00000000000000000D+00  0.00000000000000000D+00  0.00000000000000000D+00
32 14 -3.52267828300186400D-01  0.00000000000000000D+00  0.00000000000000000D+00 -4.54620457598144000D-01  0.00000000000000000D+00
32 15  0.00000000000000000D+00  0.00000000000000000D+00  0.00000000000000000D+00  3.14697285948026100D-02 -1.03386700484702300D-02
32 16  0.00000000000000000D+00  0.00000000000000000D+00  0.00000000000000000D+00  0.00000000000000000D+00  0.00000000000000000D+00
32 17  3.14899176547484200D-01  0.00000000000000000D+00  0.00000000000000000D+00  3.05573623615378300D-01  0.00000000000000000D+00
32 18  0.00000000000000000D+00  0.00000000000000000D+00  0.00000000000000000D+00  1.58499623372474500D-02  3.89639866953238700D-02
32 19  0.00000000000000000D+00  0.00000000000000000D+00  0.00000000000000000D+00  0.00000000000000000D+00  0.00000000000000000D+00
32 20  0.00000000000000000D+00  2.75074033083841300D-01  0.00000000000000000D+00  0.00000000000000000D+00 -1.04584681341219200D-01
32 21  0.00000000000000000D+00  0.00000000000000000D+00 -1.81288206598259700D-01  0.00000000000000000D+00  0.00000000000000000D+00
32 22  0.00000000000000000D+00  0.00000000000000000D+00  1.37865283861205300D-03  1.61717927222923100D-02  0.00000000000000000D+00
32 23  0.00000000000000000D+00  0.00000000000000000D+00  0.00000000000000000D+00  1.78954983410678100D-02  9.86532785791893900D-02
32 24  0.00000000000000000D+00  0.00000000000000000D+00  0.00000000000000000D+00  0.00000000000000000D+00  0.00000000000000000D+00
32 25  0.00000000000000000D+00 -2.75054732747117600D-01  0.00000000000000000D+00  0.00000000000000000D+00  1.04570065048308100D-01
32 26  0.00000000000000000D+00  0.00000000000000000D+00  1.81269830469908200D-01  0.00000000000000000D+00  0.00000000000000000D+00
32 27  0.00000000000000000D+00  0.00000000000000000D+00 -1.33143031931705100D-02 -9.28100274180244400D-03  0.00000000000000000D+00
32 28  0.00000000000000000D+00  0.00000000000000000D+00  0.00000000000000000D+00 -7.64701413135064500D-02 -6.48279958588926500D-02
32 29  0.00000000000000000D+00  0.00000000000000000D+00  0.00000000000000000D+00  0.00000000000000000D+00 -1.04535132062860700D-02
32 30  0.00000000000000000D+00  0.00000000000000000D+00  0.00000000000000000D+00  0.00000000000000000D+00  9.86991838641510100D-03
32 31  0.00000000000000000D+00  0.00000000000000000D+00  0.00000000000000000D+00  0.00000000000000000D+00 -9.86978352070123900D-03
32 32  0.00000000000000000D+00  0.00000000000000000D+00  0.00000000000000000D+00  0.00000000000000000D+00  1.04527994303529400D-02
33  1  0.00000000000000000D+00  0.00000000000000000D+00  0.00000000000000000D+00  0.00000000000000000D+00  0.00000000000000000D+00
33  2  3.21622294678111700D-01  0.00000000000000000D+00  0.00000000000000000D+00  1.17595892044819700D-01  0.00000000000000000D+00
33  3  0.00000000000000000D+00  0.00000000000000000D+00  0.00000000000000000D+00  4.62323132465161700D-02 -2.81950835536244700D-01
33  4  0.00000000000000000D+00  0.00000000000000000D+00  0.00000000000000000D+00  0.00000000000000000D+00  0.00000000000000000D+00
33  5  3.21605967480392900D-01  0.00000000000000000D+00  0.00000000000000000D+00  1.17602850856968900D-01  0.00000000000000000D+00
33  6  0.00000000000000000D+00  0.00000000000000000D+00  0.00000000000000000D+00 -2.67283714030293800D-01 -1.00971723536264100D-01
33  7  0.00000000000000000D+00  0.00000000000000000D+00  0.00000000000000000D+00  0.00000000000000000D+00  0.00000000000000000D+00
33  8 -1.72701565575707100D-01  0.00000000000000000D+00  0.00000000000000000D+00 -2.19233843936244800D-01  0.00000000000000000D+00
33  9  0.00000000000000000D+00  0.00000000000000000D+00  0.00000000000000000D+00 -4.31448804336795800D-02 -1.16296743723573200D-03
33 10  0.00000000000000000D+00  0.00000000000000000D+00  0.00000000000000000D+00  0.00000000000000000D+00  0.00000000000000000D+00
33 11  9.86659225946846400D-02  0.00000000000000000D+00  0.00000000000000000D+00  1.23143369254578100D-01  0.00000000000000000D+00
33 12  0.00000000000000000D+00  0.00000000000000000D+00  0.00000000000000000D+00 -3.02420849559333200D-02 -5.23978682140117000D-02
33 13  0.00000000000000000D+00  0.00000000000000000D+00  0.00000000000000000D+00  0.00000000000000000D+00  0.00000000000000000D+00
33 14  9.86892073958697800D-02  0.00000000000000000D+00  0.00000000000000000D+00  1.23183319456397100D-01  0.00000000000000000D+00
33 15  0.00000000000000000D+00  0.00000000000000000D+00  0.00000000000000000D+00 -3.02540216221443600D-02 -5.23932044962931000D-02
33 16  0.00000000000000000D+00  0.00000000000000000D+00  0.00000000000000000D+00  0.00000000000000000D+00  0.00000000000000000D+00
33 17 -1.72723711779130900D-01  0.00000000000000000D+00  0.00000000000000000D+00 -2.19256173295991200D-01  0.00000000000000000D+00
33 18  0.00000000000000000D+00  0.00000000000000000D+00  0.00000000000000000D+00  2.05697640572541800D-02 -3.79474747920806100D-02
33 19  0.00000000000000000D+00  0.00000000000000000D+00  0.00000000000000000D+00  0.00000000000000000D+00  0.00000000000000000D+00
33 20  0.00000000000000000D+00  3.27756664836098800D-01  0.00000000000000000D+00  0.00000000000000000D+00 -2.41731440326371900D-01
33 21  0.00000000000000000D+00  0.00000000000000000D+00 -2.16859481910855200D-01  0.00000000000000000D+00  0.00000000000000000D+00
33 22  0.00000000000000000D+00  0.00000000000000000D+00 -5.30303147789406700D-03  1.80256509131970100D-02  0.00000000000000000D+00
33 23  0.00000000000000000D+00  0.00000000000000000D+00  0.00000000000000000D+00 -2.42300018804882000D-02  2.13170637649586500D-01
33 24  0.00000000000000000D+00  0.00000000000000000D+00  0.00000000000000000D+00  0.00000000000000000D+00  0.00000000000000000D+00
33 25  0.00000000000000000D+00  3.27766693074399200D-01  0.00000000000000000D+00  0.00000000000000000D+00 -2.41737846152065300D-01
33 26  0.00000000000000000D+00  0.00000000000000000D+00 -2.16864043357328500D-01  0.00000000000000000D+00  0.00000000000000000D+00
33 27  0.00000000000000000D+00  0.00000000000000000D+00  1.82621615663717900D-02  4.42246789865410700D-03  0.00000000000000000D+00
33 28  0.00000000000000000D+00  0.00000000000000000D+00  0.00000000000000000D+00  1.96720748312905900D-01  8.56242221160901700D-02
33 29  0.00000000000000000D+00  0.00000000000000000D+00  0.00000000000000000D+00  0.00000000000000000D+00 -7.49410134323915400D-03
33 30  0.00000000000000000D+00  0.00000000000000000D+00  0.00000000000000000D+00  0.00000000000000000D+00  2.91681076358271700D-03
33 31  0.00000000000000000D+00  0.00000000000000000D+00  0.00000000000000000D+00  0.00000000000000000D+00  2.91780595389479700D-03
33 32  0.00000000000000000D+00  0.00000000000000000D+00  0.00000000000000000D+00  0.00000000000000000D+00 -7.49500316766116700D-03
34  1  2.95280129498601700D-02 -2.29711200396857800D-01 -2.30517579455418000D+00 -1.15504459296966400D-01  2.19225739475952400D-01
34  2  0.00000000000000000D+00 -1.12983083384661700D+00  7.18149278688477700D-01  0.00000000000000000D+00  7.71567819349628000D-02
34  3  2.59043312796143400D-02 -1.03061113214576700D-01  2.28610985935677400D-02  0.00000000000000000D+00  0.00000000000000000D+00
34  4 -2.95270521610116500D-02  2.29713774413034700D-01  2.30520295084714100D+00 -2.47606682990764500D-01 -9.61414827776274800D-03
34  5  0.00000000000000000D+00 -1.18691307775348500D+00  6.19247061134524700D-01  0.00000000000000000D+00 -2.15736498245500800D-02
34  6 -8.14864652917707300D-02  1.03060115116320400D-01  1.42041929734885100D-02  0.00000000000000000D+00  0.00000000000000000D+00
34  7  1.83167054921205400D-02 -1.01558805967891000D-01 -7.45441776937906000D-01 -5.14837983301345800D-02 -2.24445689608160900D-01
34  8  0.00000000000000000D+00  4.79065862837922900D-01 -1.43820113182588500D-01  0.00000000000000000D+00  5.66061291024700000D-02
34  9  7.43028166183342100D-02 -1.30908945720804300D-01 -1.26536821089837600D-02  0.00000000000000000D+00  0.00000000000000000D+00
34 10  1.32463620330903200D-02  1.12238542115825000D-02  1.33326454879757500D-01  1.00922918525745700D-01 -1.77673012949336000D-02
34 11  0.00000000000000000D+00  4.03894325915603900D-01 -2.26740221653702800D-02  0.00000000000000000D+00  2.77971663723828900D-02
34 12  3.76133682745206100D-03 -3.15585031998358000D-02 -1.93054938256240900D-02  0.00000000000000000D+00  0.00000000000000000D+00
34 13 -1.32454807468766000D-02 -1.12228465463526400D-02 -1.33359936413427000D-01  6.58564638191500600D-02 -7.85106369979478900D-02
34 14  0.00000000000000000D+00  2.21620380595637300D-01 -3.38438906681704800D-01  0.00000000000000000D+00 -2.42514932847480300D-02
34 15 -7.30556779031092700D-03  3.15570610750585900D-02  2.16694956235781600D-02  0.00000000000000000D+00  0.00000000000000000D+00
34 16 -1.83155456072564700D-02  1.01558345421834800D-01  7.45451676351901300D-01  1.68611609775149400D-01  1.56827456588132400D-01
34 17  0.00000000000000000D+00  3.64105430991913900D-01 -3.42954915235638600D-01  0.00000000000000000D+00 -7.93669431398368900D-02
34 18 -5.15390683856462400D-02  1.30906011525483100D-01 -2.52500405092191600D-03  0.00000000000000000D+00  0.00000000000000000D+00
34 19 -8.38405948427951200D-03  3.31621873063393700D-02  1.90702174826720200D-01 -9.67273202685657200D-02  2.56642666900144900D-02
34 20 -9.41076347893122200D-02  0.00000000000000000D+00  1.88634230974436200D-01 -1.86984990388818900D-01  0.00000000000000000D+00
34 21  9.68972938299775700D-02  1.86583432469907500D-02  0.00000000000000000D+00  5.99991396278231300D-03 -6.96583551751814000D-04
34 22 -5.30333041103002800D-03  5.28165546708406300D-03  0.00000000000000000D+00  0.00000000000000000D+00 -4.50907900800184300D-02
34 23  4.22185919202481200D-02  2.87219815977062700D-03  6.49976774873969300D-03  0.00000000000000000D+00  0.00000000000000000D+00
34 24  8.38410803296835300D-03 -3.31611515175311300D-02 -1.90701560959116100D-01  9.67207345274119800D-02  9.43276992042394500D-02
34 25  2.48346937078241300D-02  0.00000000000000000D+00  2.56256986404442900D-01 -6.98407210811555100D-02  0.00000000000000000D+00
34 26  3.22993398300163200D-02 -9.32351962936920200D-02  0.00000000000000000D+00  2.98318620418361500D-03 -8.28681335681458700D-03
34 27  5.30362715263102400D-03  7.08951377419714200D-04  0.00000000000000000D+00  0.00000000000000000D+00 -1.55075223179424300D-02
34 28  1.83800875306998800D-02 -2.87256521275753700D-03 -4.69104474488864100D-02  0.00000000000000000D+00  0.00000000000000000D+00
34 29  5.33551527031716600D-02 -2.66955065494806500D-02  1.76480559755451000D-03 -1.29369609513082500D-02  0.00000000000000000D+00
34 30 -3.95298546132201700D-02 -8.08558970824204700D-02 -5.48785358874936000D-04 -8.50708315401929700D-04  0.00000000000000000D+00
34 31  3.95303248207309500D-02  8.08578189957353000D-02  4.61775048471488600D-04  9.00420020985249100D-04  0.00000000000000000D+00
34 32 -5.33533914274184300D-02  2.66956717835024600D-02  1.20858759924036600D-02  4.94191056621838500D-03  0.00000000000000000D+00
35  1  0.00000000000000000D+00  0.00000000000000000D+00  0.00000000000000000D+00  0.00000000000000000D+00  0.00000000000000000D+00
35  2 -4.11444419255015300D-01  0.00000000000000000D+00  0.00000000000000000D+00 -7.94276307380336600D-02  0.00000000000000000D+00
35  3  0.00000000000000000D+00  0.00000000000000000D+00  0.00000000000000000D+00  9.21092346692418300D-02  3.47897575315925600D-01
35  4  0.00000000000000000D+00  0.00000000000000000D+00  0.00000000000000000D+00  0.00000000000000000D+00  0.00000000000000000D+00
35  5  4.11444005452897800D-01  0.00000000000000000D+00  0.00000000000000000D+00  7.94396338700773100D-02  0.00000000000000000D+00
35  6  0.00000000000000000D+00  0.00000000000000000D+00  0.00000000000000000D+00 -2.55220517383817800D-01 -2.53741645630148500D-01
35  7  0.00000000000000000D+00  0.00000000000000000D+00  0.00000000000000000D+00  0.00000000000000000D+00  0.00000000000000000D+00
35  8 -1.17121283778136700D-01  0.00000000000000000D+00  0.00000000000000000D+00 -2.71975436087288900D-01  0.00000000000000000D+00
35  9  0.00000000000000000D+00  0.00000000000000000D+00  0.00000000000000000D+00  3.56705241056273800D-03  5.88183936404257100D-02
35 10  0.00000000000000000D+00  0.00000000000000000D+00  0.00000000000000000D+00  0.00000000000000000D+00  0.00000000000000000D+00
35 11  2.00743966256012700D-01  0.00000000000000000D+00  0.00000000000000000D+00  2.52627549709597500D-01  0.00000000000000000D+00
35 12  0.00000000000000000D+00  0.00000000000000000D+00  0.00000000000000000D+00 -4.59823733516512400D-02 -1.04965825823544900D-01
35 13  0.00000000000000000D+00  0.00000000000000000D+00  0.00000000000000000D+00  0.00000000000000000D+00  0.00000000000000000D+00
35 14 -2.00736264376996300D-01  0.00000000000000000D+00  0.00000000000000000D+00 -2.52637887318969800D-01  0.00000000000000000D+00
35 15  0.00000000000000000D+00  0.00000000000000000D+00  0.00000000000000000D+00  6.78990215289819200D-02  9.23107411430462800D-02
35 16  0.00000000000000000D+00  0.00000000000000000D+00  0.00000000000000000D+00  0.00000000000000000D+00  0.00000000000000000D+00
35 17  1.17123897538402900D-01  0.00000000000000000D+00  0.00000000000000000D+00  2.71978842228902700D-01  0.00000000000000000D+00
35 18  0.00000000000000000D+00  0.00000000000000000D+00  0.00000000000000000D+00 -4.91530930157699600D-02 -3.25017104659791600D-02
35 19  0.00000000000000000D+00  0.00000000000000000D+00  0.00000000000000000D+00  0.00000000000000000D+00  0.00000000000000000D+00
35 20  0.00000000000000000D+00 -2.95752510792923200D-01  0.00000000000000000D+00  0.00000000000000000D+00  2.22404738677557700D-01
35 21  0.00000000000000000D+00  0.00000000000000000D+00  2.27703536881986100D-01  0.00000000000000000D+00  0.00000000000000000D+00
35 22  0.00000000000000000D+00  0.00000000000000000D+00 -6.61776559667955900D-03 -2.22694793889806800D-02  0.00000000000000000D+00
35 23  0.00000000000000000D+00  0.00000000000000000D+00  0.00000000000000000D+00 -4.79356386463661900D-02 -1.58628576576878400D-01
35 24  0.00000000000000000D+00  0.00000000000000000D+00  0.00000000000000000D+00  0.00000000000000000D+00  0.00000000000000000D+00
35 25  0.00000000000000000D+00  2.95765847323492000D-01  0.00000000000000000D+00  0.00000000000000000D+00 -2.22417060661697800D-01
35 26  0.00000000000000000D+00  0.00000000000000000D+00 -2.27711086367467600D-01  0.00000000000000000D+00  0.00000000000000000D+00
35 27  0.00000000000000000D+00  0.00000000000000000D+00  1.59765228706682000D-02  1.68675657704365100D-02  0.00000000000000000D+00
35 28  0.00000000000000000D+00  0.00000000000000000D+00  0.00000000000000000D+00  1.13404218393697700D-01  1.20842198504868700D-01
35 29  0.00000000000000000D+00  0.00000000000000000D+00  0.00000000000000000D+00  0.00000000000000000D+00 -1.81941836871155400D-02
35 30  0.00000000000000000D+00  0.00000000000000000D+00  0.00000000000000000D+00  0.00000000000000000D+00  8.98267842851350000D-03
35 31  0.00000000000000000D+00  0.00000000000000000D+00  0.00000000000000000D+00  0.00000000000000000D+00 -8.98289222007873100D-03
35 32  0.00000000000000000D+00  0.00000000000000000D+00  0.00000000000000000D+00  0.00000000000000000D+00  1.81943116299737100D-02
36  1  2.97263745234452700D-02  3.44197049990408500D-02 -5.28004885013094000D-02 -2.60141232854466100D-01 -7.44552267235024500D-04
36  2  0.00000000000000000D+00 -3.89438490755165700D+00 -1.72395015269350300D+00  0.00000000000000000D+00  1.21065678245504000D-02
36  3  8.11351686985900100D-02 -9.32417365231415100D-02  8.28762279281568700D-02  0.00000000000000000D+00  0.00000000000000000D+00
36  4 -2.97235696433509600D-02 -3.44150564771158300D-02  5.28514880942532800D-02 -1.29459848975454000D-01  2.25658806502602300D-01
36  5  0.00000000000000000D+00 -4.54620804617790300D-01  4.23451865451092500D+00  0.00000000000000000D+00 -1.70254597407479400D-03
36  6 -9.15282534441768900D-02  9.32307994182527000D-02 -7.59426230948033700D-02  0.00000000000000000D+00  0.00000000000000000D+00
36  7 -4.13136162125798600D-02 -1.18116653692612400D-04  2.31465983451891500D+00  3.15335530345356000D-02  1.74207812647281900D-01
36  8  0.00000000000000000D+00  6.72359980206498200D-01  2.13072840848735800D+00  0.00000000000000000D+00 -4.66578055746415800D-02
36  9 -2.72629522279105800D-02  7.39207578025529900D-02  3.45757115066739300D-02  0.00000000000000000D+00  0.00000000000000000D+00
36 10 -3.03087467111790900D-02 -2.53354087434792200D-02  3.75456482357268300D-01 -1.08271941497891600D-01  1.79774115201482600D-02
36 11  0.00000000000000000D+00  9.70299095446378700D-01  1.13840092728617400D-02  0.00000000000000000D+00 -3.73737167574407200D-02
36 12 -1.47367484703733200D-03  3.88473916044794300D-02  2.17373289067203200D-02  0.00000000000000000D+00  0.00000000000000000D+00
36 13  3.03113676535323800D-02  2.53386851313037900D-02 -3.75584590109537600D-01 -6.97149055620781800D-02  8.47679328711111500D-02
36 14  0.00000000000000000D+00  4.75391438672699100D-01 -8.46002681648241900D-01  0.00000000000000000D+00  2.67548753598947200D-02
36 15  1.20898281490335700D-02 -3.88447035089295500D-02 -2.88190143074814700D-02  0.00000000000000000D+00  0.00000000000000000D+00
36 16  4.13082691959991100D-02  1.11042973557867100D-04 -2.31458068274774200D+00 -1.35088212030017100D-01 -1.14426052667301300D-01
36 17  0.00000000000000000D+00 -1.50890416020363500D+00 -1.64790944550709600D+00  0.00000000000000000D+00  5.80470153418482900D-02
36 18  1.58669174596534300D-02 -7.39139328015011000D-02 -2.69835649067681200D-02  0.00000000000000000D+00  0.00000000000000000D+00
36 19 -1.29289902854540500D-02  6.51446377628566600D-02  8.34910616019151500D-01  4.31668028980184600D-01 -1.10633012239582300D-01
36 20 -5.67671820202447600D-02  0.00000000000000000D+00  5.02843222858970200D-01 -1.16106322837488700D-01  0.00000000000000000D+00
36 21  7.08926195048086000D-01 -1.42052085307026500D-01  0.00000000000000000D+00  1.00725555897724800D-02  1.00453919929203600D-02
36 22 -2.01179475826924500D-02  6.84769740341634400D-03  0.00000000000000000D+00  0.00000000000000000D+00 -1.10297956855590800D-02
36 23 -3.48973773974238400D-02  4.59271730829828400D-02  6.74396552964649400D-02  0.00000000000000000D+00  0.00000000000000000D+00
36 24  1.29291226943075500D-02 -6.51415887039742100D-02 -8.34910280809610700D-01 -4.31692813347816200D-01 -6.16284209091319000D-03
36 25  1.24178215040526500D-01  0.00000000000000000D+00  3.51997913280229100D-01 -3.77372938258063600D-01  0.00000000000000000D+00
36 26  4.77535368248873200D-01 -5.42852322516842300D-01  0.00000000000000000D+00 -4.91714379167884500D-03 -1.52019345030831500D-02
36 27  2.01190782947617300D-02 -3.40795483149529700D-03  0.00000000000000000D+00  0.00000000000000000D+00  7.95201292407651100D-02
36 28 -3.35893261083061100D-02 -4.59308031324590100D-02 -2.17795829111739300D-02  0.00000000000000000D+00  0.00000000000000000D+00
36 29 -1.17261872913621100D-01 -5.67532751512918500D-02 -1.33469541076106900D-02 -1.52439483279814300D-02  0.00000000000000000D+00
36 30  1.47781004516357400D-02  9.18440509259487200D-02 -2.52558775159633000D-02  5.09406702608109900D-03  0.00000000000000000D+00
36 31 -1.47741384448763000D-02 -9.18509511259710800D-02 -1.70403820839488200D-02  1.93234673650481100D-02  0.00000000000000000D+00
36 32  1.17262833143908200D-01  5.67730856601469000D-02  6.52733960155141200D-03  1.91833412139593500D-02  0.00000000000000000D+00
37  1  0.00000000000000000D+00  0.00000000000000000D+00 -2.97630038830593500D-11  0.00000000000000000D+00  0.00000000000000000D+00
37  2  1.22220575947130200D-02  0.00000000000000000D+00  0.00000000000000000D+00  4.31072669619163500D-02  0.00000000000000000D+00
37  3  0.00000000000000000D+00  0.00000000000000000D+00  0.00000000000000000D+00 -5.86271750017451500D-01 -2.12744730893226800D-01
37  4  0.00000000000000000D+00  0.00000000000000000D+00 -1.47645035634292800D-11  0.00000000000000000D+00  0.00000000000000000D+00
37  5  1.22407463855722700D-02 -1.96840034523409100D-11  0.00000000000000000D+00  4.30899345374593200D-02  0.00000000000000000D+00
37  6  0.00000000000000000D+00  0.00000000000000000D+00  0.00000000000000000D+00  1.08940340930733200D-01 -6.14058213280081100D-01
37  7  0.00000000000000000D+00  0.00000000000000000D+00  0.00000000000000000D+00  0.00000000000000000D+00  0.00000000000000000D+00
37  8 -5.09919760266351100D-02  0.00000000000000000D+00  0.00000000000000000D+00 -1.71459783714499000D-01  0.00000000000000000D+00
37  9  0.00000000000000000D+00  0.00000000000000000D+00  0.00000000000000000D+00  6.76527262933379100D-02  4.00514832478968400D-02
37 10  0.00000000000000000D+00  0.00000000000000000D+00  0.00000000000000000D+00  0.00000000000000000D+00  0.00000000000000000D+00
37 11  9.36927936566134700D-02  0.00000000000000000D+00  0.00000000000000000D+00  5.89037216971552800D-03  0.00000000000000000D+00
37 12  0.00000000000000000D+00  0.00000000000000000D+00  0.00000000000000000D+00 -1.05536516092390300D-01 -1.08170054526954200D-01
37 13  0.00000000000000000D+00  0.00000000000000000D+00  0.00000000000000000D+00  0.00000000000000000D+00  0.00000000000000000D+00
37 14  9.36875278039884700D-02  0.00000000000000000D+00  0.00000000000000000D+00  5.89714835974808200D-03  0.00000000000000000D+00
37 15  0.00000000000000000D+00  0.00000000000000000D+00  0.00000000000000000D+00 -4.08922448710316200D-02 -1.45485791357283400D-01
37 16  0.00000000000000000D+00  0.00000000000000000D+00  0.00000000000000000D+00  0.00000000000000000D+00  0.00000000000000000D+00
37 17 -5.10080402925134500D-02  1.50994795666238500D-11  0.00000000000000000D+00 -1.71454868541478800D-01  0.00000000000000000D+00
37 18  0.00000000000000000D+00  0.00000000000000000D+00  0.00000000000000000D+00  8.51498243615133500D-04  7.86041736603174400D-02
37 19  0.00000000000000000D+00  0.00000000000000000D+00  0.00000000000000000D+00  0.00000000000000000D+00  0.00000000000000000D+00
37 20  0.00000000000000000D+00 -1.61385068298787500D-02  0.00000000000000000D+00  0.00000000000000000D+00  5.78122697301562600D-02
37 21  0.00000000000000000D+00  0.00000000000000000D+00  9.02515589599981300D-02  0.00000000000000000D+00  0.00000000000000000D+00
37 22  0.00000000000000000D+00  0.00000000000000000D+00  6.73375840003490600D-02 -2.75620352769355600D-02  0.00000000000000000D+00
37 23  0.00000000000000000D+00  0.00000000000000000D+00  0.00000000000000000D+00 -1.03881117669273900D-02 -6.88959825307074300D-02
37 24  0.00000000000000000D+00  0.00000000000000000D+00  0.00000000000000000D+00  1.07871474410436200D-11  0.00000000000000000D+00
37 25  0.00000000000000000D+00 -1.61377325894002400D-02  0.00000000000000000D+00  0.00000000000000000D+00  5.78172014760200100D-02
37 26  0.00000000000000000D+00  0.00000000000000000D+00  9.02445936278002700D-02  0.00000000000000000D+00  0.00000000000000000D+00
37 27  0.00000000000000000D+00  0.00000000000000000D+00 -5.75407947966205700D-02  4.45281143471999800D-02  0.00000000000000000D+00
37 28  0.00000000000000000D+00  0.00000000000000000D+00  0.00000000000000000D+00 -5.44681645496551100D-02 -4.34462562168111800D-02
37 29  0.00000000000000000D+00  0.00000000000000000D+00  0.00000000000000000D+00  0.00000000000000000D+00 -3.47648819118134600D-02
37 30  0.00000000000000000D+00  0.00000000000000000D+00  0.00000000000000000D+00  0.00000000000000000D+00  5.50895256101125100D-03
37 31  0.00000000000000000D+00  0.00000000000000000D+00  0.00000000000000000D+00  0.00000000000000000D+00  5.50953765849112700D-03
37 32  0.00000000000000000D+00  0.00000000000000000D+00  0.00000000000000000D+00  0.00000000000000000D+00 -3.47660956727150300D-02
38  1  2.08281767854380700D-02 -3.90208623308342000D-02 -1.45786410519649800D+00  1.38717043454250600D-01  5.31609372395817500D-02
38  2  0.00000000000000000D+00  1.33994032445396800D+00  7.66838677287279300D-01  0.00000000000000000D+00 -2.21667157675468000D-02
38  3 -5.26494260455645700D-02  7.48161418131115000D-02 -1.35720349269854300D-02  0.00000000000000000D+00  0.00000000000000000D+00
38  4  2.08268953349146700D-02 -3.90176249520035000D-02 -1.45782402717448900D+00 -2.33425605216621400D-02  1.46713391852311200D-01
38  5  0.00000000000000000D+00 -6.08098193825413900D-03  1.54391320639150800D+00  0.00000000000000000D+00 -3.48495309636389100D-02
38  6 -3.99727362102382400D-02  7.48222671738773100D-02 -2.20260072927654600D-02  0.00000000000000000D+00  0.00000000000000000D+00
38  7  5.78594875531551400D-03  1.55490048737647500D-01  1.42654365869535800D+00  1.30193396097094700D-02  3.02238856742043300D-01
38  8  0.00000000000000000D+00  2.37004425182036000D-01  9.19628647351123700D-01  0.00000000000000000D+00 -7.14057552831065100D-02
38  9 -5.78522354262142900D-02  1.29257990709320600D-01  4.50994877310871600D-02  0.00000000000000000D+00  0.00000000000000000D+00
38 10 -5.01241360454785200D-02 -1.22445196799431100D-01  2.33268424116265400D-01 -2.18594141310922800D-02 -2.34662906312169400D-02
38 11  0.00000000000000000D+00  1.65089106756424300D-01  1.46673025207967700D-01  0.00000000000000000D+00 -2.96612654340505800D-02
38 12 -4.08011401621579000D-02  7.04624055962094300D-02  2.66235987755780300D-02  0.00000000000000000D+00  0.00000000000000000D+00
38 13 -5.01229492674921700D-02 -1.22445409879333900D-01  2.33247410353189700D-01 -9.38958314970604600D-03 -3.06626325081176500D-02
38 14  0.00000000000000000D+00  4.44470455749400000D-02  2.16298169333862500D-01  0.00000000000000000D+00 -5.79860863358513000D-02
38 15 -1.24755744371430000D-02  7.04616607729943300D-02  7.73829310875682900D-03  0.00000000000000000D+00  0.00000000000000000D+00
38 16  5.78802285905896600D-03  1.55496817821930200D-01  1.42651484026871500D+00  2.55220049435094000D-01  1.62424173592342900D-01
38 17  0.00000000000000000D+00  6.77834936330784400D-01  6.65116301823145000D-01  0.00000000000000000D+00 -9.50714641519545500D-02
38 18 -3.41880761033027300D-02  1.29259540255257300D-01  2.93195839203742700D-02  0.00000000000000000D+00  0.00000000000000000D+00
38 19 -4.27180716964897300D-03 -7.19784653441701400D-02 -2.59766225289866600D-01  1.56421083632275800D-01  8.79723749007916000D-02
38 20  7.15317190334921200D-02  0.00000000000000000D+00 -4.19544458968565700D-01 -8.82155091855268400D-03  0.00000000000000000D+00
38 21 -3.62317442243023700D-01 -2.46443483710626000D-02  0.00000000000000000D+00  1.80621426037041800D-02 -1.63857182808242200D-02
38 22 -1.67642432287992700D-03 -2.36995678054794100D-02  0.00000000000000000D+00  0.00000000000000000D+00 -1.41498586406534400D-01
38 23  6.92179643527172200D-02  7.22806220538177700D-02  5.94985649906109800D-02  0.00000000000000000D+00  0.00000000000000000D+00
38 24 -4.27219810785695700D-03 -7.19811246035916000D-02 -2.59770442995805000D-01  1.56433066652176800D-01  1.79538554616324300D-02
38 25  1.11952995222876800D-01  0.00000000000000000D+00  2.02175389509921400D-01 -3.67741278670557300D-01  0.00000000000000000D+00
38 26  1.59845025145551500D-01 -3.26088256462317100D-01  0.00000000000000000D+00  1.00056404681228000D-02 -8.33010983019117700D-03
38 27 -1.67553063793185000D-03 -2.90717048475222900D-02  0.00000000000000000D+00  0.00000000000000000D+00 -2.81090316035967300D-02
38 28 -4.41718416724004800D-02  7.22808732759973500D-02  1.35110849261109600D-01  0.00000000000000000D+00  0.00000000000000000D+00
38 29 -1.39239186907838900D-01 -1.70166603843679800D-01 -7.20258139956360500D-03  4.41615313494784500D-03  0.00000000000000000D+00
38 30  6.60232921354960800D-02  1.95738018998822000D-01 -2.05086452973656400D-03  1.29922148360883300D-02  0.00000000000000000D+00
38 31  6.60251099583946400D-02  1.95737919456636100D-01  1.22760649347365400D-02  4.72180269887005500D-03  0.00000000000000000D+00
38 32 -1.39239386274552100D-01 -1.70164656713835700D-01  7.42603711635331100D-03 -4.02858378254627200D-03  0.00000000000000000D+00
39  1  7.16148223284877000D-02  9.52651333957843100D-02  6.55481316568181900D-01  3.84622246440221700D-01 -4.06990476011895900D-02
39  2  0.00000000000000000D+00 -9.97446076167542300D-01  3.60220719845956000D-01  0.00000000000000000D+00  1.81031510727663300D-01
39  3  9.72379696517985300D-02 -2.78269480379461500D-01 -1.02213604330763100D-02  0.00000000000000000D+00  0.00000000000000000D+00
39  4  7.16152627386330800D-02  9.52646999801800600D-02  6.55480100601506300D-01 -2.27581604704137000D-01  3.12707409628164600D-01
39  5  0.00000000000000000D+00  8.10810093288901100D-01 -6.83876729484459700D-01  0.00000000000000000D+00  1.25866014704255400D-01
39  6  1.52409577784784700D-01 -2.78275592489040300D-01 -4.70094172838680700D-02  0.00000000000000000D+00  0.00000000000000000D+00
39  7 -6.42253861620982100D-02 -3.45063234650994200D-02  1.76739838580853100D-01  3.40400484002870300D-02  5.08377632749012800D-02
39  8  0.00000000000000000D+00 -8.11132885640131600D-01 -2.05646382061071600D-01  0.00000000000000000D+00 -8.70427524873608700D-02
39  9 -1.14781209877399800D-01  2.01823962364760300D-01 -6.81964759275215500D-02  0.00000000000000000D+00  0.00000000000000000D+00
39 10  1.12219236831832100D-03 -5.95191336643617300D-02 -7.36105519101596200D-01 -5.18174930767021900D-02 -4.33096748801077400D-02
39 11  0.00000000000000000D+00 -2.63115204825309100D-01 -4.45390841256507700D-02  0.00000000000000000D+00  4.75169253014183600D-03
39 12 -5.54825635093372900D-02  5.07308709791952200D-02  1.51751307550203900D-02  0.00000000000000000D+00  0.00000000000000000D+00
39 13  1.12310781802280100D-03 -5.95181746061915600D-02 -7.36134975571416700D-01 -1.15883522215003800D-02 -6.65340795870263300D-02
39 14  0.00000000000000000D+00  9.29728545630807000D-02 -2.50091141509390400D-01  0.00000000000000000D+00 -5.18017525943766200D-02
39 15  1.06977338349162600D-03  5.07319792108854500D-02 -2.25361062055365800D-02  0.00000000000000000D+00  0.00000000000000000D+00
39 16 -6.42267946032048600D-02 -3.45031562472313700D-02  1.76926736436732300D-01  2.70099199088102200D-02  5.49115616407118600D-02
39 17  0.00000000000000000D+00  2.27646316187282600D-01 -8.05180848237022500D-01  0.00000000000000000D+00 -5.66936965982773300D-02
39 18 -1.45134968244730300D-01  2.01828664843007800D-01 -4.79567437818470100D-02  0.00000000000000000D+00  0.00000000000000000D+00
39 19  2.33580751615619400D-02  1.05001297707194200D-01 -9.97447171084480800D-02 -4.74614638529190700D-01 -2.04077556566410900D-01
39 20 -7.26286336799669400D-02  0.00000000000000000D+00  3.54652234336390900D-01  6.45626480011244500D-02  0.00000000000000000D+00
39 21  2.44077375807496100D-01  1.70659807303024600D-01  0.00000000000000000D+00 -9.70499581222775300D-03  3.94982916574467900D-03
39 22  5.75516664648299400D-03  2.28855034649190600D-02  0.00000000000000000D+00  0.00000000000000000D+00  1.14444925330392500D-01
39 23 -2.33053318578957900D-02 -9.11395934724969600D-02 -8.50052482071696500D-02  0.00000000000000000D+00  0.00000000000000000D+00
39 24  2.33578614121269600D-02  1.05005035642378200D-01 -9.97115862396671000D-02 -4.74603859589476700D-01  3.91618586502661500D-02
39 25 -2.13049582371332900D-01  0.00000000000000000D+00 -1.21468409544340600D-01  3.39438832055213300D-01  0.00000000000000000D+00
39 26  2.57105621252855100D-02  2.96732668196963300D-01  0.00000000000000000D+00 -1.66303894006077000D-02  1.08769754428585500D-02
39 27  5.75341395774930700D-03  1.82669836507203700D-02  0.00000000000000000D+00  0.00000000000000000D+00  7.49059039890703800D-02
39 28  1.62330562695285600D-02 -9.11389602585989700D-02 -1.11372553572227600D-01  0.00000000000000000D+00  0.00000000000000000D+00
39 29  3.03098041794621400D-02  3.11574624014915800D-01  8.16283564699946900D-04  1.66513442874765300D-02  0.00000000000000000D+00
39 30  8.39981913280250000D-02  6.20878112341841800D-02 -2.35524858261839000D-03  1.41404636497147000D-02  0.00000000000000000D+00
39 31  8.39992259441128000D-02  6.20893177517003200D-02  1.34248280843396100D-02  5.03004224015510000D-03  0.00000000000000000D+00
39 32  3.03018986772323500D-02  3.11567620022850000D-01  1.40111137327571900D-02  9.03350366456309400D-03  0.00000000000000000D+00
40  1  0.00000000000000000D+00  0.00000000000000000D+00  2.11366675802688700D-11  0.00000000000000000D+00  0.00000000000000000D+00
40  2  3.38243796364400800D-01  0.00000000000000000D+00 -3.77813818849496300D-11 -3.48741599073535200D-01  0.00000000000000000D+00
40  3  0.00000000000000000D+00  0.00000000000000000D+00  0.00000000000000000D+00  7.67970055115035600D-01  5.44101722531000000D-02
40  4  0.00000000000000000D+00  0.00000000000000000D+00  0.00000000000000000D+00  0.00000000000000000D+00  0.00000000000000000D+00
40  5 -3.38245267567265300D-01  2.21698016864248300D-11  0.00000000000000000D+00  3.48744275704779700D-01  0.00000000000000000D+00
40  6  0.00000000000000000D+00  0.00000000000000000D+00  0.00000000000000000D+00  3.36946937321060100D-01 -6.92271649387422000D-01
40  7  0.00000000000000000D+00  0.00000000000000000D+00 -3.87236216245449600D-11  0.00000000000000000D+00  0.00000000000000000D+00
40  8 -2.10542234921539400D-01  0.00000000000000000D+00  0.00000000000000000D+00 -5.71721674466758800D-02  0.00000000000000000D+00
40  9  0.00000000000000000D+00  0.00000000000000000D+00  0.00000000000000000D+00 -8.02741602548441700D-03 -7.92797110333428700D-02
40 10  0.00000000000000000D+00  0.00000000000000000D+00  0.00000000000000000D+00  0.00000000000000000D+00  0.00000000000000000D+00
40 11  7.57682707137667500D-02  2.93541260772158700D-11  0.00000000000000000D+00 -6.46779390374340300D-02  0.00000000000000000D+00
40 12  0.00000000000000000D+00  0.00000000000000000D+00  0.00000000000000000D+00 -1.43255412593934800D-02 -1.79400625792348200D-02
40 13  0.00000000000000000D+00  0.00000000000000000D+00  1.88368063423991800D-11  0.00000000000000000D+00  0.00000000000000000D+00
40 14 -7.57475369152343600D-02  1.88443222382397400D-11 -1.48246099244156500D-11  6.46646427676435800D-02  0.00000000000000000D+00
40 15  0.00000000000000000D+00  0.00000000000000000D+00  0.00000000000000000D+00  8.36523144846191200D-03  2.13644203533480500D-02
40 16  0.00000000000000000D+00  0.00000000000000000D+00 -2.16700948867404800D-11  0.00000000000000000D+00  0.00000000000000000D+00
40 17  2.10544699126610800D-01 -2.67506417175811600D-11  0.00000000000000000D+00  5.71706244208056700D-02  0.00000000000000000D+00
40 18  0.00000000000000000D+00  0.00000000000000000D+00  0.00000000000000000D+00  6.46318055453579000D-02  4.66195866560140200D-02
40 19  0.00000000000000000D+00  0.00000000000000000D+00  1.53963902738369800D-11  1.83718429890703900D-11  0.00000000000000000D+00
40 20  0.00000000000000000D+00 -3.11556341086315500D-02  0.00000000000000000D+00  0.00000000000000000D+00  7.26801698152029600D-02
40 21  0.00000000000000000D+00  0.00000000000000000D+00 -6.11197799300859800D-02  0.00000000000000000D+00  0.00000000000000000D+00
40 22  0.00000000000000000D+00  0.00000000000000000D+00 -3.37223703796863700D-02  2.55946249975608700D-02  0.00000000000000000D+00
40 23  0.00000000000000000D+00  0.00000000000000000D+00  0.00000000000000000D+00  7.83083127377260000D-02  2.13961223882153600D-02
40 24  0.00000000000000000D+00  0.00000000000000000D+00  0.00000000000000000D+00 -1.39139193314996100D-11  0.00000000000000000D+00
40 25  0.00000000000000000D+00  3.11521824529481700D-02  0.00000000000000000D+00  0.00000000000000000D+00 -7.26746071798364500D-02
40 26  0.00000000000000000D+00  0.00000000000000000D+00  6.11172607463748300D-02  0.00000000000000000D+00  0.00000000000000000D+00
40 27  0.00000000000000000D+00  0.00000000000000000D+00 -3.90291837009843700D-02  1.64041950460623600D-02  0.00000000000000000D+00
40 28  0.00000000000000000D+00  0.00000000000000000D+00  0.00000000000000000D+00  2.06261599414400300D-02 -7.85121865257404200D-02
40 29  0.00000000000000000D+00  0.00000000000000000D+00  0.00000000000000000D+00  0.00000000000000000D+00 -2.81515696673251500D-02
40 30  0.00000000000000000D+00  0.00000000000000000D+00  0.00000000000000000D+00  0.00000000000000000D+00  5.06174302282044500D-03
40 31  0.00000000000000000D+00  0.00000000000000000D+00  0.00000000000000000D+00  0.00000000000000000D+00 -5.06191111202156000D-03
40 32  0.00000000000000000D+00  0.00000000000000000D+00  0.00000000000000000D+00  0.00000000000000000D+00  2.81513834590668300D-02
41  1  0.00000000000000000D+00  0.00000000000000000D+00 -1.94041137534883600D-11  0.00000000000000000D+00  0.00000000000000000D+00
41  2  3.46295041098301400D-02  0.00000000000000000D+00  0.00000000000000000D+00 -7.96630600687173300D-02  0.00000000000000000D+00
41  3  0.00000000000000000D+00  0.00000000000000000D+00  0.00000000000000000D+00 -1.61548407525878500D-01 -7.73836804964372600D-02
41  4  0.00000000000000000D+00  0.00000000000000000D+00  1.25899258880822400D-11  0.00000000000000000D+00  0.00000000000000000D+00
41  5  3.46203117509393600D-02  0.00000000000000000D+00  0.00000000000000000D+00 -7.96094733188869300D-02  0.00000000000000000D+00
41  6  0.00000000000000000D+00  0.00000000000000000D+00  0.00000000000000000D+00  1.37919656511062700D-02 -1.78621805211749500D-01
41  7  0.00000000000000000D+00  0.00000000000000000D+00  1.11188415566231600D-11  0.00000000000000000D+00  0.00000000000000000D+00
41  8 -2.34280155780210300D-01 -1.00683871777201200D-11  0.00000000000000000D+00  8.05197861512135300D-03  0.00000000000000000D+00
41  9  0.00000000000000000D+00  0.00000000000000000D+00  0.00000000000000000D+00 -3.96427975085458000D-01 -2.11515263547217500D-02
41 10  0.00000000000000000D+00  0.00000000000000000D+00 -3.31515133736064000D-11  0.00000000000000000D+00  0.00000000000000000D+00
41 11 -3.69111542519986600D-01  0.00000000000000000D+00 -1.28747377265002600D-11  2.55224258291210800D-01  0.00000000000000000D+00
41 12  0.00000000000000000D+00  0.00000000000000000D+00  0.00000000000000000D+00  1.75986842524295400D-01  2.17219445984900600D-01
41 13  0.00000000000000000D+00  0.00000000000000000D+00  1.90662791960064100D-11  0.00000000000000000D+00  0.00000000000000000D+00
41 14 -3.69068017075160000D-01  1.49008679705562300D-11  0.00000000000000000D+00  2.55182782080639900D-01  0.00000000000000000D+00
41 15  0.00000000000000000D+00  0.00000000000000000D+00  0.00000000000000000D+00  1.00083899646462600D-01  2.61006116631998500D-01
41 16  0.00000000000000000D+00  0.00000000000000000D+00  0.00000000000000000D+00  0.00000000000000000D+00  0.00000000000000000D+00
41 17 -2.34242183735857900D-01  0.00000000000000000D+00  0.00000000000000000D+00  8.04844861868462200D-03  0.00000000000000000D+00
41 18  0.00000000000000000D+00  0.00000000000000000D+00  0.00000000000000000D+00  1.79895749353460800D-01 -3.53806050922325000D-01
41 19  0.00000000000000000D+00  0.00000000000000000D+00  0.00000000000000000D+00  0.00000000000000000D+00  0.00000000000000000D+00
41 20  0.00000000000000000D+00 -3.06589777791015900D-02  0.00000000000000000D+00  0.00000000000000000D+00  2.58036895581399300D-02
41 21  0.00000000000000000D+00  0.00000000000000000D+00  1.63242474617763700D-01  0.00000000000000000D+00  0.00000000000000000D+00
41 22  0.00000000000000000D+00  0.00000000000000000D+00 -4.01138745182633800D-03 -4.61509150335123300D-03  0.00000000000000000D+00
41 23  0.00000000000000000D+00  0.00000000000000000D+00  0.00000000000000000D+00 -2.06027747255006000D-02  2.53234327324912500D-02
41 24  0.00000000000000000D+00  0.00000000000000000D+00  0.00000000000000000D+00  0.00000000000000000D+00  0.00000000000000000D+00
41 25  0.00000000000000000D+00 -3.06423786624180800D-02  0.00000000000000000D+00  0.00000000000000000D+00  2.57712371909925300D-02
41 26  0.00000000000000000D+00  0.00000000000000000D+00  1.63239041842379400D-01  0.00000000000000000D+00  0.00000000000000000D+00
41 27  0.00000000000000000D+00  0.00000000000000000D+00 -1.98911970273382300D-03 -5.78471032073785300D-03  0.00000000000000000D+00
41 28  0.00000000000000000D+00  0.00000000000000000D+00  0.00000000000000000D+00  3.22436301397429300D-02 -5.17201562226574400D-03
41 29  0.00000000000000000D+00  0.00000000000000000D+00  0.00000000000000000D+00  0.00000000000000000D+00 -4.84660609896027900D-02
41 30  0.00000000000000000D+00  0.00000000000000000D+00  0.00000000000000000D+00  0.00000000000000000D+00  5.54188700557446000D-03
41 31  0.00000000000000000D+00  0.00000000000000000D+00  0.00000000000000000D+00  0.00000000000000000D+00  5.54459163619855300D-03
41 32  0.00000000000000000D+00  0.00000000000000000D+00  0.00000000000000000D+00  0.00000000000000000D+00 -4.84580040712270000D-02
42  1  0.00000000000000000D+00  0.00000000000000000D+00 -2.29692045553302000D-11  0.00000000000000000D+00  0.00000000000000000D+00
42  2 -1.54198868985104800D-03 -1.01867220494237300D-11  0.00000000000000000D+00  2.64014329053666700D-01  0.00000000000000000D+00
42  3  0.00000000000000000D+00  0.00000000000000000D+00  0.00000000000000000D+00 -1.46488581183636300D-02  3.42891446688230900D-02
42  4  0.00000000000000000D+00  0.00000000000000000D+00  2.13693091920167700D-11  0.00000000000000000D+00  0.00000000000000000D+00
42  5  1.54748721292001800D-03 -1.37054683847240100D-11  0.00000000000000000D+00 -2.64028370854488900D-01  0.00000000000000000D+00
42  6  0.00000000000000000D+00  0.00000000000000000D+00  0.00000000000000000D+00 -3.70182322407524000D-02 -4.47921957461236100D-03
42  7  0.00000000000000000D+00  0.00000000000000000D+00 -3.34910821337854400D-11  0.00000000000000000D+00  0.00000000000000000D+00
42  8  1.57407606013812900D-01  1.93554308168667100D-11  0.00000000000000000D+00 -5.41046443585871900D-04  0.00000000000000000D+00
42  9  0.00000000000000000D+00  0.00000000000000000D+00  0.00000000000000000D+00  5.56952676127403400D-01 -2.81915185518605300D-03
42 10  0.00000000000000000D+00  0.00000000000000000D+00  0.00000000000000000D+00  0.00000000000000000D+00  0.00000000000000000D+00
42 11  3.14770532668900300D-01  2.05952464856931100D-11  0.00000000000000000D+00 -2.59858466294695900D-01  0.00000000000000000D+00
42 12  0.00000000000000000D+00  0.00000000000000000D+00  0.00000000000000000D+00 -8.92225336380269400D-02 -1.96011845001925900D-01
42 13  0.00000000000000000D+00  0.00000000000000000D+00  0.00000000000000000D+00  0.00000000000000000D+00  0.00000000000000000D+00
42 14 -3.14825989648586200D-01  1.21181390421394600D-11 -1.20660368874196700D-11  2.59896516081961000D-01  0.00000000000000000D+00
42 15  0.00000000000000000D+00  0.00000000000000000D+00  0.00000000000000000D+00  1.25138969955546500D-01  1.75331207716537900D-01
42 16  0.00000000000000000D+00  0.00000000000000000D+00  1.87619092219379200D-11  0.00000000000000000D+00  0.00000000000000000D+00
42 17 -1.57429998726246200D-01  0.00000000000000000D+00  0.00000000000000000D+00  5.30780748669317200D-04  0.00000000000000000D+00
42 18  0.00000000000000000D+00  0.00000000000000000D+00  0.00000000000000000D+00  2.80997691121288900D-01 -4.80950059984804800D-01
42 19  0.00000000000000000D+00  0.00000000000000000D+00  1.09538524129033900D-11  0.00000000000000000D+00  0.00000000000000000D+00
42 20  0.00000000000000000D+00  8.42418840154775400D-02  0.00000000000000000D+00  0.00000000000000000D+00 -1.95896309521210800D-01
42 21  0.00000000000000000D+00  0.00000000000000000D+00  3.02032599446404900D-03  0.00000000000000000D+00  0.00000000000000000D+00
42 22  0.00000000000000000D+00  0.00000000000000000D+00 -3.03118691099251100D-02  3.92757409332817300D-04  0.00000000000000000D+00
42 23  0.00000000000000000D+00  0.00000000000000000D+00  0.00000000000000000D+00 -3.30390852849005300D-03  6.89708331384228900D-02
42 24  0.00000000000000000D+00  0.00000000000000000D+00  0.00000000000000000D+00  0.00000000000000000D+00  0.00000000000000000D+00
42 25  0.00000000000000000D+00 -8.42468449434375700D-02  0.00000000000000000D+00  0.00000000000000000D+00  1.95900404141940900D-01
42 26  0.00000000000000000D+00  0.00000000000000000D+00 -2.99450362200911700D-03  0.00000000000000000D+00  0.00000000000000000D+00
42 27  0.00000000000000000D+00  0.00000000000000000D+00 -1.54983083027964200D-02  2.60509211150989200D-02  0.00000000000000000D+00
42 28  0.00000000000000000D+00  0.00000000000000000D+00  0.00000000000000000D+00 -6.13753930325685600D-02 -3.16297279585243200D-02
42 29  0.00000000000000000D+00  0.00000000000000000D+00  0.00000000000000000D+00  0.00000000000000000D+00  4.83516609607484200D-02
42 30  0.00000000000000000D+00  0.00000000000000000D+00  0.00000000000000000D+00  0.00000000000000000D+00  2.31656361348647900D-02
42 31  0.00000000000000000D+00  0.00000000000000000D+00  0.00000000000000000D+00  0.00000000000000000D+00 -2.31635675985025700D-02
42 32  0.00000000000000000D+00 -1.14905800313820600D-11  0.00000000000000000D+00  0.00000000000000000D+00 -4.83585190504754000D-02
43  1  0.00000000000000000D+00 -1.32089536710633900D-11  7.58982170342886700D-11  0.00000000000000000D+00  0.00000000000000000D+00
43  2  4.87021932182736300D-02  3.04266848139115500D-11 -8.33143081680998900D-11  6.83344764165641800D-02  0.00000000000000000D+00
43  3  0.00000000000000000D+00  0.00000000000000000D+00  0.00000000000000000D+00  1.62084301157859100D-02  1.73793600635364500D-01
43  4  0.00000000000000000D+00  0.00000000000000000D+00 -6.53149398703111300D-11  0.00000000000000000D+00  0.00000000000000000D+00
43  5  4.86994790511739400D-02  1.03903807628892600D-10  1.94917959679659100D-11  6.83566053837350600D-02  0.00000000000000000D+00
43  6  0.00000000000000000D+00  1.21474234708078200D-11  1.37869800257474700D-11  1.42396569674158300D-01  1.00944644573481000D-01
43  7  0.00000000000000000D+00  0.00000000000000000D+00  2.73198082667308900D-11  0.00000000000000000D+00  1.20063698870166000D-11
43  8  5.56202348879197700D-01 -8.11097020715436100D-11  1.72617652002109200D-11 -5.84417764390174100D-01  0.00000000000000000D+00
43  9  0.00000000000000000D+00  0.00000000000000000D+00  1.12388335359088700D-11 -2.58044167443687200D-01  2.35512252883188500D-01
43 10  0.00000000000000000D+00  0.00000000000000000D+00 -2.95268677702405800D-11  0.00000000000000000D+00  0.00000000000000000D+00
43 11 -1.82737811880070100D-01 -2.20414118392538800D-11 -2.37867144655588900D-11  2.31496164946117400D-01  0.00000000000000000D+00
43 12  0.00000000000000000D+00  0.00000000000000000D+00  0.00000000000000000D+00 -1.76037706868063200D-01 -3.01842450374687300D-02
43 13  0.00000000000000000D+00  0.00000000000000000D+00  3.07319820965880300D-11  0.00000000000000000D+00  0.00000000000000000D+00
43 14 -1.82749490579162100D-01  0.00000000000000000D+00  2.76824554255655200D-11  2.31516809695411600D-01  0.00000000000000000D+00
43 15  0.00000000000000000D+00  0.00000000000000000D+00  0.00000000000000000D+00  6.19031475176789100D-02 -1.67537805945004600D-01
43 16  0.00000000000000000D+00  1.70091783864714200D-11 -1.17426922074791300D-10  0.00000000000000000D+00  0.00000000000000000D+00
43 17  5.56198173253046800D-01  0.00000000000000000D+00  0.00000000000000000D+00 -5.84407429368306700D-01  0.00000000000000000D+00
43 18  0.00000000000000000D+00  0.00000000000000000D+00  1.54041541032420700D-11  3.32991030704945100D-01 -1.05663190368300300D-01
43 19  0.00000000000000000D+00 -1.55705307657629800D-11  3.54769103315901600D-11  3.85767378300206300D-11  0.00000000000000000D+00
43 20 -1.16970480487203900D-11  6.25121522591911400D-03 -1.33135656530657800D-11  0.00000000000000000D+00 -1.03287833061165600D-01
43 21  0.00000000000000000D+00  0.00000000000000000D+00  1.45633964847302200D-02  0.00000000000000000D+00  0.00000000000000000D+00
43 22  0.00000000000000000D+00  0.00000000000000000D+00  9.05790683112174900D-03  1.01124074475939500D-02  0.00000000000000000D+00
43 23  0.00000000000000000D+00  0.00000000000000000D+00  0.00000000000000000D+00  2.45736627050425500D-01  2.40533899569686100D-02
43 24  0.00000000000000000D+00  0.00000000000000000D+00 -2.77212222137976700D-11 -4.49598135457054800D-11  1.46936937764701400D-11
43 25  0.00000000000000000D+00  6.25241673496236200D-03  0.00000000000000000D+00  0.00000000000000000D+00 -1.03295793638644400D-01
43 26  0.00000000000000000D+00  0.00000000000000000D+00  1.45628754152596200D-02  0.00000000000000000D+00  0.00000000000000000D+00
43 27  0.00000000000000000D+00 -1.24011793520057300D-11  4.22537769445848700D-03  1.29021132723532700D-02  1.40470052320207700D-11
43 28  0.00000000000000000D+00 -1.15874168152304900D-11  0.00000000000000000D+00 -1.02059783010664000D-01  2.24827923502138400D-01
43 29  2.55600334473884100D-11  4.27362989473058800D-11  0.00000000000000000D+00  0.00000000000000000D+00 -1.56434104442770200D-03
43 30  0.00000000000000000D+00  0.00000000000000000D+00  0.00000000000000000D+00  0.00000000000000000D+00 -7.27713969401855500D-04
43 31  0.00000000000000000D+00  0.00000000000000000D+00  0.00000000000000000D+00  0.00000000000000000D+00 -7.27607058615341900D-04
43 32  2.27481467675127900D-11  1.81393385697335200D-11  1.35861618979940100D-11  0.00000000000000000D+00 -1.56359702912230000D-03
44  1  0.00000000000000000D+00  0.00000000000000000D+00 -2.57746249220375600D-11 -2.08379730730921000D-11 -1.55888654508971400D-11
44  2 -1.73598616512666600D-01 -1.11771213740044500D-10  3.02790243168934100D-11  2.16327212369654100D-01 -1.42972789220914800D-11
44  3  0.00000000000000000D+00  1.36726556639283900D-11  2.03908476272994300D-11  6.73776354163136600D-02 -2.41152132557554700D-01
44  4 -1.08672296303792100D-11 -1.06600459884506100D-11  7.51755452708710600D-11  0.00000000000000000D+00  0.00000000000000000D+00
44  5 -1.73604554223189700D-01 -9.45339541667859600D-11 -2.59978329553202200D-11  2.16343228904826200D-01  0.00000000000000000D+00
44  6  1.31492231021604400D-11  0.00000000000000000D+00 -3.24613140547871800D-11 -2.42505727519617600D-01 -6.22537712040398400D-02
44  7  2.03484071732501800D-11  3.97682350073548400D-11 -1.60998118076776600D-10 -1.98080306233388300D-11  0.00000000000000000D+00
44  8  3.57092603315709900D-01 -5.11010399272597000D-11 -1.52369296205552400D-11 -5.65266484094499400D-01 -2.33296815054432600D-11
44  9  0.00000000000000000D+00  2.00267238877250400D-11  1.43050955092014400D-11 -5.60698706275894200D-02 -1.88623300128996300D-01
44 10  0.00000000000000000D+00  0.00000000000000000D+00 -6.96905352008087600D-11  0.00000000000000000D+00  0.00000000000000000D+00
44 11 -4.72853991904584200D-02  2.20272891132953100D-11 -3.75706805231193400D-11  1.05443380704997600D-01 -1.59169482227571800D-11
44 12  1.47608777321137000D-11  0.00000000000000000D+00  0.00000000000000000D+00 -1.24323013697407100D-01 -8.87696859210952000D-03
44 13  0.00000000000000000D+00  0.00000000000000000D+00  1.64285335095495200D-11 -1.04129341935589300D-11 -1.56889648350502400D-11
44 14 -4.72912335190703900D-02  3.96325632525673000D-11 -3.81081632734382400D-11  1.05452557875927100D-01  0.00000000000000000D+00
44 15  0.00000000000000000D+00  0.00000000000000000D+00  2.07634845582264100D-11  5.44881190599482800D-02 -1.12101048523186800D-01
44 16  0.00000000000000000D+00  1.28096528409316600D-11 -1.14763640808378700D-10  0.00000000000000000D+00  0.00000000000000000D+00
44 17  3.57089790387901100D-01  1.74680890319335100D-11 -1.10650046912386700D-10 -5.65258659498088300D-01 -3.05815026735641500D-11
44 18  0.00000000000000000D+00  3.82036556839601700D-11  0.00000000000000000D+00 -1.35302629397592600D-01 -1.42873384970020200D-01
44 19  0.00000000000000000D+00  0.00000000000000000D+00  2.47391202724227800D-11 -2.98504152343356000D-11  0.00000000000000000D+00
44 20  1.39837439479042700D-11  4.84378766110140100D-04  0.00000000000000000D+00 -3.68220774395338900D-11 -4.00553696112532500D-02
44 21  2.91097948810511200D-11  0.00000000000000000D+00  2.72873160404481600D-01  0.00000000000000000D+00  0.00000000000000000D+00
44 22  0.00000000000000000D+00  0.00000000000000000D+00 -2.33432267574031400D-01  4.77728925653858200D-04 -1.78230484716968100D-11
44 23  2.58576398528245400D-11  0.00000000000000000D+00 -1.62699182946050300D-11 -3.30082023245609500D-01 -2.15975290190185600D-03
44 24 -1.11983995574485000D-11 -2.29801349964903500D-11  7.86282798454648800D-11  3.07637249881164100D-11 -1.54949217764649100D-11
44 25  2.29154713628380300D-11  4.80981276282883800D-04  0.00000000000000000D+00 -3.62366324863457000D-11 -4.00567620426936400D-02
44 26 -1.74798114362338100D-11 -1.91701167541748100D-11  2.72867580236359400D-01  0.00000000000000000D+00  0.00000000000000000D+00
44 27  0.00000000000000000D+00  1.16894916793478000D-11  1.17147638001507200D-01 -2.01899657747181300D-01  1.60170411152020600D-11
44 28  0.00000000000000000D+00 -1.08891911782156600D-11  2.84633274177382200D-11  1.63196563630986200D-01 -2.86915588080393000D-01
44 29  3.11092112306345700D-11  7.66957453129835400D-11 -3.58339899889217100D-11  1.76359961644765500D-11  3.78320762677215800D-02
44 30  0.00000000000000000D+00 -1.87037336641852800D-11  0.00000000000000000D+00  0.00000000000000000D+00 -6.09781088347994600D-03
44 31 -1.61943910439166000D-11  0.00000000000000000D+00  0.00000000000000000D+00  0.00000000000000000D+00 -6.09874254539189600D-03
44 32  5.36801393344110400D-11  7.31262154037979800D-11  2.70419878755648200D-11  0.00000000000000000D+00  3.78320679145824000D-02
45  1  0.00000000000000000D+00  0.00000000000000000D+00 -8.44409445809324400D-11  0.00000000000000000D+00  0.00000000000000000D+00
45  2 -1.51850927486348000D-01  7.82492698083174000D-11  0.00000000000000000D+00  7.07624323561025900D-01  0.00000000000000000D+00
45  3  0.00000000000000000D+00  0.00000000000000000D+00  0.00000000000000000D+00 -3.28534151785126900D-02  2.38756667382607400D-01
45  4  0.00000000000000000D+00  0.00000000000000000D+00 -3.51432046842931100D-11  0.00000000000000000D+00  0.00000000000000000D+00
45  5  1.51849482703763200D-01  0.00000000000000000D+00 -3.54990810707912000D-11 -7.07608232702792700D-01  0.00000000000000000D+00
45  6  0.00000000000000000D+00  0.00000000000000000D+00  0.00000000000000000D+00 -2.23182171787556100D-01 -9.09485435359863600D-02
45  7  0.00000000000000000D+00  0.00000000000000000D+00 -5.02754878862245900D-11  1.01393065706094100D-11  0.00000000000000000D+00
45  8 -6.27041892700201600D-01  1.05516467536024200D-11  2.56168431913206500D-11  8.56517907503165800D-01  0.00000000000000000D+00
45  9  0.00000000000000000D+00  0.00000000000000000D+00  0.00000000000000000D+00  2.99678181354932700D-01 -1.06067891213640300D-01
45 10  0.00000000000000000D+00  0.00000000000000000D+00  3.76909109281019400D-11  0.00000000000000000D+00  0.00000000000000000D+00
45 11 -1.28734843935792500D-01  5.99231169078700000D-11  0.00000000000000000D+00 -1.04852333790384100D-01  0.00000000000000000D+00
45 12  0.00000000000000000D+00  0.00000000000000000D+00  0.00000000000000000D+00  3.27174829282721500D-01  5.49313256868278100D-02
45 13  0.00000000000000000D+00  0.00000000000000000D+00  6.18269418588505300D-11  0.00000000000000000D+00  0.00000000000000000D+00
45 14  1.28717508163687700D-01 -1.83570523041202900D-11 -2.17952680525990100D-11  1.04871704074426300D-01  0.00000000000000000D+00
45 15  0.00000000000000000D+00  0.00000000000000000D+00  0.00000000000000000D+00  1.16077991420112200D-01 -3.10809127802918600D-01
45 16 -1.20692253753147100D-11 -2.84243483092479800D-11  1.18800034992316800D-10  0.00000000000000000D+00  0.00000000000000000D+00
45 17  6.27061518453533800D-01  4.51339894349708800D-11  4.18485691665776400D-11 -8.56549148224769200D-01 -1.28507205562589100D-11
45 18  0.00000000000000000D+00  0.00000000000000000D+00  0.00000000000000000D+00  2.41715162798378600D-01 -2.06456738811785900D-01
45 19  0.00000000000000000D+00  0.00000000000000000D+00  0.00000000000000000D+00  1.42076981097868100D-11  0.00000000000000000D+00
45 20  0.00000000000000000D+00 -8.70048098726395600D-03 -1.71978233192822300D-11 -1.85677223864176000D-11 -2.25482960701645600D-01
45 21  0.00000000000000000D+00  0.00000000000000000D+00 -3.32231592348793100D-02 -1.02314682462285500D-11  0.00000000000000000D+00
45 22  0.00000000000000000D+00  0.00000000000000000D+00  1.33907265729815600D-03 -1.25520733829082800D-02 -1.48227885578049200D-11
45 23  0.00000000000000000D+00  0.00000000000000000D+00  1.40773907519064300D-11 -9.14893052729538900D-03  7.73373225266790100D-02
45 24  0.00000000000000000D+00  0.00000000000000000D+00 -1.12875678470408000D-11  1.57246514025664500D-11  0.00000000000000000D+00
45 25  0.00000000000000000D+00  8.71140174953394400D-03  0.00000000000000000D+00  0.00000000000000000D+00  2.25465756717213600D-01
45 26  0.00000000000000000D+00  1.21760534258877700D-11  3.32222400541204600D-02  0.00000000000000000D+00  1.12554056528950300D-11
45 27 -1.20848113769674000D-11  0.00000000000000000D+00  1.15363415484187700D-02  5.12212078710966000D-03  0.00000000000000000D+00
45 28  1.04635889578679900D-11 -1.80268143129411100D-11  0.00000000000000000D+00 -7.15376830968882100D-02 -3.07607530304204800D-02
45 29  0.00000000000000000D+00  0.00000000000000000D+00  0.00000000000000000D+00  0.00000000000000000D+00 -4.07582078780181400D-02
45 30  0.00000000000000000D+00 -3.00429031748902800D-11 -1.73630408887710900D-11  1.24237934288731500D-11 -7.34775295011906400D-02
45 31 -1.43146809606728500D-11 -1.69280802866800500D-11  1.38903445239714800D-11  0.00000000000000000D+00  7.34720985789168700D-02
45 32  0.00000000000000000D+00 -1.29930490359300500D-11 -1.70599507418722800D-11  0.00000000000000000D+00  4.07600296915146100D-02
46  1 -1.71656405062243400D-11 -3.01090512413859500D-11  8.03592651172958100D-10  1.39097584284178800D-11  0.00000000000000000D+00
46  2  1.74672208608213900D-01 -5.54102464816941500D-10 -1.80898654189035400D-10  2.75352348090794800D-01  0.00000000000000000D+00
46  3  4.51673464854773300D-11 -5.18584801043853300D-11 -8.97860734386413400D-11 -1.67816574320590000D-01  1.89161321310392600D-01
46  4 -2.10539519427354100D-11 -3.87473072446435300D-11  8.10857341618743000D-10  4.28011561428458000D-11  2.80384558808379000D-11
46  5  1.74656004916038900D-01  2.88166523998543800D-10 -1.22755847137779800D-10  2.75391547986037000D-01  0.00000000000000000D+00
46  6 -2.03646607440151900D-11  1.21948693852543700D-11  5.75985405908607400D-11  2.47669996485404200D-01 -5.07183451591230300D-02
46  7 -1.38843953145143700D-11 -1.63410620949832600D-11  1.13501962235436900D-10  2.05801907098470500D-11 -3.84759151278083500D-11
46  8  9.31762081671849600D-02  2.16981782175140200D-10 -4.11236969060826200D-10 -2.58820237945158900D-01  6.24255973184338700D-11
46  9 -5.90443375960434300D-11  0.00000000000000000D+00 -6.66835940263163900D-11 -5.08385532788712300D-02 -3.41592260717121000D-01
46 10  0.00000000000000000D+00  0.00000000000000000D+00 -1.56179817358668000D-10 -2.37791703236393700D-11 -3.88594688756592400D-11
46 11  1.05130451175784500D-01  0.00000000000000000D+00  9.38190409621463000D-11 -1.26791110616881400D-01 -1.45563835478880900D-11
46 12  2.32292985145887600D-11  0.00000000000000000D+00  2.21277318265528700D-11 -1.59424616274431700D-01  3.60380344668926900D-01
46 13 -1.22205842065389500D-11 -1.77486463121020700D-11  3.40317688593040800D-10 -2.88734320276852400D-11  1.14963987307001800D-11
46 14  1.05103299210588300D-01  3.24450145386748900D-10  1.52462477779137500D-10 -1.26730523843945400D-01  1.33803090950040300D-11
46 15  0.00000000000000000D+00  0.00000000000000000D+00  0.00000000000000000D+00  3.91826157772115200D-01  4.21893059313849900D-02
46 16  3.18023794570332300D-11  6.05512167337445700D-11 -5.69151215056059100D-10  0.00000000000000000D+00 -1.47636442791192800D-11
46 17  9.31499089475433500D-02 -7.56070735239184100D-10  1.43379800102787400D-10 -2.58803968578480600D-01  4.46762213505245900D-11
46 18  0.00000000000000000D+00 -4.14373410694115600D-11 -8.74742794711456900D-11 -2.70396966385533900D-01 -2.14826189345513300D-01
46 19  2.12151493844755800D-11  3.71161135737326200D-11 -1.57725134198353400D-10  1.35397598422676400D-11  0.00000000000000000D+00
46 20 -1.49637748195021400D-11  1.39088856747898800D-01  2.02017689520721700D-10  1.29180371568355800D-10 -3.39769134576883200D-01
46 21 -2.84487733466309300D-11 -1.22415007451538400D-11 -7.79386228881093200D-02 -6.90911755052634700D-11  8.51397934179290200D-11
46 22 -1.60486179126656400D-11  1.55019324665229100D-11  2.98717300615495800D-01 -1.47744040393490200D-02 -7.18656205142421600D-11
46 23 -1.77531550016163500D-11  8.96187755158580900D-11 -7.09121387237117500D-11 -2.67995845397393800D-01  8.78193806805848100D-02
46 24  4.53776698155597900D-11  8.51073042628184300D-11 -3.66054569477886000D-10 -1.30721022490828800D-10  5.88420105708376700D-11
46 25 -4.55393901013363300D-11  1.39083003325116300D-01  6.43556263746422000D-11  2.21679869022473100D-10 -3.39752393262839600D-01
46 26  3.24693211357629300D-11  5.59300032026847600D-11 -7.79328953100144200D-02  0.00000000000000000D+00  0.00000000000000000D+00
46 27  0.00000000000000000D+00  1.22154317937180800D-10 -1.62144091554057500D-01  2.51226278959530600D-01  1.76718148902982900D-11
46 28 -1.19433480797993500D-11  0.00000000000000000D+00 -9.10700668217247400D-11  2.10073834107460900D-01 -1.88184050344954600D-01
46 29 -1.24325533211251000D-10 -3.80499639332468400D-10  1.40154632813870500D-10 -5.59743184708071900D-11  4.92283130183271400D-02
46 30  5.68769721501355000D-11 -2.68577993744391300D-11 -3.31432260379532300D-11 -5.69208924268428900D-11 -5.94661096254709100D-02
46 31  3.30179164565229300D-11  9.51369712371608000D-11 -1.32206969642102800D-11 -2.59966119651282800D-11 -5.94661642361656000D-02
46 32 -1.78321322830361000D-10 -4.16166055926422000D-10 -8.70447390308468400D-11  5.88821557598454800D-11  4.92234686563603800D-02
47  1 -2.26965154364653100D-11 -4.76940124812403200D-11 -1.00375254258161600D-10 -3.84641792920533600D-11  3.89692397070995900D-11
47  2 -1.04963728605674600D-01 -4.06803069396541200D-10  8.39707981008641800D-10  6.29455693924894800D-02  0.00000000000000000D+00
47  3  5.89347714901130000D-11 -6.42889827030905400D-11  1.10095611162593100D-10  2.99849619402103800D-01 -4.67757956173174300D-01
47  4  0.00000000000000000D+00  0.00000000000000000D+00  2.35794921633125300D-10  4.27671530528994800D-11  3.46193833543975400D-11
47  5  1.04996596533028800D-01 -5.60686936090188200D-10  5.44171713409118800D-10 -6.29116937102339600D-02  3.28859838428537600D-11
47  6  3.63409082044649200D-11 -6.92268920473186100D-11 -5.29488476602377000D-11  5.55058834511737400D-01 -2.57453498162945800D-02
47  7 -8.59013444809218000D-11 -1.61028088239075100D-10  1.24528685065660500D-09 -3.05865695055229000D-11  6.31621897526650400D-11
47  8 -3.13832884962489100D-02 -4.79909166712848000D-10 -1.02672159780111200D-10 -7.36398843624060900D-02  0.00000000000000000D+00
47  9  6.70231074557278100D-11 -7.64694687364773200D-11  4.49332711511404700D-11  5.94269471470478500D-02  5.80602510966889900D-02
47 10  0.00000000000000000D+00 -5.15747557502993000D-11 -3.40963859069498000D-10  1.78612031662008400D-11  1.62120363524030200D-10
47 11 -1.23169824747010200D-01 -9.58545459349935100D-10 -2.13159560612441300D-10  3.51100012309246900D-01  6.26216777825975600D-11
47 12  6.71567150444901200D-11 -1.29778392827088400D-10 -9.27126893166205100D-11  3.54047289179731400D-02  1.29060300624726400D-01
47 13  0.00000000000000000D+00 -4.32009095605032800D-11 -8.01480720827002200D-10  5.87768434028303800D-11  1.60613856649166600D-11
47 14  1.23173982596642000D-01 -3.83473861561910900D-10  2.41703969858986700D-10 -3.51109027896624200D-01  9.38002569586311600D-11
47 15  8.44288474029745700D-11 -1.78229104361605300D-10  5.44820418921487500D-11 -9.39971217966479900D-02 -9.51932625976805400D-02
47 16 -3.54083774072149500D-11 -4.41598640826503900D-11 -6.25828150794808100D-11 -1.90768898195652800D-11  0.00000000000000000D+00
47 17  3.13914679754238800D-02  4.86098598798226300D-10 -4.19844825102087500D-10  7.36106345972142600D-02  0.00000000000000000D+00
47 18  4.20263475202623400D-11 -4.73710999833538000D-11  3.91456878078980900D-11 -2.05955792659106100D-02 -8.05153598067544100D-02
47 19  2.50286711905161100D-11  3.14630415503989500D-11 -4.11915231730403200D-10 -5.01069768596652500D-10 -4.66044303000612300D-11
47 20  0.00000000000000000D+00 -4.27555258012560600D-02  1.74624335821346800D-11  2.10724472552136600D-10  2.25414902767472000D-01
47 21 -1.66817185936550800D-11  2.03619739780818000D-10  1.11139124124155800D-01  3.04245991985685800D-11  0.00000000000000000D+00
47 22 -2.19700465745488600D-11 -7.39663171063498300D-11 -5.01728941906547900D-01 -2.83897343785965100D-02  2.08451036410247400D-11
47 23  1.73423716167611000D-11 -3.81874752577862300D-11  1.03608219153007800D-11 -1.37204205016411800D-01 -1.17611674333496200D-01
47 24  0.00000000000000000D+00  0.00000000000000000D+00  5.25902489238454700D-11  1.80911407381642800D-10  5.27681146082475900D-11
47 25  2.63913222958745200D-11  4.27808932032740900D-02  6.47825973231276800D-11 -1.60914112021264700D-10 -2.25477371472709000D-01
47 26 -1.49351501488870800D-10 -1.46304188789792100D-10 -1.11149391070942900D-01 -1.96541841741840400D-11 -1.47010947120898700D-11
47 27  3.43552788862738300D-11 -5.99409455916103400D-11 -2.26353274031032500D-01  4.48724334495306700D-01 -9.80973567226740700D-11
47 28  3.74729075873365400D-11  6.06244491353375400D-11  2.41187858537468700D-11  3.32614349155766800D-02  1.77608346194760600D-01
47 29  3.03765623106771400D-11  1.49324609554349700D-10 -8.90212452800381000D-11  3.27876813863545300D-11 -9.92496491915052100D-04
47 30  7.08575744410372700D-11  8.17226185778047800D-11  7.15125230692157300D-11 -1.92617956604204600D-10  3.22786868980661200D-02
47 31  6.72416826154772000D-11 -2.68536018990630500D-11 -1.16138388412208800D-10 -5.65412881173600400D-11 -3.22886873709340800D-02
47 32  1.40920667791402900D-10  2.91793031661123400D-10  1.83192543063674400D-10 -1.27818397635732200D-10  1.00006175287142600D-03
48  1 -2.14665574002328900D-10 -2.72124156679841300D-10  3.16021533883506300D-09  1.17494181275278200D-10 -2.54204295739185500D-10
48  2  5.34061590923620300D-02  1.12313288593020400D-10  7.89556865456009900D-11 -3.98366037620023800D-01  1.31426537973125600D-10
48  3  4.47322084226631500D-11 -1.76158746395786400D-10 -1.43064773718038200D-10  9.33918500090884600D-03 -2.03832924527795400D-01
48  4 -2.90186563470574600D-10 -5.37468482019781300D-10  2.72756936667278600D-09 -1.45269651071823600D-10 -1.74071483021058200D-10
48  5  5.33980979394691500D-02  3.79298142463097500D-09 -1.68627893518642500D-09 -3.98345508407289900D-01 -3.46640591248600800D-10
48  6  3.17956155283781100D-10  2.86844359648186800D-11  2.76238460312489300D-10 -1.81190096750917500D-01 -9.38402833341992100D-02
48  7  2.34059832455343900D-11 -4.10833222690041300D-11 -1.60327616023061100D-09 -7.51756522870345700D-11 -3.33749083914463400D-10
48  8 -8.98113713561249500D-02 -3.45483785082579100D-09 -7.56994212599943600D-10  2.71886989166210100D-01 -7.07873309457818300D-11
48  9 -3.55584330975795100D-10  4.26371661921576300D-10  2.71991988759214800D-10  1.92393671297841000D-01  1.09441131983670900D-01
48 10  2.59807636420768900D-11  0.00000000000000000D+00 -2.68334238725555300D-09 -1.00522640326122200D-10 -5.80270009927539000D-11
48 11  2.77876845825047100D-01  1.92224520130949300D-10 -1.14870737753235100D-09 -1.86302399360589600D-01 -2.20091135396647200D-10
48 12  2.97783331240279800D-10 -7.76921958436323000D-11  7.96298040902614900D-11 -1.40611746343827000D-02  1.86627722754862300D-01
48 13 -3.50118006911214600D-11 -6.99725729009193300D-11 -1.27667511148779800D-09  1.22287840911653100D-10  9.36625540027371200D-11
48 14  2.77859592980807200D-01  1.68202413914888500D-10 -2.84508443101895300D-09 -1.86281455718060500D-01 -6.60875830777603500D-11
48 15  7.10972091674790700D-11  0.00000000000000000D+00  1.14471435939250900D-10  1.68656014192634400D-01  8.11417837221544100D-02
48 16  0.00000000000000000D+00 -2.50402209457541900D-11  9.54233267609934600D-10 -1.16933025788335100D-10  2.08907410764841100D-11
48 17 -8.98243357922781000D-02  8.82127511520106300D-10 -3.24773016444289600D-09  2.71901331340343700D-01 -3.58938265824855600D-10
48 18  1.41754241662041200D-11  3.44762841658653900D-10  1.68122676119061700D-10 -1.44677444169256000D-03  2.21331963754315800D-01
48 19  3.58971111622384700D-11  1.02757887453106900D-10 -4.88691465957970500D-10  3.20117472751960500D-10  3.35544742330917700D-11
48 20  7.13261710134194900D-11  2.21373956796433800D-03  6.70682329585427800D-11 -3.80814020947772600D-11  1.01000654978559900D-01
48 21 -1.99070591686765100D-10 -4.51953748746277200D-10  2.48702261899067200D-01 -6.93426546022106400D-11 -2.62008280009988800D-10
48 22  3.31350934612199400D-10  1.63905238885961400D-10 -3.46034035641747900D-01  3.94376822558434500D-02 -3.38929879783384000D-10
48 23  3.75296800855023000D-10 -3.63669210716396200D-11  4.13831777066177600D-11  4.18699359735886000D-01 -9.44874179083781800D-02
48 24  8.18213618100655700D-11  1.48358619703880200D-10 -1.33380600459815400D-09 -1.64652090590250900D-09 -5.83041301792443400D-11
48 25 -5.60685182205665200D-11  2.21965274965471600D-03  2.20494716352890200D-10  5.77463283409975200D-10  1.00991359559759400D-01
48 26  4.34917865234275300D-10  6.14832853303905000D-10  2.48707090779171600D-01 -3.39888625068231100D-10  1.81691976422345400D-10
48 27  1.58196648645885700D-10 -2.50745249599040500D-10  2.07197141717899700D-01 -2.79931223229322700D-01  3.36146673063561700D-10
48 28 -1.70377649286414100D-10 -1.65769023777147600D-10  2.53877089784701200D-11 -2.91214148725245300D-01  3.15330659565627700D-01
48 29  8.26117623191081900D-10  1.77272489121888400D-09  8.10940800529852100D-11  2.18739995701817300D-10 -1.42546720501917400D-01
48 30 -1.92697228561291300D-10 -8.63693616110573400D-10  1.21689718076669400D-10 -1.05641317440217400D-10 -3.39899489963040400D-01
48 31 -2.73824794190827000D-10 -7.61859298027352300D-10 -8.94275876895344300D-11  3.00947815651648000D-10 -3.39891514679883200D-01
48 32  7.36390162715556400D-10  1.34997292582892500D-09  2.19179749183141700D-10  5.36051795340286100D-11 -1.42538333538485400D-01
49  1 -1.37972422644707300D-01 -4.11532972628401500D-01  8.93141384330595200D-01  1.47284767451360000D-01  1.04603698672469300D-01
49  2  3.06418197464762500D-02 -7.90722220888041400D-01  2.54513571229023000D-01 -9.46916166254877200D-02 -4.94432562532500200D-02
49  3 -6.38520948213085500D-02  1.13295351074558700D-01 -1.39917432857029000D-01 -2.74269430665617900D-02 -5.44377340326356800D-02
49  4 -6.68192796542351400D-03 -3.17042207169539900D-02 -5.32388970685355700D-01 -1.10368515204025600D-01  5.96650978913348500D-02
49  5  4.22526153294328900D-02  7.35646056452052600D-02  9.30206108198470400D-01  7.13245272238161000D-02  2.98862337697054400D-02
49  6 -7.34453428369838100D-02  4.35591090672787500D-02 -5.87088969495996900D-02 -8.14684359585433400D-03 -3.27844093538173900D-02
49  7 -1.50780919201709500D-01 -3.47144593735182200D-01  1.19074001277700700D+00  6.91605789016909000D-02  1.03481608280988000D-01
49  8  1.68638114394118500D-02 -1.65630926970987700D-01  7.42920279616823400D-01 -5.83032286528886600D-02  7.37144609891047000D-02
49  9 -1.56029179118643500D-01  8.23147181295387500D-02 -1.19603016682103500D-01 -3.32157146341478300D-02 -7.53046115207964000D-02
49 10 -1.63272079183274200D-01 -3.29064390118340100D-01  1.03997384683656700D+00 -1.47856561922111700D-02  4.72045609039591200D-02
49 11  4.46455362241976300D-02 -2.83871824907823500D-01  2.53621660628648200D-02 -9.42253712396956100D-02  4.66019459703724500D-02
49 12  6.52252839160060700D-02 -1.11827229886378300D-01 -1.84012842703342500D-01  4.65976925493013000D-02 -1.24266968317198800D-02
49 13  5.76880601390666900D-02  5.77606459133753100D-02 -9.64160416024230200D-01  3.89507373083991000D-02  6.06685439931664900D-02
49 14  6.43048089695129300D-03 -5.67583270685787100D-01  1.20018464538569400D-01  4.35842270207235300D-02  1.35072454313427700D-01
49 15 -1.96727466262655300D-01  6.16550119492282100D-02  1.06033632478586400D-01  1.03962480757051600D-02  8.50036760266652800D-03
49 16  6.23325313627848400D-02  1.31991152128565200D-01 -5.14603574025450100D-01 -5.08961761156853400D-02 -1.34815876409065100D-02
49 17  3.30368003416218000D-02  4.77915338118403500D-01 -4.63787274394020300D-01 -2.75109110796309400D-02  2.22269898682326600D-01
49 18 -2.67938674694797900D-01  4.56687760124710900D-02  7.82287591611092900D-02 -7.43940297529116800D-02 -1.34051826048178400D-03
49 19  1.04667676413124500D-01  2.52674839608143100D-01 -4.14523303949456200D-01 -5.07759370999285100D-01  1.09808938128926700D-01
49 20 -1.46879312676670600D-01 -2.83427947520886000D-02  1.26382086247655300D-01  2.51235182434146700D-01  5.92567714313697700D-02
49 21 -1.21203012378569700D-01  1.27168838929505600D-01  5.41801277593816700D-02 -2.44150231833352700D-01 -1.10165744489703600D-01
49 22  3.54315976323056300D-01  2.29646895288763300D-01  4.63603223949721700D-02  3.95137476821012900D-02  8.95168782188906900D-02
49 23 -2.16654291377707000D-01  1.27137413158815900D-01 -9.93145299348998800D-02  3.36101450083599400D-02 -2.29314632758548700D-02
49 24  1.85046966157237900D-02  6.65712488251551000D-02 -3.92138886761634500D-02 -1.29529952074983700D-01 -6.31230803223238300D-02
49 25  1.24711665795073500D-01 -4.52423634659019900D-02  7.05056447769714500D-03 -2.65147151382236500D-01  2.06984857419774500D-02
49 26 -1.12254832043284200D-02  9.83046489020602500D-02  2.86390404885811300D-02 -6.03439924995330400D-02 -5.90855498725899000D-02
49 27  1.19429542372122600D-01 -2.50663535662517900D-04  1.46465818363689700D-02  1.16937128053753000D-01 -7.09076139349322400D-02
49 28  5.33581959408855700D-02  1.75494179940466300D-02  1.51594169131875300D-01  5.68666048533053800D-02  5.44340593053482800D-02
49 29  4.84145632737773900D-02  1.68380834496371400D-01 -3.63972491007070300D-02 -1.28520298377866800D-01  6.51485734134473700D-02
49 30  2.12251535784355000D-02 -9.43524873892349600D-02  1.09875642104443400D-01  7.34404629908753000D-02  3.66119785597978200D-02
49 31  9.54621702973257000D-02 -1.05122578666885900D-01  6.94020427460316100D-03  2.92210364481463700D-01  2.00551674249364700D-02
49 32  1.26547278896906600D-01  2.83306514613658500D-01  1.00081092105169000D-01  4.32745334148575300D-03 -4.54165875183076000D-02
50  1 -2.37951608403150400D-01 -4.98345834643323400D-01  9.43209261969612600D-01 -1.02749293922843300D-01  5.73166506776816200D-02
50  2  6.89166837193580800D-02 -1.07649407912706000D+00  7.66875737252876100D-01 -1.83504669576965500D-01 -1.30723489699600000D-02
50  3  6.19165513265397800D-02 -4.88442023565794000D-02  4.66131691993789300D-03  3.09767929246828500D-03 -2.01150727055776500D-02
50  4 -1.83057103471726500D-01 -3.27251141309566600D-01  2.02520342081373700D+00  4.28039899747468100D-02 -4.39123678262233400D-02
50  5  4.65426072386274500D-03 -6.51896788179382800D-01  7.46390342347069800D-02  4.76794355081633200D-02  1.31809764134558700D-01
50  6  1.46339801304521600D-01 -2.78149565439080300D-01  4.96866210662799000D-02 -9.05727222273339900D-03 -6.13605850757070300D-03
50  7 -9.68183049532911300D-02 -2.00202522206068700D-01 -4.50532781918533100D-01 -1.04357524104328000D-01 -2.44378800340168600D-01
50  8 -4.32050425122276800D-03  4.24734697823011600D-01 -4.10855556600658000D-01 -1.52564111108550100D-02 -1.68269915734441800D-01
50  9 -7.97083446637152400D-02  2.47978260398156000D-01  1.65895373835193500D-01 -3.96818100583683400D-03  3.21686316926367400D-02
50 10 -1.26515232792329100D-01 -3.43115117599315600D-01  1.16667394265520000D-01  6.42597976165240600D-02 -3.75567679002355800D-02
50 11 -1.77685605976635700D-02 -2.84384624021738400D-02  2.96792148345793800D-01 -2.97376950659744600D-02  8.46524132176806100D-02
50 12  4.04610474393820700D-02 -1.25113460657063200D-01  1.34620831946080000D-01  5.77962108436997900D-02 -1.65637505924529900D-02
50 13 -2.55643210826366100D-02 -1.05016499219289800D-01 -7.63190514456028100D-01  3.29662085695157600D-02 -2.07235224372974800D-01
50 14 -1.18464721005106300D-03  5.38803136406897900D-01 -4.30773827014045800D-01  7.88903758637133600D-02 -1.72909876932947500D-01
50 15  2.36464921135089800D-01 -6.35550442021420200D-02 -1.31584994042406200D-01  1.19118073868540100D-01  6.67443560276743500D-02
50 16 -5.39038096957157300D-02 -4.18105249662658200D-02 -3.95219793106292500D-03  9.09800595654097900D-02 -1.26313463170685000D-01
50 17  1.38563909573121100D-02 -5.96568620590411200D-01 -1.00767263804463000D+00 -3.98554047133285300D-02  1.07813879228946600D-01
50 18 -1.78977745644041300D-01  7.11638664150951600D-02  2.12051922006363900D-01  6.32567898467334300D-03  6.31284631407203100D-02
50 19  3.55114844628253000D-02  6.12848535678024200D-02 -5.31807495987064900D-01 -4.45423112134974600D-01 -6.51263799962786100D-02
50 20  9.51444282428888900D-03 -6.45982865662297300D-02  3.31919683415504800D-01  2.10386531942694700D-01  1.44272087750335500D-01
50 21 -2.64081011911154100D-01  1.33264415307934300D-01 -6.37411190696309100D-03 -1.93863506758494900D-01  3.46982846896068300D-01
50 22 -1.53119340137573200D-01  1.78022609302472800D-01 -1.95201785917450900D-03  5.71804233836995500D-02 -5.46775079866003300D-02
50 23  7.27871424455567400D-02 -1.81096344589567000D-02 -1.04016114031916000D-01 -7.16449877018312500D-02 -5.46325979814977600D-02
50 24  5.70338895374392200D-02  1.30413764685341200D-01 -3.71309043142329900D-01  1.13646930251964000D-01  5.10368289320170300D-02
50 25  1.49685475878444700D-01 -7.57610459937958100D-02  1.22092254182579300D-01 -6.90169105321518200D-02  1.21477080442101500D-01
50 26  6.54131266186067100D-03 -3.22479205975816800D-03 -8.37757471911404300D-02 -1.20977086177347500D-01  1.32933031467856600D-01
50 27 -1.19559452905095300D-02  5.53680476973787800D-02  7.26350083529866300D-02 -6.22321295029006500D-03 -1.72539571574538500D-01
50 28 -6.03961854040130200D-02  2.32935756978551700D-01  1.07207207271879900D-01 -3.35251415307714200D-02  4.42837974958498700D-02
50 29 -3.69610828225378100D-02 -1.75376789222522600D-01 -1.38464933918662800D-01 -2.98463344065011900D-02  5.57793906146659800D-02
50 30 -8.51420600160219500D-02  1.67296176046612300D-01 -7.97759167778310700D-03 -8.26745072807462400D-03  3.08768993464634200D-02
50 31 -7.83511836435477600D-02  2.70697763232130600D-01 -1.17931946207408300D-01  1.02554063205713100D-01  5.03857451482437200D-02
50 32  1.17306792181742200D-02 -1.12717309789898000D-01  1.76387561724627400D-01 -1.50505558635671700D-01  4.38892517355392400D-02
51  1 -2.74260090556295800D-03  1.04366146755242500D-01 -1.92348110203608400D-01  5.50046810987265200D-02  3.49080105267422700D-02
51  2  3.52235098134318400D-02  1.11055494939332100D-01  4.54872176240086100D-01  6.59206505252658800D-02  1.63697077857759600D-01
51  3 -8.77666889743357300D-02 -7.59303888834232800D-02  6.03119378825923400D-02 -1.65769992841346300D-02  1.06296162568665200D-02
51  4 -3.36861412949772000D-02 -1.82996946312874700D-01 -2.74468807456225900D-01 -8.71087292228327800D-02 -2.19093810151073300D-01
51  5 -2.97081030133814300D-02 -1.81832698636395700D-01  7.34281385993875500D-01 -1.12273255508118200D-01  1.02670115990357900D-01
51  6 -2.02151593701844700D-01  9.94814777114869700D-02  1.56189433566505800D-01 -8.20974343778682200D-02 -3.50279452140716000D-02
51  7 -3.90860209885187900D-02 -5.73683116818279500D-02  9.72281086641857800D-01  8.97558117003441300D-03  1.46439818243726500D-01
51  8 -2.04216368351286900D-02 -9.66896911355205200D-02  2.29732017408678800D-01  8.17259747558356800D-02 -1.52369028321609100D-01
51  9  1.07765607560546200D-01  4.46034207610628400D-02  4.16203427459241400D-02 -1.82586710123187900D-03 -2.52347931809319100D-02
51 10 -1.29051561387873300D-02 -7.00601176310979600D-02  7.40744513074151600D-03 -1.11077008999899200D-01  4.84701268794519000D-02
51 11  2.32752356721637800D-02 -2.29969548236937700D-01 -1.44223207529986000D-01 -1.22286620682639600D-01  1.30784346701424500D-01
51 12 -1.02655231042489600D-01 -2.81291156589349300D-02  3.69865491349829700D-02  8.01870145312442300D-03  8.01901450949681600D-03
51 13  3.18386499988117400D-02  1.11816240859644700D-01 -7.08145923469047000D-01  1.85803145092336500D-02  7.69001332630153100D-02
51 14 -4.65753410461338300D-02 -6.80867012376180100D-02  3.99301634436551500D-02  9.17319508765323900D-02  7.78454554865572200D-02
51 15 -2.36356344983396900D-01  1.58510889496840000D-01  7.69467510009123100D-02  4.97835574925869500D-02 -2.74738024437206600D-02
51 16 -5.88768054919946000D-02 -1.70247032659889700D-01  4.84988168038532500D-01  5.51539890529354300D-02  4.67707199259319800D-02
51 17  2.32880758441350900D-02  2.34966112863062400D-01 -4.44091553602920100D-01 -6.19205270055537300D-02  1.53121978626451700D-03
51 18  8.65898105903864700D-02 -8.81210303766508100D-02 -2.44085855816136400D-01 -4.92984925267717800D-02 -1.48121737196117400D-02
51 19 -2.08669663296839600D-02 -9.54511354382331100D-02 -1.30877352001779600D-01 -1.43767060760211500D-01 -9.82063470717808700D-02
51 20  5.50314521395818500D-02 -7.52813990137542000D-02 -2.14866484326277200D-02  8.89659381506732500D-02  4.07107728659701600D-02
51 21 -7.56377244510246900D-02  8.02672192270017900D-02  5.22154403790883300D-02  3.55876087231049800D-02  3.68176128277062400D-02
51 22 -7.24052215508114300D-02  5.49524480166557600D-02  6.54259287122249000D-02  1.45421141306079600D-01  1.06681476533293800D-01
51 23  2.50325479383912600D-01 -3.57006955917206500D-01  1.85510601888867500D-01  1.46367395644302900D-02  9.58553140753228700D-02
51 24 -2.86941095374496100D-02 -3.34590054620779300D-02  4.94881644970577800D-02 -2.38659543813484700D-02 -1.26058997515900800D-01
51 25 -5.75382009496332700D-02  3.86567697216007100D-02  6.01730611248582600D-03 -1.94407642386481800D-01  2.33142266656002800D-02
51 26  6.68400188465352900D-02  4.40583250340609100D-02  1.35767384524376500D-02 -9.35233136862278900D-02 -7.12506971851331500D-02
51 27  1.64774010871360700D-01 -1.97251381509803500D-01 -8.04408674817119500D-02  2.39383922231105300D-03 -1.63002256987445700D-01
51 28 -5.77765957431319600D-02  2.20778852730577700D-01  3.28856741110387000D-02 -9.59648943706647200D-02 -4.46649661889377200D-02
51 29 -1.24613532632211100D-02  1.32916453906931700D-01  7.00949791967353500D-02 -1.10044836500192300D-01  1.46423073297522600D-02
51 30 -1.73004333352744900D-02  1.07869679874585300D-01 -1.95030518618569300D-02 -3.93083121399043700D-02  4.33801900010456100D-02
51 31  1.61066925917697300D-01 -1.26616806826186500D-01 -7.32336589723095900D-03  2.12480279856628500D-01  3.34592587500719800D-02
51 32  1.13826026443910200D-02  1.60655797093375800D-01  1.96988119715312200D-01 -6.87040952704213600D-02 -1.32010151311398600D-02
52  1  2.30968036068096800D-02 -2.27524869402867600D-02 -2.25079460204690000D+00 -1.41461169045830200D-01 -2.43959618201892200D-01
52  2 -3.32775700695109400D-02  4.06966662554942600D-01  4.66527156767843200D-01 -1.86600412466411600D-01 -8.27225086403153800D-02
52  3  1.53874466872820100D-01 -7.11519582325043500D-02 -4.41135021316682500D-02  5.42956129444467600D-02 -1.47189456996175900D-01
52  4 -9.84299614669133500D-02 -2.35601815221133400D-01  6.02755796947696100D-01 -5.65403171704181000D-02 -1.24588637794122200D-01
52  5  2.97855266433815700D-03 -1.07425349877030500D+00  1.13454735846032400D+00  7.37649918918987900D-02  4.11906684750825200D-02
52  6  1.26420885726978700D-01 -1.67611554202061100D-01  1.67369947866322700D-01  2.19516043166083400D-02  1.87445041765094100D-02
52  7 -1.08414004133668300D-01 -2.16103129238564200D-01  7.88588877895646000D-01 -5.59055318091768600D-02 -9.72241003699764700D-02
52  8 -5.08102733979834200D-02  9.02674663702903600D-01  2.17659219027495400D-01  7.64582938534376200D-02  1.20432534871428300D-01
52  9 -8.38366705552416500D-02 -3.65958643161867400D-02 -1.92243346033387600D-03 -4.12910245641758000D-02 -4.43724572064738200D-02
52 10  3.62629787966731000D-02  8.44582063402487700D-02  1.70991726658230200D-01 -1.42639310804845400D-01 -1.34647467516496200D-01
52 11 -3.02937946530103600D-02  6.05541810004422500D-01  6.93970093273647400D-02 -7.53751756957264200D-02 -5.56529057879857300D-02
52 12  1.18650856610587400D-01 -6.29979508226017100D-02  6.30159775395339000D-02 -9.66827723895062700D-02  6.10114675133031100D-02
52 13  4.32107288975685200D-02  9.55598030594223000D-02  4.82405672263269700D-02  6.27993447083310700D-02 -4.81528638012350700D-02
52 14 -1.16845209188437800D-01  7.25764265959910500D-02 -5.41154915513700700D-01  2.09515191927439800D-03  1.03648489922288800D-02
52 15 -8.98392311104662700D-02  7.94743821182367900D-02 -1.59842289901143100D-01  4.41667949342411200D-02 -1.73699877158572700D-01
52 16 -9.27446454612687600D-02 -1.74804684944142100D-01  1.91073645372414900D+00  8.87439604297574500D-02  5.47321509734963500D-02
52 17 -1.89045726718044600D-02  7.43158506504488500D-02  2.51453771071008200D-01  2.23935082082655700D-01  7.48203045171774500D-03
52 18  3.25384988156710600D-02 -4.00205292673889200D-02  6.72744934134745800D-02 -2.16629630478746400D-02 -1.63203692769583100D-02
52 19 -7.43902999541994600D-02 -1.42466371196092500D-01  2.98818249856976100D-01  2.32371547821176400D-01  3.91353126122013600D-03
52 20  2.67923121831386100D-02  4.74114616449202500D-03 -1.40333623912582400D-01 -3.87651799666800400D-01  7.92810698727639700D-02
52 21 -6.56450823126877000D-02 -9.42020830816626400D-02  8.99880369179626000D-02 -5.15530547027865700D-03 -1.34554336295820300D-01
52 22  1.39709641766099000D-01 -1.02495165981109200D-01  6.32541180826923600D-02 -2.74052198752800700D-01 -1.01190266468973500D-01
52 23  4.26383869959659800D-03  9.69264277693772400D-02  1.31062045879089200D-01  1.99484750091715200D-03  3.58495646045692600D-02
52 24 -4.33883191804696400D-02 -8.74291345164589100D-02  7.06054405309684600D-02 -1.50777143991603200D-01  5.48370355740018000D-02
52 25 -2.74295244645676300D-02  4.12110951185486300D-02  6.01576058808764200D-02 -3.51205457069730300D-01 -8.82159750107370700D-02
52 26  2.20149057368179700D-01  4.15928994150039400D-02 -1.00325581564276400D-02 -1.43063735142147000D-01  2.17047922752441900D-01
52 27 -7.39841876102949500D-02 -2.70773001406078400D-01 -7.28626462676439900D-02 -4.86973810509310100D-02 -3.04587544117191200D-01
52 28  2.78117680581488300D-01  2.64698635357028700D-02 -4.57796952961474800D-02  5.36853148603246400D-02  4.72224919968730700D-02
52 29 -3.84689293304817800D-01 -2.21438869354569700D-01  1.89044405092078000D-01 -5.54662026010747200D-02  6.86476093079899200D-02
52 30 -3.46321884206745900D-02 -1.75788635816647600D-01 -4.02219864545733500D-02 -1.16084812200571800D-01  5.05536747647297700D-02
52 31 -2.83520197311577300D-02 -4.89074425826999300D-02 -1.64282455790950500D-01 -1.70689577486719700D-02  3.06243746236351800D-02
52 32 -3.27298102929059500D-01 -2.21895020697427800D-01 -2.16165840473669000D-01 -7.66096292735320300D-02 -1.40682067132134000D-01
53  1  9.91833675771635800D-02  2.05245890761052900D-01 -1.78815461234269300D+00  2.37718100385301100D-01  5.26465524658343400D-02
53  2  1.48353846813800400D-02  2.37823257083628000D+00  4.20927409155896000D-01  9.80693740805303100D-02 -5.17953239881033000D-03
53  3 -1.01181845769805900D-01  1.06361378168617000D-01  1.25158493284364900D-01  3.87156247841884500D-02  2.30356766711496800D-02
53  4  9.16416825104385300D-02  1.78755702096964800D-01 -8.14953311412617300D-01 -8.58803179932723000D-02  1.35556562300606300D-02
53  5  4.36214516225863500D-02  7.28497083220557000D-01 -1.71026209274695700D+00 -1.50673026590071000D-01 -2.13320041354542700D-02
53  6 -2.40822299452214900D-02  4.54142340806753600D-02 -2.78889345645500600D-02  9.20827748819758300D-04 -2.41360615925457400D-02
53  7 -1.02075424547770200D-01 -2.11968955287809800D-01 -4.34980218286465300D-01  6.73640969579411400D-03 -2.39486227001370000D-01
53  8 -2.48661060740126600D-02 -1.72390569930367400D-01 -2.13717403678424200D-01  9.54698711623013900D-02  1.20605895572990000D-02
53  9  1.38593252440895600D-02 -2.59199148013888700D-02 -2.60315295644114100D-02 -7.88216969500597900D-02 -4.38174552463880000D-02
53 10 -7.93769013881935200D-02 -1.19125190445387200D-01  1.02733257415543500D+00 -5.69343453602476400D-02  9.45100619111331900D-02
53 11  5.02549602392534500D-02 -6.34968512912271600D-01  1.62443296093400500D-01 -1.83025373756565000D-01  2.16349449019094600D-02
53 12  6.59142905376340100D-02 -8.75492354395439500D-02 -2.67153477114332600D-02 -4.86837271932657000D-02  4.92451776711006900D-02
53 13 -6.19822900781947500D-02 -1.65809417352258000D-01 -4.49374012851432700D-01  4.90029721009453600D-02  8.21843003995952600D-02
53 14 -2.44136731135730100D-02 -1.47602887090276700D+00  1.87398111518897800D-01  6.15517420187833800D-02 -7.13271839067440000D-02
53 15  2.70935134171489000D-01 -1.99607950264744300D-01  8.74431672606591800D-03  1.05203335246518400D-02  2.63640303747550400D-03
53 16 -3.23562812157688200D-01 -6.45355432854033100D-01  2.80050865433941500D+00 -4.87660355490143300D-02  1.11787846940108100D-02
53 17  2.48684237311863200D-04  1.93032786072565000D+00  1.17125476310942700D+00 -3.46452796088416200D-02  5.19382670706798800D-04
53 18  6.73629329700446100D-02 -6.78823156407527000D-02  7.10507637043240300D-02  5.49546526586266000D-02  3.41172342314574000D-02
53 19  5.03581312655100900D-02  1.34319142332774400D-01  2.75111300181367500D-02  1.65690293100585600D-01  8.01540622028528200D-02
53 20  8.06757206582451300D-02 -5.60390752373667500D-02 -3.22626058664443500D-01 -2.87891858019777400D-01 -6.05092991312207400D-03
53 21 -1.90498169977235500D-01 -4.09173538604778500D-02  7.29788106267943300D-02  3.02574975733835300D-01 -2.94318571751477500D-01
53 22 -8.25640398235734500D-03  1.00846883621509300D-01  4.72704582681239300D-02  6.99772481979062400D-02 -1.24078375753821800D-02
53 23  8.49641436088096600D-02 -7.25563060334266700D-02  1.63671473713498700D-01  3.56723279926599300D-02  1.41451090207717000D-01
53 24  1.00015107295589600D-01  2.64918821077987000D-01  1.27648253914129400D-02 -3.52516347741133900D-02 -9.47059469674007700D-02
53 25  1.19576135345102600D-01  1.56211852803899100D-02 -1.76784420526802200D-01  1.44369650860860500D-01  5.36677140801672500D-03
53 26  2.62081050537322000D-02  6.10157312438527600D-02  2.75592054860948900D-02 -5.92243756181867200D-02 -4.07468284074569400D-02
53 27  9.99712040256439800D-02 -2.31730744308271700D-01 -7.18568747549701700D-03  3.96967135905544500D-02  2.03289330880147100D-01
53 28 -3.44455135469270100D-01  1.41165804589123200D-01 -8.48951732113497500D-02 -2.85366651807206100D-02 -3.48346830543385500D-02
53 29 -1.35493643130534200D-01  4.32299096542439400D-02 -8.70085283711092100D-02 -6.19466053207979200D-02  1.12885166058428000D-01
53 30 -2.67565468812942600D-01  9.33565743690041000D-02 -3.33248572662544600D-02  2.94750507115354200D-01  9.26314517007425000D-02
53 31 -1.68450456735411400D-01 -3.88055917148749400D-01  1.96702467358108200D-01  3.69393443344629100D-02  5.42544244816152300D-02
53 32 -5.09531643718286200D-02  2.57347916953533800D-01 -3.33638465038823800D-01 -2.07890909552872200D-03  2.30014765286555800D-02
54  1  1.69181658788791300D-01  3.72190306582563100D-01 -1.35153586308386300D-01  3.42682433108077300D-02 -1.09999080248173100D-02
54  2 -3.92389838735262600D-02 -1.05252847509174100D+00 -2.22189324688489500D-01 -1.24686103593322300D-01  1.97321561970864800D-01
54  3 -9.19090044441396400D-02 -1.05412557526725200D-01  2.84650082116880300D-02  4.24576159916325200D-02  1.12869072476517700D-02
54  4  4.15530019236988700D-02  6.81006250871636300D-03  4.15592490711345000D-01  1.14867896284990900D-01  1.12564103019376500D-02
54  5  5.63157514715072700D-02 -6.19682269770069100D-01 -3.38444058705446600D-01  1.76058248397113600D-01 -5.32978272975219800D-02
54  6 -7.54781656423597200D-02  1.28775992939881500D-01 -1.56109212169034000D-01  1.24592090741042000D-01  2.08069581222463800D-02
54  7  1.49927041044245700D-01  2.87581078773961600D-01 -8.68624354016189400D-01  8.34544290247303300D-02 -2.08642909409721200D-01
54  8  6.02770678818705200D-02  3.87927067068707500D-01  1.99177752110866700D-01 -1.94742938316072700D-01 -1.66288113813845100D-01
54  9  7.61451282718422900D-02  9.01429855420028100D-02 -6.53518285681031800D-02  2.59664944571855200D-02 -9.30407177220761100D-03
54 10  6.36020944132241100D-02  4.25511544603228000D-02 -8.13284198170630100D-01  3.32991155882316100D-01  6.32386027886917400D-04
54 11  3.38867957695592700D-02  5.43902382678975400D-01 -2.34845679549808000D-02  5.58980132145779700D-02  8.13856196696013800D-03
54 12  1.34610311787782600D-01 -1.42748873754742600D-01  6.22828367290496600D-02  1.41936461202730000D-01 -1.19530367076130600D-02
54 13 -1.28484010267590400D-01 -1.87714998190326200D-01  1.10473930036841700D+00  7.10829432766858600D-02 -4.20023606043623400D-02
54 14  8.25106307792892700D-02  9.61795973159158800D-01 -9.65282974020770900D-02  2.00523932618315800D-02  2.99204927661014000D-02
54 15 -2.50804613916365700D-01  2.20884121150263900D-01 -9.62655598084550300D-02 -3.56232499650454400D-02  6.45939372223509100D-02
54 16  1.02206411641283000D-01  1.65633513234238200D-01 -9.98431919556841500D-01  2.57924289093720700D-02  9.59121890339982900D-02
54 17  6.68962156345665900D-03 -9.36829261899622900D-01 -1.43702401271938400D-01  3.41940004273600700D-02  1.17523131216982100D-01
54 18  1.56741579489585000D-02 -1.33197289165940600D-01 -1.83546848427535300D-01  8.67869957047949800D-02  1.19734380324761900D-01
54 19 -1.20765270979531000D-02 -1.88585084199224700D-02  2.10390071742916200D-01  1.70594909252430800D-01 -6.03764766398883700D-02
54 20 -9.22577568434664000D-03 -7.90942849681175800D-03  2.75539336150265300D-01 -6.20242881203492300D-02  1.01532622809393200D-01
54 21  3.97822643901276200D-02 -3.63070941646331100D-02 -1.16289422882235000D-01  2.24430929298640400D-02  1.71313569021463700D-02
54 22 -3.95744498320106200D-02 -1.17440587261698300D-02 -6.47992594335132800D-02  2.21727350990862400D-02 -4.47134453958943600D-03
54 23 -8.23453076244642800D-02  8.68166521640536000D-02 -2.77267144049055200D-01 -5.18706105926548700D-02 -1.55607265025467700D-01
54 24  6.64279813368475600D-02  1.73569902590188600D-01  1.30609804499601900D-01  2.58684065640534100D-01 -2.18070982770603400D-01
54 25  1.44706844376240100D-01 -6.84201427272339400D-02  4.75606257574412100D-02 -7.08489575993002200D-03  6.85437220170686200D-03
54 26 -8.27747328580342300D-02 -1.98838961133923400D-01 -6.62785883164935400D-02  4.88024848487158100D-02  1.17136293666677300D-02
54 27 -6.05161142153834800D-02 -1.33332857281162400D-01  2.08333923920634100D-01  7.31721159609370900D-02 -4.12727963641302200D-02
54 28 -1.23924467243638900D-02  5.36652430884940900D-02 -2.27827506806528600D-01  6.43391312062963300D-02 -1.01272221409910500D-02
54 29  6.94298398155782900D-02 -1.69492505255231400D-01  3.71999284365033000D-01 -1.24320985992034600D-01 -1.19360618400644500D-02
54 30  2.94470427048329400D-01  7.45537543696507200D-05  3.55853573736130200D-02  2.11374808968768100D-01 -3.46868334299334200D-02
54 31 -5.33643386052672500D-02  4.20131321452539100D-01  1.13907571165413100D-01 -8.73891759522231900D-02 -8.53932741822516900D-02
54 32 -8.67878117830790400D-02 -3.59189868058835400D-01 -1.50985749385254700D-01 -1.52262827931193600D-01 -7.16138282911762700D-02
55  1 -1.39139603309506400D-01 -2.33281553608444900D-01  3.97065630380242000D-01 -6.32974504715573800D-02 -6.04267823068380400D-02
55  2 -1.07145490945070600D-01  8.68966154181870500D-01 -2.42986970344650600D-01 -7.49202157720997100D-03  1.99829821832565200D-01
55  3 -9.04759929752951700D-02 -1.09353828857269500D-01  1.99891906430713500D-02 -9.87949043703452400D-03 -1.02549526769233500D-01
55  4  6.29069758817950000D-02  1.11258695331244900D-01  1.24864450146286200D-01  1.37108466270179300D-02 -1.34109745187112100D-01
55  5 -1.00195150190227100D-01  8.20459000239864200D-01 -3.72975870489394400D-01  2.43945526060291100D-01 -4.79938728147304300D-02
55  6 -4.17004123531978200D-02  8.96942851679278800D-02 -3.80418521654979800D-02 -4.71477802444798100D-02 -4.76983254179241700D-02
55  7 -3.19235733451562800D-02 -9.41083835218761000D-02 -7.41728512851470900D-01  9.76302820400203700D-02 -6.21628659724093300D-02
55  8 -6.38865591446624100D-03 -1.01022271047047200D+00  1.62100597693585300D-01 -2.03451377234077900D-01 -7.43139300725248900D-02
55  9 -3.23187927414659900D-01  3.97501857487184400D-01 -1.10930979921192700D-01  2.61567084250368600D-02 -2.86347124003397600D-02
55 10  8.37221743154526300D-02  1.65135459163899800D-01 -1.23625204872969200D+00  8.69341659647767800D-02 -9.86516928524795900D-02
55 11 -1.07967937402470400D-02  9.73515644374135400D-01 -5.72411020904491700D-01  5.05806311133093400D-02 -7.35811412104900700D-02
55 12  1.14495017867761900D-01 -4.09138766572713500D-02 -2.26284554520170800D-02  5.93518146759107300D-02  8.56073459990849100D-02
55 13 -5.05292660650146100D-02 -4.12062666257834000D-02  5.47196638953302200D-01 -3.19429190803984900D-02 -1.58911015761947400D-01
55 14 -3.29583926176207200D-03  6.78641859710101900D-01 -1.16955401680875300D+00  5.45173354560032200D-02  6.54167377227033800D-03
55 15 -7.22239606114858000D-02  6.56822868392149500D-02  3.34563959634242300D-02  4.18042066746963900D-02  5.30152093327104300D-02
55 16 -3.79513683931407900D-03 -1.17222412030971100D-02  1.07148160081252200D+00  1.65593276820745800D-01 -8.89818427403594300D-02
55 17  9.87653081869195800D-03 -2.41258204376725500D-01 -6.09115114617434800D-01 -3.20442577689767200D-02 -1.79860820815968400D-01
55 18  2.76465941786979200D-01 -9.66051209710095900D-02  1.77491953159769200D-01 -6.85499879833955200D-02  1.03314910915429600D-01
55 19 -2.35977566755662600D-02 -5.38886521897503200D-02  1.21260326561797300D-01  4.63054708965372000D-01  8.29326553227448800D-03
55 20  1.44317173031244900D-01 -3.13255646081359200D-02 -3.17535328760571600D-01 -3.66858074333528200D-01  1.27297445458828200D-01
55 21  2.23797569499646400D-01 -1.25513936692315300D-01 -5.68053969640774400D-02 -2.51497641027817200D-01  1.38469064629595400D-01
55 22  1.13028576398221600D-01  9.54617475258560100D-02  4.07225643059325900D-02 -1.91836331578203700D-02 -7.80428359085242100D-02
55 23  1.55462541331826000D-01 -7.74197054233018800D-02  3.27996512294600000D-02  3.61028405491529800D-02 -5.69846890412316300D-02
55 24  3.37253465695531800D-02  5.15604554501729100D-02 -2.48789158321509500D-01 -5.92059865938036700D-01 -2.63901247946068500D-01
55 25 -5.32788131831910700D-02 -4.45584217435337300D-02  4.44159321861067100D-01  4.79699010195794200D-02  6.07175444108193400D-02
55 26  1.57218488269796200D-01  2.77966359921308700D-01 -6.82878519396589600D-02 -1.15476563868799200D-01 -5.83294197422580100D-02
55 27  1.73805983611057300D-01 -7.78634417610872800D-02  5.16227028917336100D-02  1.41891434270124900D-01 -1.64229664666975100D-01
55 28  1.72237716983201600D-01 -8.00805231622652900D-03  2.80192474223857100D-02  2.60234481257410600D-03 -8.17778432339724700D-03
55 29  2.31216165511823900D-01  5.39149317402246600D-01 -2.99407208823754200D-01  3.48661655159013500D-01  1.27271553295378200D-01
55 30 -5.74509736048795100D-02 -4.37861305883993700D-01 -6.63055717999620800D-02  4.33791084583288900D-02  6.71825817044853100D-02
55 31 -9.08328840501088100D-02 -2.54530063441480300D-01 -5.49972029353421000D-02 -1.22584350158347000D-01  3.44423263075844500D-03
55 32  2.66065892485531700D-01  5.42249657230230000D-02  6.32708169178949900D-02  1.54043095189229200D-01 -1.09852576188294800D-01
56  1 -9.58049400422515400D-02 -2.96918761093598800D-01  1.84224294533021700D+00  6.47248769910603700D-02  1.52023696053284100D-01
56  2  1.80922068072689800D-01 -6.36811351405148600D-01  4.53249745833622400D-01 -2.42350081752426500D-01  1.36188117102704600D-01
56  3 -1.36232826276763500D-01  4.47091740584079900D-05  2.40218851068493000D-01  3.18888371046757200D-02  1.06404445173294700D-01
56  4 -8.16050344005029300D-02 -1.91137796010852800D-01  1.97389061408072000D+00  1.62060392331269700D-01  8.42160374810357600D-02
56  5  2.97890901694317300D-01 -1.04492182772476500D+00 -1.24742734588815400D+00 -1.16097158906099100D-01  4.97338156129403400D-02
56  6  2.42036820963124700D-02 -7.39374977092528600D-02  2.96182540737577900D-02  2.02043383591339600D-01  4.64292239087040500D-02
56  7  1.09647158475637300D-01  2.15368920190735000D-01 -1.36969148601393800D+00 -2.93494743163715200D-01  1.29743468286226900D-01
56  8  7.29380788953370300D-02  1.44525421805628400D+00 -1.87380147664916000D+00 -9.76469260441902200D-03 -9.98385327742298800D-02
56  9 -2.26236711554331600D-02  1.22462203929663000D-01 -1.34002070293067200D-01 -2.92240328744793200D-02 -9.60760410347078300D-02
56 10 -2.95199793006348800D-02 -3.49056474712537800D-02  1.79906958188730700D+00  3.39584271698066300D-02 -6.92405867426531500D-02
56 11  1.04833059084715000D-02 -1.32879428543770400D+00  1.31858468936439300D+00 -4.59747890121280800D-02  9.48307231748621300D-02
56 12 -2.23772222309795900D-01  1.28941499134932400D-01 -2.61040208786765600D-01  7.07075518165244000D-02 -9.00256540753633600D-02
56 13  1.05277522924898300D-01  1.97174324852918100D-01 -1.24467436792347900D+00 -1.96787916172478200D-01  3.55698034507427600D-02
56 14  4.72563358528670600D-02 -6.06332565844871400D-01  1.04878019953850700D+00  7.24743970203512400D-02 -1.71270200866783200D-01
56 15 -1.44637293095095500D-02  1.85733930176293600D-01 -3.84232606228352400D-02 -4.80163788087541900D-02  7.61775457952579600D-02
56 16  1.59721688747978600D-01  3.18485716102361800D-01 -1.37127279497229800D+00  1.49937530231242800D-01 -1.38633784834260900D-01
56 17  4.71949757617758700D-02 -8.38391616212267200D-01  2.52194997836709200D-01  3.92014964725828400D-02  1.55872662573255800D-01
56 18 -1.78230329865188400D-01  2.23576672919321200D-02 -1.84263492023878500D-01  4.54518204970257400D-02  1.25166017627575000D-01
56 19  1.43027346847702100D-01  2.83899449424862000D-01 -7.91117489368787900D-01 -7.47537559250695200D-01 -5.54023587284870700D-02
56 20 -1.81861698075475100D-01 -5.53219827001419200D-02 -2.38429847071596500D-02  4.86219645049629800D-01  5.41968688450734900D-02
56 21  8.81775688436549200D-02  4.32122256595857000D-01  3.29416298320801800D-02  9.44430946018283800D-02 -4.14088856492291300D-02
56 22 -5.30342089525991900D-02  3.81516327357586300D-02 -1.16436700909724000D-01  1.35944254773189800D-01  2.80005038304932300D-01
56 23 -3.68509165972719000D-01  8.85041276677869500D-02  9.60821156423590600D-02  5.16313926061918700D-04 -3.68475894131302100D-02
56 24 -3.11139302388096400D-02 -1.00876743022325700D-01  1.25864244913166300D-01  8.12907250919477500D-01 -5.00435705097507100D-02
56 25 -3.22173194215492200D-02 -9.60052390875214100D-03  1.38605889499642100D-01  1.05970260186526200D-01 -1.13062769287882100D-01
56 26 -3.19638775910486100D-01 -3.38412707013978600D-02  4.36186020816287000D-02  1.06068052869084400D-01  8.94788905397978100D-03
56 27 -1.15015941923063900D-01 -9.41144334309061000D-02  1.08973702235131800D-01 -5.18514907601498100D-02 -2.46487949043829500D-01
56 28  1.31277316491667400D-01  1.15210632552162300D-01 -3.75349340711962700D-02  1.30687068186493100D-01  1.14178917686612600D-02
56 29 -2.15987881642292100D-01 -1.01649639729329500D+00 -2.05190272642966800D-01 -6.64940543523580300D-02 -3.40510993597268100D-02
56 30  1.15462394665999500D-01  3.53971325118041100D-01 -3.45408207064300200D-04  1.76382489295556400D-02 -1.26954299862986200D-02
56 31  2.46710683157469900D-01 -1.44202083380745100D-01  5.70532798661151200D-02 -9.45409491802271200D-02 -6.16973850355985200D-02
56 32  1.17438611101316200D-01 -5.51510519069845700D-01 -1.84487351194455600D-01  1.67878212698320100D-01 -1.17309389620468200D-01
57  1  9.34629032512761100D-02  1.64562366938910600D-01  5.50082321799803300D-01  1.59978011211676000D-01  2.00945311727265000D-01
57  2 -3.24311302912195800D-02 -1.89899356798007400D-01  3.82141389277245900D-03 -1.13503441413354500D-01  2.19222419780477700D-01
57  3 -4.27640122738006800D-02 -1.76458407506676900D-01 -3.49331006220813600D-01 -2.55046353374618300D-02 -1.10057134713975300D-01
57  4  1.03841230860474600D-01  1.95233384744861900D-01 -7.31642405814297400D-01  3.82059891997014400D-01 -1.50060116832622600D-01
57  5 -6.65457769080901000D-02  1.56740601767750500D-01 -1.01004920733772400D-01  1.26935322880763100D-01  2.57354759831250100D-01
57  6 -2.03035527889132700D-01 -5.43192319421167600D-02 -7.84854558658125400D-03 -6.45285574111314500D-02  4.32347352588634400D-02
57  7 -8.26792882203062100D-02 -2.15755698444090700D-01  4.54400606939145000D-01  1.43539852167185100D-01 -6.27669893194092000D-02
57  8 -3.79890814114906500D-02  1.71516562992325000D-01  4.94402595119675800D-01  6.17250472782576500D-02  8.63614743934022600D-02
57  9 -6.07044779762144900D-02 -2.56569964171877800D-02 -7.80438284751255700D-02 -1.01589622154986100D-02  6.43035499696916800D-02
57 10  6.47556837033669800D-03  5.48480888841876800D-02  2.79894759931280800D-01  6.91154848439997400D-02  5.98568994404700800D-02
57 11  1.12098688335280100D-02  1.59807427430817700D-01  2.88349424362795600D-01  9.31068909039410200D-03  2.06498867389675800D-02
57 12 -1.90327241429276700D-01  1.69677354690309100D-01 -2.61177393569909200D-01 -3.52167507835354600D-02 -2.53640953992869700D-02
57 13  1.71478465716478000D-01  3.39532755642336400D-01 -8.86268266615620000D-01 -1.24552353895295700D-01  3.39878670715811800D-03
57 14 -9.91496335865909200D-04 -1.31370868758709400D-03 -7.53276496097047800D-02 -1.67072899561872800D-01 -1.43136078221781500D-01
57 15  3.35674590167304700D-02  1.09568619205051300D-01 -1.09153196278357500D-01 -2.39197872595704000D-03 -1.34837688898433400D-01
57 16  9.61138284903507600D-02  2.53937366164831900D-01  7.42968864448167300D-02  1.95384768235346700D-02  7.25225474213034400D-02
57 17 -1.90662721742544700D-03 -4.53628594141537400D-02 -3.16994354883645900D-01  1.71434374250302400D-01  3.54873117205192700D-01
57 18 -2.11597098514165800D-01 -1.43276018691026900D-01  7.53767675749620000D-03 -1.00998566345009100D-01 -1.33239738478039900D-01
57 19  2.41086577291041200D-03 -2.35435018873947000D-02 -1.34041804207117300D-01 -1.27345369932847100D-01  9.97075329919968100D-03
57 20 -5.57460812802113800D-02  1.18021217472534900D-01  2.65625401969852000D-01  3.06546643496126100D-01 -1.14238013466284800D-01
57 21 -2.59582985600619000D-01 -5.06053653771343100D-02  1.30753474457563200D-01 -1.50905170237750800D-01  2.02170174690993900D-01
57 22 -5.12650044532428700D-02  4.37412827040832500D-02  2.32876868549278700D-02 -3.15023831816724700D-01  2.37581198416319900D-01
57 23 -2.77200371886358500D-01  3.96191734700385500D-02 -2.17516848079971100D-01  2.92937864649168300D-02 -4.05963875366642300D-03
57 24 -1.14613184082130300D-01 -2.81825464484264900D-01  2.75296037381759200D-01 -4.30059719602318100D-02  2.88288407778338100D-02
57 25  2.11105207761967300D-01  9.29899409604933700D-02 -8.07874477709212900D-03  1.00477169129629400D-01 -1.48977064432866900D-01
57 26 -4.38490521958575000D-02  1.64917174041639000D-01  1.78148768057274900D-02  4.71527841036811300D-02 -6.81424970051229800D-02
57 27  2.09897129014417000D-02 -3.85083374536855000D-02 -3.62111142591461900D-01 -1.91610412286238100D-01  1.22427280333926900D-01
57 28 -3.94009434330201000D-01  2.71582153996274200D-01 -1.76105633033992300D-01  1.56284969386509100D-01  9.29443013422600600D-02
57 29 -6.50501342038259800D-02 -1.47661902292126600D-01  4.42832636742165300D-02 -2.26017902062599900D-01 -3.85663389414905800D-02
57 30  2.46338548857844500D-01  7.66824001841666000D-02 -1.93226763354477600D-01  1.28918252421763600D-01 -2.53417776934457300D-02
57 31  3.21406570216863900D-01 -1.39926723204021400D-01  1.44099912998239500D-01 -1.34039777208613700D-01  3.02675357049703900D-02
57 32 -7.46312782536461300D-02 -9.84870815763831300D-02 -1.86356309163086600D-01  7.67154892681236300D-02 -1.21431342871579300D-01
58  1  1.36812639658961000D-03  5.26562812568184600D-02 -4.17040675522127900D-01  9.16040169342840500D-03 -1.66972782623254500D-01
58  2  2.69892423222904400D-02 -2.12634622575937300D+00  1.67664952904547400D+00  2.11656055061059100D-01 -4.93318201973906900D-03
58  3 -6.98676589028243100D-03  1.19199479100216200D-02 -1.17297197123016900D-01  1.49698475448271000D-01  1.75271918008829800D-01
58  4  7.20572374944005800D-03  1.17407013442384600D-01  8.09084204198114200D-02 -2.07015280793749700D-02 -2.75616497703546100D-02
58  5  9.63462211661740600D-02 -1.22991472883014400D+00  2.74244218999807400D-02 -1.93407470694641500D-01 -3.52837787842691500D-02
58  6 -9.71517084420258200D-02  1.32435487226294800D-01 -1.44879095795662900D-01  1.77701491817127100D-01  5.24965716982932500D-02
58  7 -2.08351253539438000D-01 -4.89545466716240100D-01  3.78234735570959900D-01 -3.58525686707107500D-02 -1.44485154608486100D-01
58  8 -7.54057501923093000D-03 -5.40924695171259200D-01  6.26565294833867800D-01  1.78622910828566400D-01 -4.30078186143669500D-02
58  9  7.12545164410294300D-02 -2.82466978266624800D-02  1.27211354545379900D-01 -3.85494373666314500D-02 -2.21104632998662000D-02
58 10 -3.93153253980492100D-02 -8.10718752035556600D-02  7.52026899877248800D-01 -1.19083883979723400D-01  9.95232532083762500D-02
58 11  1.76890065545156200D-02 -6.94366206295290100D-01  1.84816245130326500D-01 -2.23464148928710700D-01 -1.19637667923673500D-02
58 12 -1.72843941935112600D-01  1.84807708727478800D-01  9.48773126749459800D-02  2.42857027654668400D-02 -2.54050433482152200D-02
58 13  1.85676305687513200D-01  3.38514974370893300D-01 -1.76976089021168900D+00  1.30612619107050900D-01 -1.26319114000188400D-01
58 14 -2.08785516743581000D-02 -1.09925604584469200D+00  4.75020823839603800D-01  1.03882025393795600D-01 -1.89551185599496400D-01
58 15  5.61833706561768400D-02  1.33367814943320400D-01  8.82564177680024400D-02  9.37689662277299100D-02 -1.30973744875508400D-01
58 16  4.37632538805097800D-03 -3.81084149214987400D-02 -1.08288093826327300D+00  6.85298820912388900D-02 -8.21934409780732000D-02
58 17 -4.02775893047626900D-02  1.12399037000621400D+00 -1.21512914234719400D+00  7.90229494582420800D-02  1.44137271369578500D-01
58 18 -1.49280370144140500D-01  5.14309877456186800D-03  8.95388354190670100D-02  2.01453090216416600D-01  7.71270369454894600D-02
58 19 -5.19154245947434900D-02 -1.46508699244826800D-01 -2.90445886165475200D-01 -1.01178805433358800D+00 -1.04168561617431600D-01
58 20 -4.23052478319684900D-03 -5.76208399105656500D-02  6.61119235387229900D-01 -1.30117949547024000D-02 -1.10325765669500600D-01
58 21 -4.50876690867568400D-03  5.35362995073266600D-01  6.07765504983281200D-02 -8.32569356812168500D-02 -4.72436532675644000D-02
58 22  1.30500588948781500D-01  1.26940339936701000D-01  6.06324340765252900D-02  1.27015448310731200D-01 -9.21484588943882000D-02
58 23  1.87552147375860700D-01 -9.54036884814722800D-02 -6.25323787543528000D-01 -7.42951108019214400D-02  2.86713237057101600D-01
58 24 -2.55618519097705800D-01 -5.92124073597794600D-01  1.15828218408379300D+00  8.39342023520035500D-01  7.49526074238520100D-02
58 25 -1.20114625356444900D-02  4.26105597085528000D-02 -4.53384804845530200D-01 -9.72744068010047800D-02 -8.61680865800614600D-02
58 26 -3.37859964522629800D-01  1.13820482870417700D-01 -4.36844959682494700D-02 -4.25386906681902400D-02 -9.47947162265564200D-03
58 27  5.20181622908459800D-02 -6.83324535747831100D-02  1.29797860583356900D-01 -3.22509782792049400D-02  2.62532292082588100D-01
58 28 -1.26964905389540400D-01 -1.35567386693047800D-01  3.13484598110417200D-03 -1.57037591673663400D-02 -5.23591000292679000D-02
58 29  9.38315947365933200D-02  8.52385501427934000D-01 -1.97590241563261300D-01  1.32873601269158500D-01 -3.67078188962018700D-02
58 30  1.12556583461762300D-01  1.58347201136563700D-01  2.66261410599942100D-01  6.31095421960086400D-02  4.84085723971397800D-02
58 31  6.52994698275134900D-03 -7.76268202486550700D-02 -9.77748190119167400D-02 -8.22431107389856300D-02 -1.11442967290360300D-02
58 32  2.25463978005130700D-01  1.35785550961139200D+00  1.79589187527334300D-01 -9.78752040537117000D-03  5.54727881052311100D-03
59  1  1.96808533479566100D-01  3.75491359965912800D-01 -1.75082076971628700D+00  5.60465842872924700D-02 -3.93881079688615300D-02
59  2  5.93392336372355200D-02 -7.27581660096183100D-01  9.92642661869521200D-01 -1.38608040018878300D-01 -1.29715794556933500D-01
59  3  7.66589155320368800D-02  5.30568790248971300D-02  1.14688483306530000D-01  2.55783855917777500D-02  9.71646743553554500D-02
59  4  8.44377437587444700D-02  1.79859014782818400D-01  7.56543077734207000D-01 -2.75274647375624000D-03 -1.02631960639945700D-01
59  5  1.66770365855344700D-02 -8.66203484539016500D-01  1.17916235310192800D+00  2.92222911540224600D-01  1.86207792677249600D-01
59  6 -1.59321826563708900D-01 -2.68859661135408400D-02  1.21663840948062900D-01  9.03800441896094600D-03 -1.55548005618662300D-01
59  7 -3.08715887828303400D-02 -8.46304100469927300D-02  1.19541224292836500D+00  8.89079456802839000D-03  6.70546423468257300D-02
59  8  3.76382849848344000D-02 -3.47288784766928400D-01  3.10232180684872600D-01 -2.17388139021303800D-01  5.54921940576367400D-02
59  9 -1.29609870011595500D-01  7.41176759539585500D-02  5.22217549564748800D-01 -2.07768323292183600D-02 -2.12998076594043000D-01
59 10 -3.30509149969368500D-02 -1.74317086460685800D-02 -2.18894428305752800D-01 -1.28632903797453300D-02  1.17046570625970200D-01
59 11  1.89636391778417800D-02 -5.01803327287038700D-01 -3.37886356976094900D-01 -1.15448295244840700D-01  4.59514180120360300D-02
59 12 -1.12707320228799400D-01  6.67559022167626400D-02 -2.56076444492776000D-01  1.37543558564730000D-01 -1.71572581616820100D-02
59 13  1.77172633909861300D-02  1.27444803059868600D-02 -4.18431215673939300D-01 -1.02898165714125100D-01 -7.84521804934772700D-03
59 14 -2.88497026443014900D-02 -5.74981068153135400D-01  1.53237094872068000D-01  3.13819813463900300D-01  2.25468451398915500D-01
59 15 -8.44671856114258000D-02 -1.41001265787489700D-01 -2.18656740022291200D-01 -1.11882021683769900D-02  2.83452684604816500D-02
59 16 -7.72214529834687600D-02 -1.98451164063446000D-01  2.10670361967270200D-01  6.95709286561794200D-02 -5.57183906514319800D-02
59 17  3.66181944150373200D-02  1.04310229489077800D+00 -3.72974733960863200D-01 -8.41107683615550200D-02 -1.63369211280141700D-01
59 18 -4.62077160423003000D-02  2.09576927322442000D-01 -1.92606704897942700D-01  2.85857500256702900D-02  1.74038410201891600D-01
59 19  1.00554432781068400D-01  2.24361154562212900D-01 -4.53062187011172900D-01 -2.96006887430491800D-01  2.04029958854375800D-02
59 20  2.11684871122587200D-01 -2.44174538155289900D-03 -6.37603974489113500D-02 -9.72772475577559100D-02  1.46213048473648300D-02
59 21  1.42742294218193600D-01 -3.85781470908546700D-03 -5.92558658372594800D-02 -1.56798772919053500D-01  1.98028648076760500D-01
59 22 -4.12298751577069300D-02 -6.92314556799309600D-02 -6.35301312534331100D-02 -5.61552929212455000D-02  1.80854185297041900D-01
59 23 -1.75252317880175800D-01 -5.60186741686589100D-03  1.18913273997408300D-01 -9.12397787472270900D-02  1.36789371173182800D-02
59 24  1.64909563792425800D-02  3.10469111513377800D-02 -2.10213359547707300D-01 -6.97531603373707200D-02  6.52195427632259000D-02
59 25  1.09100381097341500D-01 -1.30150365611145500D-01  2.25884561659818000D-01 -2.42819985610257200D-01  1.65848791473835600D-01
59 26 -1.60993719822404500D-02  1.04879882591635800D-01 -1.51368443316965400D-01  2.38344712873497800D-01 -2.85481968519036300D-01
59 27  4.71372556455388100D-02  5.72255800069220100D-02  1.37461073867538500D-01  4.80292385896178800D-02 -1.87886066740050900D-01
59 28  1.04008734813589100D-01  8.38773319264617400D-02 -1.40938592862110800D-01 -2.72762481776752200D-02  1.55273253019905000D-01
59 29  6.48780429606033900D-02  4.55584306276396800D-01 -6.61418958188200500D-02  5.93183077169029900D-03  8.86432489398297800D-02
59 30  1.02599228732395200D-01 -1.70888444828948600D-01 -2.13258811349720900D-01  7.68409753289089200D-02  2.57727625023782700D-02
59 31  1.17411630575683300D-02 -2.04600848817256200D-01 -1.35045873150657200D-01 -2.48324113346839000D-01 -1.52323239041994800D-01
59 32  8.23133677898009700D-02  7.76160335334852600D-01  5.70486555885070000D-02 -5.24523099422971300D-03 -7.77071901407985100D-02
60  1  7.38360217962016900D-02  2.16972723543613700D-01 -2.01033750141608600D+00 -1.67414018944739600D-01 -1.11784272839966000D-01
60  2 -4.59817359514233400D-02  8.23850912933539100D-01  4.83194472777678600D-01  1.33953351170120300D-02 -7.84110540206281600D-02
60  3  1.08358131837668900D-01 -2.99470778170410400D-02  1.86556824107469100D-01  5.22042616236157900D-02 -9.72123529393865100D-02
60  4 -6.50405568565194900D-02 -1.07575809714616800D-01  1.71529357749787900D+00  5.40015159823948800D-02  2.80312485033217400D-01
60  5  9.47218729885775700D-02 -2.73178892254095000D-01 -1.88022865302000600D+00 -6.75650600992713700D-02  1.17988548463324500D-01
60  6 -1.06459212246442500D-01 -1.15293362168830300D-02 -4.65648716601214300D-01  8.39422254495902900D-02  2.03161519749488500D-02
60  7  2.62366973143896100D-01  5.40437631148960700D-01 -2.44804750542013000D+00 -1.28546714165148600D-01  1.33569642591740600D-01
60  8  4.51245371364906800D-03  1.32780929879172900D-01 -1.32451850431357700D+00 -3.67511420690640800D-03 -1.64506757688255100D-01
60  9  1.69795289969206300D-01 -5.28853228095015800D-03 -7.64525548405040600D-02  4.06160851227939900D-02 -1.04805587257008000D-02
60 10  2.01808088148513800D-02  7.86889182062544500D-02  1.45260420272948000D+00  2.34224441765427300D-02 -1.90062944001541400D-02
60 11 -1.02047717539031600D-01 -4.59060494839827300D-01  5.14746374006839800D-01  5.15480637191468100D-02 -5.42223512063460500D-03
60 12 -3.35703557924976500D-02  3.89925909131315600D-02 -2.03361798584520300D-01  3.49197265068296300D-02  4.59831588823647500D-02
60 13  4.84066184858671800D-04  2.71191156258768500D-02  1.43051076467971100D-01  6.86245942136079100D-03  6.82197281045686400D-02
60 14 -2.97899179344621800D-03 -1.61218906361780400D+00  4.30805465407851500D-01  1.72527533392432800D-02 -1.26727838329490000D-01
60 15  9.92344506438818900D-02  2.74933876856083000D-02 -2.22966784041576900D-01  1.06386505091332800D-01 -6.11591532158067700D-02
60 16 -7.70977274825595900D-02 -1.43843546108058100D-01  7.92749793839328300D-01 -3.06089965998919700D-01  2.64048505631262700D-03
60 17 -3.31111457435733300D-02  1.43659235580424700D+00  9.78384711783056900D-01  4.47211552599272000D-02 -8.66511942313442500D-02
60 18 -4.43852560648589100D-02  1.31036450296202300D-01 -3.26975185555827200D-01  6.39474427452024800D-02  3.52775377340991900D-02
60 19 -1.49687896361356200D-01 -3.32188335819491700D-01  4.64587312854753500D-01  3.64997770222853600D-01  2.45223499742711500D-02
60 20  1.05040198926260100D-01 -1.10020002126185200D-01 -1.10148948831593300D-01 -3.69800890639139800D-01  2.01959569642061600D-01
60 21  2.81935068421278800D-01 -2.80005156600796600D-02 -2.55179340558449100D-02  2.18537931198690800D-02 -1.79221287295105300D-01
60 22  1.57367494175237200D-01  2.16349445291964500D-01  1.97206177256131000D-02  1.82347150985065400D-02 -1.90236136631465100D-01
60 23  1.86971558288337900D-01  3.26457834312812900D-03  7.68107787933394500D-02  5.78108512982316900D-02  1.63439419426141800D-02
60 24 -7.61804568670266000D-03 -1.42050235378282200D-02  4.08274128780053400D-01 -1.27642495629788300D-01  1.22342140146341200D-02
60 25  2.42316653479860900D-02 -3.31807459785553600D-02 -2.01089238216283900D-01  4.23217254397306700D-01  4.99827135404097200D-02
60 26  7.66437824139727800D-02 -3.00495920080986600D-01 -1.23277010708378200D-01 -2.65719164897264700D-01 -5.37883333885171400D-02
60 27  3.19507498285782300D-01  1.70876102996752100D-01 -6.40380585422495500D-02 -1.12395042517034600D-01  9.84427978207321300D-02
60 28 -4.34768388031631000D-02 -5.49659590175690800D-02 -1.92994224750358100D-01  1.21699840088673800D-01 -1.91911340638741200D-02
60 29 -2.09816055343214500D-02 -2.23321116250786900D-02  1.47901103991847100D-01  4.11329260667703200D-02  2.20408022287006700D-02
60 30  1.01195006108427100D-01 -3.76912375434146000D-01 -1.53782053542617400D-01 -2.64046413369197500D-02  8.97285603475435100D-02
60 31  4.28524205794906400D-02 -7.42302456120990100D-01  7.22921286113543700D-02 -2.22865937641710900D-01 -3.66765363306939300D-02
60 32 -2.66969779678145400D-02  3.61751033462212400D-02 -3.06436904136727600D-02 -7.12339588703524800D-02  5.49209568293382200D-02
61  1 -1.13384430662466100D-01 -1.79125829201270000D-01  8.94414394899585600D-01 -9.31465499527256400D-03  1.17460778453485800D-01
61  2  8.37444977994447200D-02 -2.76643036725069600D-01 -6.53074931562577700D-01 -9.51212881720785700D-02 -1.14585554851846100D-01
61  3  1.91851390860644400D-01 -7.72658360087985400D-02  1.93502205304423300D-02 -7.26461564027830200D-02 -3.41741266918027100D-02
61  4 -4.98986902215585000D-02 -8.33293711719335600D-02 -1.85987800419537900D+00 -1.16665319758178700D-01 -1.82152147557268900D-01
61  5 -6.16732075707951200D-03  4.28594233060533100D-01  1.72272486883589900D+00 -1.48387671995525500D-01 -8.46288173571232300D-03
61  6 -8.00602816022019000D-03  1.64689098959326500D-02  9.37857180432992400D-03 -1.27158939498708500D-01 -3.80265377364752600D-02
61  7 -8.60869989754679100D-02 -2.29218113370477200D-01  2.15986703021318000D+00 -1.46446456352331000D-01 -3.62690576947876200D-02
61  8 -4.54194013292456400D-02 -5.03395193303455400D-01  1.28530932074250600D+00  9.42093380352661400D-02 -1.58564334834798700D-01
61  9  1.71384143086249300D-01 -1.28198082514505200D-02 -4.25103435682831900D-03 -1.14360217950872500D-01  4.76347256744955700D-02
61 10  5.43903344437999900D-02  1.39526919698219400D-01 -3.94947862405118100D-01  1.16552193706413800D-02  1.46060167858724400D-01
61 11  8.31064025364815900D-03 -4.89408201354218200D-02 -3.85021372188188100D-01 -1.98187288829727900D-01 -3.10688331137119000D-01
61 12  1.67053546452147600D-01  1.43634784684972500D-01 -3.08414635151734600D-01  7.50008795361510900D-03 -4.87127906452563300D-03
61 13 -1.29264322963596300D-02 -2.85260569744882300D-02 -6.17851430486220800D-03 -9.02036104877745500D-02  6.32841240937830200D-02
61 14  2.39864613305445500D-02 -2.15141449058072200D-01 -7.66420141021492400D-01  1.58572896260501800D-01 -6.54237322196257000D-02
61 15  1.22627161813343300D-01 -5.72034295937181300D-02 -4.12909358021444300D-02  5.42255245704866200D-02  8.36707637207919200D-02
61 16  8.85980442158072600D-02  2.43468863380178800D-01 -3.20005873281562800D-01  1.34544319576395600D-01  2.92131280918930700D-02
61 17  3.16245873941061500D-02 -1.83626575139796200D-01 -3.47948672282728200D-01 -2.11219708859889700D-01 -1.45083681967719600D-01
61 18  5.23156931754347400D-02  9.27679887922848000D-02  1.18526161202271100D-01 -5.10997803515840100D-03 -3.03286403258855200D-02
61 19 -2.94887350813500400D-02 -5.08823866735271500D-02  1.35121710605349300D-01 -1.40066726705052100D-01 -5.41929106273893400D-02
61 20  3.62169943164391000D-01 -8.46292266564734900D-02 -9.27428537491425800D-02 -2.66602027860769000D-01  1.50455588203924500D-01
61 21  2.10166351309355400D-01  2.55464985827588900D-01 -1.82194872973440600D-02  9.28498047370977400D-02 -2.47910486810256100D-02
61 22 -6.80587560560724600D-02 -1.04214951509005300D-01 -3.76738815026670800D-03  1.49348483570163200D-01 -1.71152745668869400D-02
61 23 -6.81410901571602000D-02  8.52563647240466800D-02 -1.07622132381410100D-01  7.24813386521993000D-03 -6.90635576951655300D-02
61 24 -1.39856133508909200D-01 -2.98397422279787300D-01  3.66753603342440600D-01 -4.45304649446534800D-01  1.97619948778426000D-01
61 25 -4.90311693374804300D-02 -1.60931899061312600D-02 -2.85833360517715000D-01 -1.49869193414039900D-01  8.43793697944098500D-02
61 26  3.51616449236854700D-02 -3.13261118204209800D-01  1.19824769183197100D-01  2.24313662856921200D-02 -1.74850274352703600D-01
61 27  1.52418908067011400D-01 -3.70119699545670100D-02 -1.38229370449832000D-02  4.41230062462158700D-02 -2.04931777095388400D-02
61 28  2.40089322859686200D-01 -2.19596145150147400D-01  1.37652386953536200D-01 -1.22307635311905300D-01  3.16165098472047600D-03
61 29  2.53708629886543000D-01  2.33260214056295700D-01 -2.74061329875062700D-02 -6.71686497989694300D-02  2.02030123803522000D-01
61 30  7.21483092677095000D-02 -3.56212154408195800D-01  1.06824002611402600D-01 -1.20483832914523300D-01  1.79844884717990800D-01
61 31 -2.58908366497841300D-01 -2.98613749875962800D-01  1.99001452146806700D-01  9.66616475166894900D-02 -4.44026118451799400D-02
61 32  1.59516699785758700D-01  1.56285241475412800D-01  3.08989720583798000D-02 -2.13172326829024700D-01  2.11781160848961500D-01
62  1  1.64403817613560100D-01  3.48688262247703700D-01 -8.33418240340800900D-02 -1.60442466431213500D-01  7.57075602077079400D-02
62  2  1.91372788314905900D-03 -1.58183152914047400D+00 -9.84565196135746000D-01 -5.06437546765595500D-02  5.03950809610917500D-02
62  3 -1.04811122247126400D-01  5.44160412860348500D-02  1.23125887357172300D-01 -7.14325081219911600D-02 -5.85738001230261200D-04
62  4 -3.41272082341478700D-02 -6.82163945978735400D-02  2.34749628221573400D+00  1.48763923960356700D-01 -2.18223133330099000D-01
62  5 -1.19248512549831900D-02 -6.96494257599760400D-03  4.28088575173085900D-01  2.76065196711375600D-01  2.50612419533289200D-03
62  6  4.02214135603517600D-02 -4.27275377556848600D-02  4.74625823353167900D-03  1.03850075452991800D-01  2.22794115238751900D-01
62  7  9.52139350933457500D-02  1.43332151857910200D-01 -6.64198301619680200D-01 -1.08027952827894900D-01 -5.76658456048907100D-02
62  8  1.62886724568936600D-02  1.95614202121710200D-01 -3.09732379419029900D-01  7.52661626247388700D-02  3.81607013076722100D-02
62  9 -2.28960339963438800D-01  1.90799638655767000D-01  1.85032382025953200D-01  4.38703953331300900D-02  1.52839346728984500D-01
62 10  1.08541202392822500D-01  2.33523833551422300D-01 -1.81005852301689000D+00  7.54477283846833700D-02  1.60605436687646200D-01
62 11  5.23714830521300300D-02  6.64219972737952000D-01 -1.32188675644910900D-01  9.09906159066011100D-02 -2.33690245977380600D-01
62 12  2.09940007161018200D-01  2.37502388163622900D-02 -3.46068661130714500D-02 -3.79246420458078800D-02 -8.64172707051634900D-02
62 13 -2.62299690229194200D-02 -1.08914267885440600D-01  8.81115463427679200D-01 -5.11261607840915000D-02 -4.33995400401315200D-02
62 14  1.66646994250940200D-01  1.52210943631584500D+00 -5.95903910018568200D-01 -2.45525648340055200D-01 -1.30657322179305600D-01
62 15  2.39519651588905000D-01 -1.08862329409600200D-01 -2.59106891987142800D-01 -1.39140628833756300D-01  5.55498412054187800D-02
62 16  1.11501563543838400D-01  2.57452815195211000D-01 -1.49734412728588300D+00  1.29409589940160400D-02 -2.56648852327556200D-01
62 17  7.15473290096472900D-02 -1.14895388328943100D+00 -1.86148166386106300D-01  3.36705227873513200D-02 -1.03218388482235600D-01
62 18 -1.60650041805687500D-01  2.63868430287923500D-01 -1.92130615074362700D-01 -9.48479495432118700D-02 -6.95636130074740200D-02
62 19 -8.42510968626090800D-02 -1.77312306764002000D-01  7.29214456710356700D-01  2.33135683696849200D-01 -1.43467084490736900D-01
62 20  6.59582147553224700D-02 -4.56906495040950800D-02  3.04405602168236600D-01 -1.26927497626259400D-01  1.00994398201228500D-01
62 21  2.97883737604295100D-01 -1.51191495407385200D-01 -7.80714006280727000D-02  2.06164289207900300D-01 -2.31216568888450700D-02
62 22 -1.83042632319055400D-01  2.55636668121076200D-01  1.75483765259130000D-02  1.46126808558502400D-02 -9.04923369700259700D-02
62 23 -1.58825850770235700D-01  2.49318187740261100D-01 -3.01949890399830300D-01 -1.62461090732254600D-02 -1.96524683949594500D-02
62 24  1.54623772875943400D-02  1.26472572241318900D-02 -3.77117749104580600D-01 -8.32574754892489300D-01 -1.61720329923973800D-02
62 25 -1.50562698957077800D-01  1.74506433390605900D-02  3.30070611335675400D-01  3.53503264463425900D-01 -1.80343113902896000D-01
62 26  1.85053998113895700D-01  2.58410528487579600D-01 -7.97124900046982000D-02 -2.18433131509463000D-01  1.53424746830746800D-01
62 27  6.50083846787167400D-02  3.79862576514398700D-02 -1.51184463117171900D-01 -4.60182337433433900D-02  1.57486918735770900D-01
62 28 -2.50689694728549300D-01  9.32027759927784200D-02 -3.69558129416591700D-01  3.47808579546113400D-01  3.01156896600562900D-02
62 29  4.91971180580202200D-02  2.40667346657215200D-01 -4.16197890506711500D-02  5.63009669519942800D-02 -2.38387600807415500D-01
62 30  8.73583548494820100D-02  1.69413357031538400D-01  7.18863141160744100D-02  2.73203596160129400D-01 -7.95524482565477500D-02
62 31  2.36818608203992900D-01  5.27852862396279500D-01 -1.65702115821823100D-01  3.85842725953591900D-01 -1.26567386730678100D-01
62 32  5.58599796529159600D-03 -5.70385237195549400D-02  7.68552506500435100D-02  1.94554652355917500D-02 -1.88018590665852200D-01
63  1 -1.63131664933338000D-01 -2.77818255377031500D-01  2.68847609314375400D+00  1.74611225279255700D-01  2.94441628072242300D-01
63  2 -3.86759106783294100D-02  1.00860865106267900D-01 -1.30102735275630000D+00  1.64304087721306200D-02  1.58175918988025200D-01
63  3  1.17494081894296000D-01 -2.75670000882322200D-01  1.10479021054290200D-01 -5.07632042356452100D-02 -1.32947775569280000D-01
63  4 -4.78211766277645300D-02 -1.02945569692292700D-01 -4.56125892780086500D-01  2.85246592702861000D-03 -4.74941618044233600D-03
63  5 -2.14421003828555800D-02  2.07674567361720400D+00 -6.35302743403954800D-01  8.84161702994864400D-02  6.50607119691642600D-02
63  6 -1.84040622274824700D-01  1.18979910305660200D-01  7.43555138930593500D-02  7.52361268453174200D-04  6.50155550702359600D-02
63  7  4.41510028066549100D-02  1.07443030414176300D-01 -2.08121453277609200D+00 -6.66750958025408000D-02  1.07255723955718100D-01
63  8 -2.01942986904536300D-02 -5.06944553454214300D-01  8.30101827188686500D-01  4.53471788650502800D-02 -3.50197525960626900D-01
63  9  9.69708148219269300D-02  2.53226711138700000D-01  1.42013897595731400D-01  2.41077085980674200D-02  1.37266069695612000D-01
63 10 -1.27455004861759500D-01 -2.68381824703291400D-01  1.78317436868494800D+00 -4.58641077882160600D-02  6.53225723132876400D-02
63 11 -1.38781356939842600D-02  5.46759342425404000D-01  3.49384617784201400D-01  2.91352736536106100D-02  4.20651607858698200D-01
63 12 -2.33698155491492100D-01 -1.86953452367204700D-01  1.58260486053838400D-01  9.64832180645116800D-03 -1.22419409381836100D-02
63 13  9.32231381941537500D-02  1.80694606146080700D-01 -1.81668977416587600D+00  1.55560489350008400D-01  2.43646107939003200D-01
63 14  2.32524916850700400D-02 -8.92180711204490900D-01 -1.42116661473995600D+00 -3.33033430179850100D-02  1.09262655714964500D-01
63 15 -2.33317715197583300D-01  1.24055059482619600D-01  8.48935184039083200D-02  5.00542128864789500D-02  1.17140432426736600D-02
63 16 -9.60293146230582200D-02 -2.75009542966227500D-01  5.16304521893128600D-01  5.50841035463069200D-02 -9.30925364143113400D-02
63 17  5.18482281886496800D-03  4.38241426184556700D-02 -1.24207805633217100D+00 -8.90459824809597000D-02 -2.41881065661274200D-01
63 18  2.52767614330906400D-01 -1.08865486696308600D-02 -1.28175695976672900D-01 -9.68703377408248700D-02 -8.67597985030438600D-02
63 19 -1.50082923854549900D-01 -3.63046936747386300D-01  3.74225309031471900D-01  3.93277154383516100D-01 -7.50148840154281800D-02
63 20  3.04587629654133600D-01  3.88942151687801900D-02  8.48527623650709600D-02 -1.35319365614575300D-01  3.24887576390192200D-02
63 21  8.01107109679315400D-02 -5.97436046162363400D-02 -2.93497094107996900D-02 -1.94187065474112000D-02 -8.62417337352649100D-02
63 22  1.05660440282676800D-01  8.39797999300971600D-02  1.43024075374100800D-02 -1.73008480440652600D-01  1.24115288241859600D-01
63 23 -2.95938865651846100D-01  1.71823577409987000D-01  7.40972471895424600D-03 -1.50979663801142200D-03 -7.68239831702800700D-02
63 24  3.94515929890922300D-02  6.71449136056726100D-02 -5.40001714827275800D-01 -8.87411325332231800D-01  4.14226757808971400D-02
63 25 -1.50828614821790400D-01 -8.44513854914689500D-02 -1.61191020928618000D-01  7.18715260558342600D-01  7.97504949551304800D-02
63 26  4.82695599544275000D-01  6.85629523790280700D-02 -7.18113024829330300D-02  2.68108433244147700D-02  2.19627281351992200D-01
63 27 -2.46438124676407200D-01 -2.52363683348622600D-02 -1.57203567442731800D-01 -8.34039914845921400D-02  2.44117285732126200D-01
63 28 -3.01148166341238400D-01  5.70308806091121800D-02  3.48729072022438000D-02  2.14680388483153200D-01  1.43086138352628400D-01
63 29  4.99802644237831800D-01  8.16470326046610000D-01 -4.35935326720199100D-01 -1.14173932539004300D-03 -2.29903369339416900D-02
63 30  1.99892276551028500D-01 -4.00616225534483000D-01  1.42794119527742000D-01 -1.20945402256427100D-01  9.85555079308902000D-04
63 31 -1.06821758829099500D-01 -4.79821146114606800D-01 -1.47355705944640700D-02  7.68284173187813300D-02  9.95016532706419000D-03
63 32  2.30193008730385700D-01  4.66713141721632000D-01  8.14030786172382400D-03 -1.32875910256548500D-01  8.80376081878971200D-02
64  1  9.34998546661128800D-02  1.20921935901167600D-01 -2.99670228172036200D+00 -2.01551566836070300D-01  2.48516252777924100D-01
64  2  1.40035384131851600D-01  5.70287025601531400D-01  1.45723704539609100D+00 -1.57729312856229600D-01 -1.24986456814641700D-01
64  3 -5.60158748692309500D-02  1.81002331683872800D-01 -2.52451931995633400D-02  1.01907725653666500D-01  1.61571942408007200D-01
64  4 -7.03195817403177600D-02 -1.35808736965052200D-01 -1.51016854495974000D+00 -2.43952170984369600D-01  4.72181381153128000D-02
64  5  2.00581277206049000D-02 -1.62510384071978000D+00  1.63059706526769800D+00 -8.48322800957445900D-02  9.51481342890662900D-02
64  6 -1.24052880410374000D-01  2.89047461213077300D-02 -3.25731739676938900D-01  3.80390493921664200D-02  1.94782267341642500D-02
64  7 -2.12711788585453200D-02  4.21403332814827400D-02  1.27387983004324000D+00 -2.64189023778770500D-02 -1.39679738386871100D-01
64  8 -4.41831913790052500D-02  7.38469960390575900D-01  1.82985583619470900D+00  1.16145122230872300D-01 -1.91548102843898600D-01
64  9  3.29362238166569000D-01 -1.37814135322670500D-01 -2.12237726757433000D-01 -3.31891153469593800D-02 -3.62307889263812000D-02
64 10 -1.77968597625080700D-02 -5.53884190861372600D-02  1.31922001971224100D+00  1.26362807994022500D-01  5.68598616317258400D-02
64 11 -2.67095342513960100D-02  9.08320495015923900D-02  2.02536190619847700D-01 -2.10923642954662100D-02  7.32299246902258000D-03
64 12 -5.74398817789319600D-02  5.01168893099091300D-02  9.24161148330900900D-02 -1.43540601500546100D-01  1.93745389825493200D-02
64 13  1.37377310186252700D-01  2.95862601308164400D-01 -1.07979030270115100D+00 -4.74890716570870300D-02 -6.75662727750049900D-02
64 14 -1.12341749140903400D-01 -1.16717417176099100D+00 -4.73301657062303300D-01  9.05194432767521700D-04  5.61964641158306600D-02
64 15 -7.97585587443039300D-02  2.35620946284733900D-02 -2.70534451281713700D-01 -3.13933890493443900D-02 -8.39765130231469500D-02
64 16 -8.88741103770145500D-02 -1.46690513394781800D-01  2.52237553155371900D+00  1.58508208059793200D-01  6.80501224175899800D-02
64 17 -2.97133067302097500D-02  1.93123287313813800D+00 -1.74084234295934800D-01  1.88936741849608900D-01  2.82665284143780600D-01
64 18 -1.59452483993611700D-01 -1.23212800150169100D-01 -1.01592610493837300D-01  1.43035546410857800D-01  4.67473087658504500D-02
64 19 -3.32389220266485000D-02 -8.11713392068486700D-02  3.01439773085431000D-02 -5.81592545802264400D-01 -4.83156303825052700D-04
64 20  1.95798082147851500D-01  5.17188052209604400D-02 -2.19061477601613100D-01 -8.62827034641924900D-02 -1.98823873754194200D-01
64 21  1.26524289741972700D-01  4.13934997204390600D-02  1.66117810188093500D-01 -4.57702807114127200D-02  2.93995822928218100D-02
64 22  1.63706984185915300D-02 -1.68568751909955500D-02  4.18049188196194000D-02 -1.18080494613749800D-01  1.10185942165598000D-01
64 23 -5.10695668046038100D-02 -5.91163753609932700D-02 -4.53895211620582100D-02 -1.39478154484955000D-01  2.29136958077251400D-01
64 24  2.92843772866934800D-02  1.51892156469482800D-01  7.04262615162939200D-01 -4.94952866424435000D-02 -9.13448796996238900D-02
64 25  1.23939891680094400D-01  1.48915848278139900D-01 -6.59475800436486600D-02 -6.90918558638003300D-01 -2.30653561160159500D-01
64 26 -2.05780015115126200D-02 -7.09892306884246900D-02  1.38753914444578900D-01  1.62689360720366200D-02  9.27712466135147800D-02
64 27 -1.09040182685551600D-01  1.02125029548476100D-01  9.06933496958260000D-02 -6.24068623420149200D-02 -5.38608110912738100D-02
64 28 -5.05814401465186500D-02  1.04442251237792500D-01  3.18878166247261500D-01 -1.81176353014312100D-01 -6.90558730028786400D-03
64 29  4.31137270597088700D-02 -2.61103038564477800D-02  1.35104996354045400D-01  1.51361043635266600D-01  1.92860575977432900D-02
64 30  4.25191515227472900D-02  1.54893978798541500D-01  7.21057858328768100D-02  1.71246989599865500D-01 -2.10496708340751900D-02
64 31 -1.78461793717949600D-01 -4.03105147378183300D-01 -2.06761705587406200D-01  4.98049084994543700D-02  5.10162731687523900D-02
64 32  3.15079384406342300D-01  3.49201206146821200D-01 -3.22572354375283800D-02  2.44334352750938700D-01 -2.03323386740879200D-02
65  1  5.74887171262030300D-02  2.37287190595762000D-02 -2.61316159913001300D+00 -8.70454926013773800D-02 -5.07548589994893800D-01
65  2  9.16178262412688900D-03 -1.06447485312962300D+00  1.99929391785537500D+00  2.45332571422445600D-02 -6.97956440525660400D-02
65  3 -3.98816772485422100D-01  4.68612416537989500D-01  7.95458697319585400D-02 -1.61651340673473700D-03  6.83213318820333600D-02
65  4 -1.45708508340565800D-01 -2.16679626954281600D-01  2.82678330202066700D+00 -7.83317786574697200D-02  2.20598637806426200D-01
65  5 -1.20496223248916300D-01 -4.16835957397754600D-01 -1.14735862501473200D-01  3.12032119056029300D-01  3.31384653709436000D-01
65  6 -9.13287366991368900D-02 -2.40055917010299900D-01 -1.94573343973157800D-01 -1.02727899496185100D-01 -6.41198141310337500D-03
65  7 -9.69299075518788300D-03 -5.97630493033009500D-02 -1.62643697029706600D-01  1.15165187306111500D-01  1.00470101868159100D-01
65  8 -1.54992482491904400D-02 -1.45992815364557700D+00 -3.27657024561051000D-01 -1.34020158768988300D-01 -5.49969241647324700D-02
65  9  1.14374156128659900D-01 -5.93772319639277200D-02 -4.14604406865848100D-03  1.36620194148255200D-02  5.61069583937256800D-02
65 10 -3.29721923342824300D-03 -2.66761152280872800D-02 -1.06218267849347300D+00  1.63111779738279000D-01  5.94037146349383300D-02
65 11  5.32445168355963000D-02 -4.38788313688100800D-01 -6.70231857189321000D-01 -5.89174805632451900D-02 -9.81419353622893600D-02
65 12 -1.28185624620942000D-01  2.26327559983230100D-01  6.32369553722971100D-02  8.61100889686111000D-02  1.36280864723333300D-02
65 13 -1.34728877854490600D-01 -2.67424769452717600D-01  8.26817978649311700D-02  1.58132510068408600D-02  8.31426211122019600D-02
65 14  4.61472669274734200D-02 -4.34992574720439200D-01 -5.64985015644759900D-01  1.95345720453682000D-01  8.66207316905958500D-02
65 15  6.55455802486475000D-02 -1.52166311939243200D-01  6.92887914054102400D-02 -3.35283475654461200D-02  1.24264359260953100D-01
65 16 -5.56505024474078200D-02 -1.32784068456692000D-01  1.02903453522926600D+00 -1.63998903364508800D-02  2.12885265198361800D-01
65 17  6.92937021863082900D-02  1.55457399266190600D+00 -1.01532520378690700D+00 -1.57142422168573500D-01  6.45526240801675300D-03
65 18 -1.15109543283299500D-02  5.05569192031313700D-03 -5.97654409385630800D-02 -3.83734423320229300D-02  1.88957777969507500D-01
65 19  4.25137628765328200D-02  1.15576304403697000D-01 -8.83155322914041900D-02 -1.27972156873354900D-01 -8.56679331964289600D-02
65 20 -2.82304669600693900D-01 -4.64288621348976900D-02  2.11417790794779000D-01 -3.29995612986802100D-01  6.13547606606178700D-02
65 21  2.64369146852579000D-01  8.66267715721943800D-02 -1.40031980107055800D-01 -1.89663989845111600D-02  6.31929931901951700D-02
65 22 -4.42265942056837800D-02 -2.02818982823994500D-01  2.10409742113877500D-02 -1.90226988773697100D-01 -1.22981782714061500D-01
65 23  2.73942386579505000D-01 -1.50960603865443100D-01 -4.21609251896316800D-02 -1.17192667062255300D-01  1.80908196746111900D-01
65 24 -2.52566491183478900D-02 -8.09920986267796100D-02 -2.74939625745252000D-01 -8.29216286194778800D-02  1.57653197235625700D-02
65 25  1.34253974160027700D-01 -3.16541100831818300D-02  2.04235469365850500D-01  7.08644612084715900D-02  3.30269949912976300D-02
65 26 -1.39239097526462200D-01 -1.96579048544937200D-01 -6.79889621770304200D-02 -2.46073902851115400D-01  2.47462889504076200D-01
65 27 -1.38898665296049600D-03 -1.86555891782398200D-02 -2.25970691130837100D-01 -2.32364862781820400D-02  1.35034726883716400D-01
65 28 -1.85630099843550500D-01  5.05953729598342700D-02 -9.36537569904191700D-02  1.37370684997379700D-01  8.65289249430389500D-02
65 29  4.18495553564877700D-01  5.11619834494576600D-01 -7.61464150785833300D-02 -4.90256679372021700D-02  8.55395957864103100D-02
65 30 -1.44314150144978100D-01 -1.72275217842580000D-01 -8.77551194833172000D-02  7.37965355892743700D-03  3.48464490935468200D-02
65 31 -2.16279253061920200D-01 -4.71620348962135300D-01 -2.04599460103014200D-01  1.95084800910197400D-02 -1.60033193599724800D-01
65 32  3.76948436141489800D-01  6.86527710982941000D-01 -2.01074283298308300D-01 -8.00125884908214800D-02 -1.60621337812541300D-01
66  1  1.29617478391008400D-01  2.32311220204891500D-01 -1.18627541554645000D+00  1.06501720230027900D-01  4.78651474231481200D-02
66  2 -1.35404166206819700D-01  1.39756539035266000D+00  1.02875531956645500D-01 -9.66645961838259000D-02 -3.32827573171142500D-02
66  3 -2.44858721543251800D-01  2.78141478860367400D-01  3.25170427061207500D-01 -3.22515761959356100D-02 -1.08921688469351200D-01
66  4  1.06730325569659800D-01  2.51760217442625200D-01 -7.76197481365398800D-01  1.14348906873366600D-01  2.89628064471349000D-02
66  5 -1.55596809665724900D-01 -5.70934380169326300D-01  2.12351651789843200D-01  2.88571532530095700D-01 -2.57486883014365900D-04
66  6  3.31828989503040400D-05  2.24303984064047500D-04  2.81229336584542400D-02 -9.86101122243326400D-02  4.88971772011649900D-02
66  7 -7.32725894372614100D-03 -1.04005483032197300D-03  1.57333976903674800D+00 -1.83143919531008600D-01 -2.65753431881520100D-01
66  8 -4.86379386781602300D-02 -4.90720047169761900D-01 -4.66528599761683700D-01  4.36149426548978400D-02 -2.26854333059411200D-01
66  9  2.20219066415623800D-01  6.63526664378739000D-03  1.17356835029012700D-01  5.17624463944681600D-02  8.33781068452893500D-02
66 10  9.81288734435416100D-02  1.40560376564393100D-01 -1.46549374610136500D+00 -1.67456724868144600D-01 -5.47802757951466400D-02
66 11 -5.51239907654439500D-02 -1.31569787703708400D+00  2.58367185753317600D-01 -9.93747193176514300D-02 -8.42838103701536700D-02
66 12 -1.32593486195920300D-01  2.16877296566073400D-01 -5.58522212808522800D-02  4.99829713318161200D-02  2.79622461879819700D-02
66 13  3.61721276213684800D-02 -4.19853747266155800D-02 -1.18265710971951600D+00 -1.10562364380906700D-01 -1.26841796708865100D-01
66 14  4.14516301211075200D-02  5.75519610035312900D-01  3.17559378647939800D-01  4.32090763797069000D-02 -3.09052930149197200D-02
66 15 -1.16177682826395200D-01  1.47082975841315500D-01  8.06929814009376200D-03  2.49326888615408400D-01  4.98364474346175600D-02
66 16 -2.21610709227304000D-02 -5.09043437381451500D-03  1.34092419172980500D+00 -2.81021583048545300D-02 -3.35667839203475900D-01
66 17 -2.90482319406789000D-02  3.00943072935579000D-01  5.43990393724971900D-01 -4.34813955128757400D-02 -1.16226671561186800D-01
66 18  4.35144372076986500D-02  7.27122343534879900D-02  1.02392417676561000D-01 -2.55134482953405300D-02  5.92609405938076100D-02
66 19  1.25188241815665200D-01  2.76515990472154300D-01 -1.38865718065823400D-01  1.74731975597019100D-01  3.69727228743907900D-02
66 20 -6.70876383348784100D-02  8.24135633407301800D-03 -5.39271131088305900D-01 -9.10037727386772000D-02  1.03191931490775900D-01
66 21 -4.86822150646744200D-02  2.61006760640488100D-01  3.12531833980677900D-03 -1.73986609085816900D-01  6.95720264632035100D-02
66 22  1.04414582622612600D-01 -1.45181361505491900D-01  4.01102844710367000D-03  7.96383239928759500D-02  2.34029280966017200D-01
66 23 -1.18129477265814500D-01 -1.15899803700203200D-01  6.24072494081043800D-01  3.32910145231939400D-02 -1.98096736207434100D-01
66 24  3.72794308622332200D-02  9.25067516140362400D-02  9.96281841940992600D-02  2.22776322417003700D-01 -6.58789664300717300D-02
66 25  2.46368425474592200D-01  1.47078085990457100D-02  1.08729759694484700D-01 -4.61648380185856200D-01 -3.44317844283983200D-02
66 26  2.29350997335073800D-01 -1.35908626330455800D-01 -7.56567256028211600D-02  4.34423562031172500D-02 -3.86866504585921000D-02
66 27 -4.75570574452519700D-03 -1.42607725057968200D-01 -2.19558369135901700D-01 -3.15971257998996600D-02 -2.16927933918367500D-01
66 28  3.05977248620041600D-01 -8.90493147016740000D-02  3.44832422223365600D-02  1.52555172553029300D-01  6.54270128711067400D-02
66 29  5.13387336672415900D-02  1.28804037080208500D-02  1.44203632208831000D-01  2.75455210658457400D-01 -5.21160508045292400D-02
66 30  3.69121011843005900D-01  2.19619165671953200D-01  2.79182324583716600D-01 -7.70365637873620000D-02  2.03306855677784300D-01
66 31  4.22924174704774200D-01  5.35464723586989500D-01 -6.02422420836006500D-02  6.40138338414805700D-02  7.39979640117185000D-02
66 32  1.02811772007448900D-01 -1.19363260756475700D-01  5.10461889031687500D-02 -2.72246096438130700D-02  4.31659280843844000D-02
67  1  8.52202444034653500D-02  8.98156060878091600D-02  7.68271996111766400D-02 -1.54868822246944400D-03  2.14537557151595300D-01
67  2 -5.95633713837195900D-02  2.18536580903349200D+00  1.36770939145071800D+00  3.11343961794803700D-01 -1.89822985801240500D-01
67  3  1.19530969477588100D-01  7.02920163236536300D-02 -2.02564502850876700D-01 -2.12692513596556900D-02  5.37943753454697200D-02
67  4  3.83735514217407000D-02 -2.16643414993684300D-02  2.18570003874110100D-01  2.48940211312312600D-01  1.92051563039467700D-01
67  5 -4.10701171292659200D-02  6.45089951997937500D-03 -1.77940853827438500D+00  1.96528876970505700D-02 -2.43163926540398500D-01
67  6  1.42269369541361400D-01  1.00894556999036700D-01  9.29872341673060200D-02 -3.19666043804136300D-02 -7.13876806297257500D-02
67  7  1.84406003058768100D-02  8.56582830761030700D-02 -2.35878215454255100D-01 -7.32672596718620000D-02 -8.87898175396359500D-02
67  8 -6.21019619128496400D-02 -9.62731666196811400D-01 -1.02682461524007600D+00  1.92267612528417000D-01  4.32441205683694600D-02
67  9 -3.24021172019025800D-02 -1.08420033664679700D-02  2.32179642011863900D-01 -2.25836425549600900D-01 -8.33738486982451100D-02
67 10  1.46324810130223700D-01  2.76919381577327300D-01 -2.28250631663208900D-01 -1.37194056671915800D-01 -1.72152099200514000D-01
67 11  1.35331214572134100D-01 -1.36807851848690600D+00  1.57023480802916900D-01 -6.18100329452476600D-01 -1.00012049355702200D-01
67 12  1.44770781925111400D-02  8.55349711631888400D-02 -5.86194236865343600D-02  1.06638135409026100D-01 -1.48135775191235000D-02
67 13  1.30528146307294300D-01  2.81482988931400100D-01 -2.16433235273603000D+00  4.20487054029254800D-01 -1.59962416617575900D-01
67 14  2.79239566256762700D-02 -1.46323136320157700D+00  6.15741932715702300D-01  2.79015349495005000D-01 -2.15213377010036900D-01
67 15  1.24532775236469600D-01  9.06806017735691400D-02 -1.67500044719731800D-01  3.50008845484501500D-02 -2.75507365195200700D-01
67 16 -1.32340782265200700D-01 -2.13007027895736700D-01  2.17000382765600500D+00  1.61785084172238200D-01  2.70703002506557500D-01
67 17  1.16115951537134600D-02  1.87605376742713300D+00 -3.82854444315694100D-02 -9.12034322505885900D-02 -1.70593764473298000D-01
67 18  1.76506792137310700D-01 -5.91302766401289300D-03  1.84268707648017400D-01  3.41893618766459700D-02 -1.22199655816785000D-01
67 19  3.33329593895363800D-02  4.02369548136780600D-02 -6.23763743982370400D-01 -1.12245317652787100D+00 -3.57023349056355200D-03
67 20 -2.93199480137610000D-01 -7.63109347558595000D-04 -2.89797399215796900D-01  8.50141612043591600D-01 -1.15708751961721100D-01
67 21 -3.20865400924224300D-01  2.81514531659007500D-01  8.86750110115432100D-03  1.34553932381193400D-01 -1.44688205371246900D-02
67 22 -1.20085111844069200D-01  8.40132366488581800D-02 -3.17851692025088700D-02 -1.03856378339031700D-01  5.56195381668031200D-02
67 23 -1.76287243259054900D-01  1.20667705092251600D-01 -6.64413547979319900D-04  1.16693300911953100D-01  2.28824779538090700D-01
67 24  1.23624647199763300D-01  2.73057117475857200D-01 -1.53236664173063700D-01  5.53957532207667500D-01 -3.57187849091691000D-02
67 25 -8.26458259758433600D-02 -7.86190786685006800D-02  1.80456601003325600D-01  8.88691428027937200D-02  1.56799689204410000D-01
67 26 -2.55414046747213900D-01  2.84784579664548000D-01 -1.41707725140288300D-01 -4.82309278152372200D-04  7.76751622888971100D-02
67 27 -7.71928530107445600D-02  1.96295252703108700D-01 -9.89341889722255100D-02  3.96549287323135400D-02 -5.68302635586597600D-02
67 28 -2.32626380722895800D-02  8.00929016309493300D-02 -3.48189768297955600D-01  8.25507961605720200D-02  7.14678743375080100D-02
67 29  1.96977493985016900D-01  2.52852126702524600D-01  3.81730183558374200D-02  5.73659015592952100D-02  1.87918558150639100D-01
67 30  4.12547148778238500D-02  3.25601380381053200D-02  5.78241234613705200D-02 -1.12866077919313200D-01  2.72940618560195000D-01
67 31  1.09472355345419100D-01  1.02200083197213300D-01  3.36464302005093500D-01  1.83053444333872900D-01 -2.41542844482228300D-01
67 32  4.38927153586485500D-01  3.44094040603673500D-01  2.23661906327378800D-02 -2.32632526459755800D-02  2.78692605389893400D-02
68  1  6.60084745801773100D-02  1.30385525289310700D-01 -2.00591530277417600D+00  3.20561836630115900D-02  3.82988207770724600D-02
68  2 -7.01228729242900600D-02  7.91678454433626100D-02 -1.21707221555562800D+00  1.98520298344539400D-02  8.63653238631146600D-02
68  3 -1.85419340241805800D-01  9.90540163786897100D-02 -2.05049224515539700D-01  3.92626098356083800D-02  5.97473572046563700D-02
68  4  1.81045782484842600D-01  3.86821861491651000D-01 -1.30466458870029300D+00  1.32051683084134400D-01 -1.46331867170413700D-01
68  5  1.24608755806310500D-01 -1.78860286981282100D-01  7.40339877560818200D-01  9.24263062949742800D-02 -3.71636697687872700D-02
68  6  1.77401045904421900D-01 -1.40237376135634100D-01  6.98573953097755000D-02  1.03989244066752200D-01 -6.82037855132774900D-02
68  7  4.54042613331559500D-02  9.90523453764214500D-02 -9.31482837609590400D-01  1.53466536581609200D-01 -3.64062878972959300D-01
68  8  4.99344406658351600D-02  1.01324000587879600D+00  1.86944813736254000D+00 -4.36617355318221500D-01  8.41786973372848800D-02
68  9 -5.66707212488568700D-02 -2.75079760884273700D-02 -2.60011957301868000D-01 -1.41629918375136600D-02 -8.78933103137834500D-03
68 10 -1.64078430667898000D-02 -2.34960149752392300D-02  1.13240609916497200D+00 -1.25664263060065000D-01 -1.15901907516520800D-01
68 11  1.97977067366868800D-02  2.21418904994919300D+00 -3.26140252783173000D-01  1.86446797046075900D-01  5.13731755594260100D-02
68 12 -1.77501292428273000D-01  1.26128116868848600D-01  1.50794587511414600D-01  2.21602216295296300D-01  6.11584277717435000D-02
68 13  1.30220904896117200D-02  2.35208817447733000D-02  1.55964486040059800D+00 -6.40246971072959100D-02  4.27590422840495700D-02
68 14  4.45000642060098300D-02  5.38569807323568600D-01 -6.92629171861868600D-01  3.82131475342538500D-02  2.36680580598545600D-01
68 15 -1.18909706259209800D-01 -1.17770874339336700D-01 -4.80286690472287100D-02 -1.64707188392891000D-01 -3.49035550200880300D-02
68 16 -4.93005744680689700D-02 -8.31136818410700000D-02  9.90386527290183800D-01  3.82501214490612500D-02 -2.44990037121215400D-01
68 17  3.87469393541446400D-02 -3.02883057393791500D-01  1.15922227931313600D+00  5.31860049389409800D-02  1.95541925292228100D-01
68 18 -1.51446857922186700D-02 -1.80397239500009000D-01 -6.77291646983391900D-02 -5.32887076018214000D-02  1.11577495847161400D-01
68 19 -1.14179350818126200D-01 -2.31605544135692800D-01  1.13783875534710600D+00  8.40314753067034200D-01  1.47481335408445000D-02
68 20  5.44799891573240400D-02  7.43901731118138300D-02  2.39135285173217600D-01 -5.21946342630661900D-01 -1.08685275614016700D-01
68 21 -1.70781122707364400D-01 -2.37201981020352200D-01 -5.39509333305894200D-03 -5.50495365591617100D-02  8.27871904864713000D-02
68 22 -2.77376539273086700D-02  1.57799161820723900D-01 -2.97303376194812700D-02  2.52868996073685200D-01 -1.53676033145642500D-01
68 23  1.08744181357686900D-01  4.49318517879564300D-02 -1.55023420265631900D-01  4.14596906958598000D-02 -2.21604919264154200D-01
68 24 -1.03858118270049600D-01 -2.41926817793079800D-01  3.63564244429635800D-01 -3.59355721359515700D-01  8.53397442036315500D-02
68 25 -1.51336093449989000D-01 -2.81606970851203700D-02 -1.16000251333023200D-02  2.58534822565684000D-01 -5.50365436409121600D-02
68 26  1.32441317045192200D-01 -2.57251713922348700D-02  5.73260307910382700D-02 -2.15866354180876300D-01  3.05053046378277000D-01
68 27 -8.91866921974007900D-02  1.56308989910852500D-01  4.93205959758906500D-02  7.45228201885458800D-02  1.37617674429055600D-01
68 28 -2.43451585958013500D-01  1.05833911528957800D-01 -2.82335993324472000D-01  1.25332010236071700D-01 -1.16863045260692600D-03
68 29 -9.16547824086653000D-02 -4.75448419757429900D-02  2.76783183364473300D-01 -1.50869182356401700D-01  3.00751352736219800D-01
68 30 -4.70655025808381500D-02 -3.19709656838965300D-01 -1.28006623477223100D-01 -2.43260735699057000D-01 -2.97855540854032100D-02
68 31 -1.77345014330545800D-01  2.05890097706225100D-01  4.06771018938396600D-02  5.50551402837057200D-02 -1.84167672089166000D-01
68 32 -2.11341057692525900D-01 -8.31064824979716300D-01 -2.10249301785464800D-01  3.36774717429693700D-02 -2.67551530943297100D-01
69  1 -2.51226684202161500D-01 -4.10202180692280500D-01  3.57952660217319000D+00  4.21754098061191400D-02  1.24426671890484900D-01
69  2  2.21378539537449900D-03 -2.58649934165915600D+00  5.34481151110161800D-02 -2.41244941860802000D-01  2.49182098855662700D-01
69  3 -1.93772943383593800D-03 -2.47244369421827600D-01  2.14942904153325800D-01 -4.73992073389033300D-02  1.42084540102927500D-02
69  4 -2.92260568111667600D-01 -5.13670912990258900D-01  1.44481370659956400D-01 -3.77322378464398800D-01 -4.17774391255221800D-01
69  5 -1.09185211466507400D-01 -3.95385052383655800D-01 -8.05721940388224500D-02  4.68159978225473000D-01  1.73642885300582900D-01
69  6  1.01098070813000200D-02 -1.83752692381882700D-01  2.93249133098863800D-02 -7.50003935852939800D-02 -5.03945973369984400D-02
69  7  3.20981539834175500D-02  5.53648036050351900D-02  1.15433605432696300D+00  1.99973173652554900D-01 -4.83265387025506100D-02
69  8 -2.72083764334929100D-02 -8.65814915541433100D-01 -9.87905698939440600D-01 -1.11312741830860900D-01 -8.99147345244964700D-03
69  9  5.41867867309723300D-02 -4.51953132785224500D-02 -1.62384457279511700D-02  2.40126671286889500D-02 -1.27116222491704800D-01
69 10  1.58115150486766900D-01  3.40011679982723200D-01 -1.79187240997264800D+00  1.80294906590010800D-01  4.67016155826170700D-02
69 11 -1.35320423917880700D-02 -1.21902020970012500D+00 -9.06559368789674200D-01 -7.56146813377078100D-02 -8.41216845365944400D-02
69 12 -5.35767330475289300D-02  1.37698417584122700D-01 -2.63656084260474000D-03  3.10090513757110700D-02 -4.87458421807938800D-03
69 13  3.44028287124888200D-02  1.05024808854529200D-01  8.44352448277179100D-01  4.00719340343741800D-02 -2.16805073744901800D-01
69 14 -8.98923131158575800D-02  9.45531716866116500D-01  1.73184797242981900D+00  1.75168327619245700D-01  1.31909247051193300D-01
69 15 -2.05751496410788100D-02 -1.11334097410114800D-01  1.48845414245496400D-01  6.57960899036959500D-02 -6.26937805841873000D-02
69 16  9.51573793688149900D-02  9.38788738454593300D-02 -4.33623470698132700D+00  1.46454638886854200D-01 -2.97295682998839600D-01
69 17  1.52349128610664500D-03 -2.02519282797327700D+00 -4.02036052008833200D-01  2.91204037850976200D-02  2.78283372871987500D-02
69 18 -2.99855239185087900D-01  2.72026901897890200D-01 -1.03207988565292300D-01 -2.46761967196289600D-02  3.98500338228053700D-02
69 19  9.98233990646986600D-02  1.73420122023819100D-01 -8.70524079808218400D-01 -7.06777710366301400D-01  6.27273843309307200D-02
69 20  5.97833183305199500D-03  1.23086126205545200D-02  2.15472928619984400D-01  4.70337751097186900D-01  3.32528010229215500D-02
69 21  2.04717970972150400D-01  3.51161180082157000D-01  3.29423557652102100D-02  2.65238498977160200D-01 -2.02460986730333200D-01
69 22 -6.27775122468282300D-02 -4.00392896225521200D-02 -3.59986306693039100D-02 -7.20024619271039800D-02 -3.69722887832775000D-01
69 23  2.47670023106964900D-01  1.22052864725808800D-01 -4.53906771485616800D-02 -2.25069157509048400D-03 -2.21264406618225900D-02
69 24 -1.11469735491678000D-01 -1.61168065120860800D-01  4.95706982963929700D-01  1.18252349250914700D+00  2.61383575719780900D-02
69 25 -1.18261001442364600D-02  4.17365449769635200D-02 -7.74715986505880100D-01 -1.55017452583791500D-01 -1.06312009269286700D-01
69 26 -5.32019797662148100D-01 -5.24563465937082800D-01 -8.82178502620718600D-02 -1.32732044777507500D-01  1.82756210766192700D-01
69 27 -5.00241659886854700D-02 -6.55323227429198700D-03 -1.52593491460597700D-01 -4.94378190443915500D-02  5.78234998430106300D-01
69 28 -1.82003712743219200D-01 -3.96231285686887000D-01  2.50039879852711300D-01  7.09856609371147300D-02  1.54552151660814800D-01
69 29 -3.58453339219982000D-01  9.97101703305535400D-02  8.86079040901340100D-02  1.79722225430335700D-01  8.72129145234213200D-03
69 30  8.35536013506768500D-02 -4.20385640987018200D-01 -6.70896721062360800D-02  1.22214247692539700D-01  2.97155539840498100D-02
69 31  4.55533816665845700D-02  5.79169373663595300D-01  1.01163226901043600D-01 -9.36198581688937500D-02 -3.32931834487044700D-02
69 32  2.16126555502221600D-01 -3.28746086617620500D-01  3.48928932298306400D-01  8.45420798581400800D-02 -3.89123379530772800D-02
70  1  6.12575048754800100D-02  1.70867379586793000D-01 -1.63195133437447000D+00  2.26005422383156500D-01 -7.36887414772623200D-02
70  2  1.22601084852326700D-01  5.27604532262687100D-01  1.48742492445273200D+00 -4.68278132935846700D-01 -1.67387500068696300D-01
70  3  3.58086679197924300D-01 -1.90699179129227700D-01  4.38870002741430200D-01 -7.68565171820684300D-02  6.31519783039850200D-02
70  4  1.57462926067635300D-01  3.04351175098041200D-01 -1.28556759230826300D+00  1.27802536288847600D-01  1.17301117251936600D-01
70  5 -1.51566476006132200D-01 -4.92280878749342700D-01  1.54704872581482400D+00  4.73539688061324500D-01  1.62317645533375000D-01
70  6 -2.73216910666965100D-01  1.10899265133590300D-01 -1.23423884920254700D-01 -1.86658112940529300D-01 -1.09001181308861400D-01
70  7 -2.72324032820140600D-01 -5.46941118366922400D-01  2.48171560224698800D+00 -3.45112889885001000D-01  5.07940829384858600D-02
70  8 -1.79986117702056900D-02  1.34117427279202900D-01  1.66175946930962100D+00 -4.27248647349286000D-01  2.50643400153271200D-02
70  9  8.62229278964849500D-02 -1.11287267911812500D-01  1.17746689442668600D-02  9.31983347252551800D-02  6.19789416654708600D-03
70 10  1.78522928511535500D-01  3.55417516628458700D-01 -9.57867726478224500D-01 -9.77085388887668600D-02  2.68459465049058800D-02
70 11 -2.67791145773328500D-02  5.31017135083707000D-01 -7.22087771555832900D-01  1.94181739053185300D-01 -1.12954062266693200D-01
70 12  9.05169089484050000D-02  2.24371533182882800D-02  3.14646750778935400D-02  2.16780988408979700D-01  1.42945760920043300D-01
70 13  1.91031601885007300D-02  7.16818897775822900D-02  8.81978411686876900D-01  1.40641114755662300D-02 -1.12201505667469000D-01
70 14 -1.94979621782248100D-02 -5.00519084022254500D-02 -6.04105146006334800D-01  1.74436455302135100D-02 -9.65318844968586100D-02
70 15  1.02692756618314900D-01 -6.16087212145732300D-03  1.41645297112348900D-01  1.40578163751035700D-02 -1.81872830224899200D-02
70 16 -2.09941465315020700D-01 -3.72727370429015400D-01  1.97491419484319000D+00 -3.67564318438218500D-01 -2.19661146699791400D-02
70 17  3.65163734434918500D-02  1.39637442199871300D+00  2.48767557291783400D-01  8.89406560524500700D-02  1.59134140189145800D-01
70 18 -4.88156025602323800D-02 -1.10318537628913400D-01  1.00675704210421100D-01 -6.35612017218465700D-02  4.75956132398939800D-02
70 19 -7.28360397254291800D-02 -1.94941742342762300D-01 -3.58295719647657800D-01 -6.43469137059730300D-01 -6.55485185024155700D-02
70 20 -7.74741309373650900D-02  7.86958960527660000D-02 -3.14493133274270500D-01  3.75987023656790400D-01 -7.41474635287145600D-02
70 21  1.94337423920177800D-02  1.38230589372545800D-01  1.79320979090028000D-01  3.74651559185296600D-01 -2.44769989799912400D-01
70 22 -1.29881569385384100D-01  7.85495388053809600D-02 -6.38667850962940500D-02 -6.13987518360024100D-02 -2.81488787032166700D-01
70 23  2.30610810162548800D-01  5.08779768696178600D-02  3.34317913573303800D-01 -2.12875902128408900D-02 -8.36303143748963100D-02
70 24  4.51493280875351100D-02  5.32475357057841900D-02 -2.39785409284578000D-01  7.42236786740269500D-03 -4.27801983183191300D-02
70 25 -6.25237668712971300D-02 -3.46824382088768100D-02  3.48166160179647600D-01  1.50798363744496200D-01  9.39866088052626800D-02
70 26 -6.99860810339857100D-02 -1.65106465887469400D-01 -1.43700669037512100D-01  1.12049916423071800D-01  3.31625025957747400D-02
70 27 -1.45212419018846800D-01 -1.66293736194567900D-01  1.03054353863213200D-02  2.40006089947973500D-02 -1.55986583318599600D-01
70 28 -6.88092868391229100D-02  2.24795870157722500D-01  1.70833771089836000D-01 -1.22813247996069700D-01  5.81516796098597800D-02
70 29  1.88811270270714500D-01 -1.22790954393962000D-01 -2.38305895554835300D-01  4.17653240767687300D-02  2.29611790705304400D-01
70 30 -1.30581443454248500D-02 -1.12583010384391800D-01  1.97164225071055200D-01 -2.78259045134960600D-02  9.94135395379571700D-02
70 31 -1.02282747045505600D-01 -4.44034312221623100D-01 -3.14204187753696600D-01  7.56799886501719500D-02 -2.14526997677966600D-02
70 32 -1.92019333533512000D-01  4.95836180957176400D-01  4.96308118315020200D-02  7.61004355389672300D-03 -8.88294671614033700D-02
71  1  8.24363414082664000D-02  1.43506342262445300D-01 -1.31906146947419700D+00 -2.31931442143971700D-01  1.07391057219903100D-01
71  2 -5.98288497094782200D-02 -3.99961998358716500D-01 -9.74519560799415700D-01  2.84885168712375600D-01  3.42470632786363500D-01
71  3 -3.69893443796005000D-01  2.74228110096409300D-02  2.34379609127582800D-01 -1.17869989485855100D-01 -1.91844300364712000D-02
71  4 -1.40404165120874900D-01 -2.41637617744075000D-01  1.76810620862714800D+00  1.30159270421925100D-01 -2.35845725985112800D-01
71  5 -1.86376610386251100D-02  3.37167910177912400D-01  1.35233560894641700D+00 -1.17782775138263700D-03  3.35006894074847200D-01
71  6  2.36943132825216200D-02 -3.58701207357369000D-01 -1.19445800480425000D-01  6.91026667024655100D-02 -4.36133522507589100D-02
71  7  2.78019376741289400D-02  2.65727473055057500D-02 -1.69082049133028300D+00  2.13182913412296800D-02 -1.17003724405978200D-01
71  8 -1.86446710347317100D-02  1.56648622482417700D+00  7.02388732228609100D-01  1.28188918298966400D-01 -1.13986015777375700D-01
71  9  1.53429949711091900D-01 -3.94439339337153700D-02 -4.89144563674699900D-02 -3.35361753742308600D-02 -7.17365503149887100D-02
71 10 -7.14749187364968100D-02 -1.34518103183376700D-01  1.71797765664913400D+00  1.15180065747850700D-01 -3.68926966146023200D-02
71 11  3.17312241679885800D-02  1.64034768900110800D+00  1.23868893100054700D+00 -2.45206229661731100D-01 -1.32335299274859900D-01
71 12  1.19109059984607500D-01  1.32262392902535800D-02  2.91123292523657200D-01  6.01360037507632400D-02  1.80049972193823600D-02
71 13  8.40832775238344900D-02  1.49694719256268600D-01 -5.26611174173872600D-01  1.02340792254850300D-02 -1.59569567254662300D-01
71 14  5.95770782467632500D-02 -3.08428121030710200D-01 -1.34153009973700600D+00  8.20412505859514200D-02  2.10873149191494900D-01
71 15 -2.42958999651481900D-01  3.20858504599862100D-02 -2.04752678591131200D-01 -1.28335440496548700D-02 -7.40802007131394600D-02
71 16 -9.92479883489942600D-03 -2.49867389946240800D-02  9.60964668739679200D-01 -1.37840607645223900D-01 -1.84488803076447500D-01
71 17 -2.77809534499592200D-02  6.02451303461319600D-02 -6.15891203793695600D-01 -2.55999489093429200D-01  4.77849591713969300D-02
71 18 -2.46889805755450100D-02 -2.30959785958514700D-02 -2.80067794085945100D-01  8.49368629438597400D-03 -2.27118978401646300D-01
71 19 -8.51261593534149600D-02 -1.83785311026115400D-01  9.96715232173792400D-01  5.61585682318159500D-01 -1.88066826823913300D-04
71 20 -2.60601413033455700D-01  1.25202055733368700D-01 -1.63752729007365700D-01  1.49159675832656100D-02 -2.35223621399847000D-01
71 21  6.69513196292303900D-02 -3.33305557113839800D-01  6.82509473319151700D-02  3.20746869169284500D-02 -2.14671580469839400D-01
71 22  1.82596893552912200D-01  5.43084183782812900D-02 -9.34157132692832500D-02  1.50678106424775500D-02  2.40702856808478600D-02
71 23  4.53700308805176800D-02 -6.94403165613644700D-02  9.69984903418764900D-02  1.66566794901452300D-01 -6.41667699607897000D-02
71 24  4.76270606515200000D-02  5.05705185088394700D-02 -8.71321128092019000D-01 -1.12389589841167300D+00  8.48607605560900400D-03
71 25  4.40628895222935800D-02 -4.41513623493265400D-02  4.87654207567736200D-01  2.58979721588610200D-01  5.69624742340819700D-02
71 26  3.60744990399967000D-01  1.92411086226673300D-01 -9.34383037069635200D-02 -3.92634181841623700D-03 -2.30495164298554800D-01
71 27  2.34421506116971200D-01  6.99527856862756000D-02  1.87511753955463500D-01  1.72057635430470800D-02  5.26684868422411500D-02
71 28 -7.17805495798938500D-03 -4.54904318842517000D-02 -1.90060592732809400D-01 -4.99333779742587000D-02  1.06406837887955800D-01
71 29 -8.73564031815582400D-02 -2.64180809587073300D-01 -2.55551342527307000D-01 -5.76467139008732100D-02 -7.10631124962996800D-02
71 30  8.30497710875512100D-02  4.56288645342739900D-01 -1.80146357519972100D-01 -6.08834827647190500D-02  2.16093944248994300D-01
71 31 -2.17309466707151500D-01 -2.05422701574696500D-01 -2.25425428570644200D-01 -1.12630530798920400D-01 -8.83295911406467200D-02
71 32 -1.56836298391781300D-01  8.11338250210396600D-02 -1.64588038369221300D-01  3.84970578887948000D-02  3.50195099379505000D-01
72  1 -2.87935689337499900D-02 -5.80185873801321900D-03  7.15730732658805800D-01 -7.49838051250871900D-02  1.34057202679949800D-01
72  2  1.12499571571634400D-01 -1.45120765110345500D+00  1.16194052121690500D-01  1.58923829843292300D-01  1.22471750608263800D-01
72  3 -7.73348287233524600D-02 -4.51369218849100700D-02 -2.01371069589527700D-01 -2.43710903975171600D-02  7.14539612560444300D-02
72  4 -1.00374985005913000D-01 -1.45009233986792600D-01  2.68674090813734000D+00  2.28288978768383800D-02  4.13532173412608100D-03
72  5  9.47834779387674700D-02  1.23420575461818900D+00  8.37550314140805400D-01 -4.77369517792144600D-02  8.75054541158820400D-02
72  6  1.27391013284221600D-01 -2.14896467400104300D-01  1.56098835858452400D-01  7.63229791469227200D-02  2.09074929821056900D-02
72  7  4.59403471619219600D-02  1.26422593723260500D-01 -1.98095068821306600D-01 -1.91592297407825000D-01 -2.67602043719418000D-01
72  8 -4.26941287972125400D-03 -6.24057475294408400D-01 -2.93697944590477500D-01  1.24766746473411200D-02 -1.56482017402483900D-01
72  9  1.35113379314784600D-01  2.13686380876988500D-02  1.84084666360786300D-01  6.11011968768311300D-03 -2.02155869869141600D-02
72 10 -6.84284434492546100D-02 -1.59125149564111100D-01  1.74005336062182400D-01 -5.01107682401621100D-01 -3.59197123476728600D-02
72 11  1.82735070015298000D-02  2.30752593169778800D-01  1.51222418813671300D-01  1.22103047767302600D-01 -1.80934968505340700D-01
72 12  7.06787075070602600D-02  1.10256260998280700D-01  2.89019090987823200D-02 -2.00089941430932500D-01  1.18421043211376900D-01
72 13 -1.14588444690981700D-01 -3.60819163752658700D-01 -1.49340215047144300D+00  2.39014948981969400D-01  1.33182145376008100D-01
72 14 -7.71969105643280500D-02 -3.92228576563663400D-01 -1.16479394932629600D+00 -3.93976586778501400D-02 -1.41298569659822000D-01
72 15 -1.09642604286676500D-01  2.50941173946498800D-01  6.83068719829110900D-02 -2.16262976968042400D-01  9.12310933952589600D-02
72 16  4.35301920884329000D-02  1.19140865245592700D-01  2.29738923329418600D-01 -3.78004413012218500D-01 -5.31766145863172100D-02
72 17  4.61323471767311000D-02  5.28393009646014900D-01 -2.12419176881050300D+00 -5.75036247994578700D-02  1.50028313869303000D-01
72 18 -1.92792115477054200D-01  4.27638016077528000D-02  1.28493443523292000D-01 -7.98149041706256900D-02  1.73145755905308000D-02
72 19  1.73691816857101000D-02  9.35024528831220600D-03 -2.07512758940559500D-01 -1.54811611011335600D-02  8.87566308812484400D-02
72 20  6.53478036683563700D-02 -7.26429439968946100D-02  2.18020996372086300D-01  7.65294215564496400D-02  2.46976958633862300D-02
72 21 -1.50149028548666700D-01 -5.18941147789848700D-02 -1.35105494270104700D-01  1.98743810695695500D-01 -1.02697804057854300D-01
72 22 -9.60460066378404800D-02 -8.68920081266314900D-02 -2.71907456036320200D-02 -2.15629357528223300D-01 -6.68648321079331800D-02
72 23 -2.19802206877841200D-02  8.88450527957170700D-02 -7.93935562535394200D-02 -6.68950090312164800D-04  3.06552776054841800D-01
72 24  5.27345670597825400D-02  4.02121881751361200D-02 -1.26680978164653400D+00 -8.86298017721082400D-01 -4.76180375291077200D-02
72 25  1.06524527541782600D-01 -9.84055983017581600D-02  6.89591299758120500D-01  6.60500295985767500D-02  9.86825622437722700D-02
72 26  1.60224564796484000D-01  5.40323096566341400D-01 -4.31780562262440800D-02  1.43612690323878900D-01 -1.07658611233276100D-01
72 27 -3.59540790906028000D-02 -1.46353159405444000D-01  9.48889471714384900D-02  1.40229169185441600D-02 -1.12225358549822500D-01
72 28  1.10263559527691900D-02  1.01199002597053300D-01 -1.60029170090798100D-02  8.87593945402127000D-02  7.46630289268656900D-02
72 29  2.41225087706524800D-01  2.82030770355896100D-01  1.56127508735372800D-01  2.83066824810004500D-01  3.84039037315032200D-02
72 30  1.29955292212830100D-01 -4.74717119011205700D-01  2.07755104675844900D-02 -1.47856188995240400D-01 -7.14225060776993400D-02
72 31  1.17558846411235400D-01 -2.97815786876976400D-01  2.95138875273940800D-01  1.98641946212132200D-01  1.82882632222144500D-03
72 32  2.12289373501271700D-01  4.53637326213055300D-01  1.17503950896710400D-01  3.20009653954824100D-01 -8.15141253464605200D-02
73  1  8.13144440040300800D-02  1.88558183833564500D-01 -7.57330373136577700D-01 -9.83755350725912900D-02  2.32485971914310900D-01
73  2 -1.00465402470637100D-02  1.51293376713094600D+00  6.85154677778418000D-01  7.44357467215588200D-02 -2.78370558926908400D-01
73  3  2.66889751199398500D-01  1.14808077275103800D-02 -1.52679408100902300D-01 -4.96120570992609000D-02  1.30388236785423300D-01
73  4  1.73356968391951900D-01  4.23443987033725500D-01 -1.61034036481610900D+00 -7.57818801637607500D-02  2.22465265442474600D-01
73  5  2.19389986573765800D-02 -1.72295338981481200D-01 -9.15048725585062000D-02  5.87246315964036300D-02 -2.70441514630212700D-01
73  6  4.47657735847893800D-01 -1.77216221217681000D-01  1.74474378159342300D-01 -3.72568905453255700D-02  3.68043786194931800D-02
73  7 -8.05808035041963200D-02 -1.14809280707298000D-01  1.46274397907920300D+00  1.32984938859083800D-01 -5.59555112529621500D-02
73  8  1.82749944068964100D-02 -8.90107935747931500D-01  1.36807015693158700D-01 -2.78786413849916400D-02  6.99231420969699400D-02
73  9 -2.11579018268264200D-01  1.41655876171294100D-01 -2.57407965764717700D-01  4.73930146487108500D-02  3.78238326546875000D-02
73 10 -2.38509986359481300D-02 -1.51739814116282900D-01 -8.69445575036758100D-01  3.06377420683700200D-01  3.34033114308728500D-01
73 11  2.25702236457226400D-02 -1.25687880895093100D+00 -1.22128972286787500D+00 -7.79401428328644100D-02  3.70201288785813700D-01
73 12 -2.96159000733259300D-01 -7.40422880525553900D-02  9.28452233208376200D-02  1.38414248985999500D-01 -6.50337632990819600D-03
73 13 -1.05881917209826000D-01 -1.89052248685336400D-01  8.24065201753518600D-01  3.29382790351719200D-01 -1.21061799824630400D-01
73 14  2.68177970135200900D-02 -4.51149488276054100D-02  1.18202921080055100D+00  1.07363985473543300D-01  9.69921789842283200D-02
73 15 -3.91092596525370300D-01  2.94100417541142600D-01  4.71272560473044000D-02 -4.55121154693669100D-02 -1.31739198295624100D-01
73 16 -5.84526860247659000D-02 -1.19097093340438600D-01  8.91637177680142200D-01 -1.12645186615803400D-01 -2.71844554877134200D-01
73 17 -8.40750655322073900D-03  1.13101224824681100D+00  1.48536663802480200D+00 -4.27026879129299900D-02  7.48735273849590500D-02
73 18  1.44034957099872800D-01 -2.18908484484832000D-01  3.71205609164383300D-01  4.98015526483228200D-02 -7.07113863482201200D-02
73 19 -5.59054596736255000D-02 -1.68769609018468900D-01 -1.68147650016680100D-01 -9.19412009226479700D-01  5.09673534375235300D-02
73 20  1.72394415027097700D-01  7.27132447679924600D-02 -1.58958607783591200D-01  2.20879202059965800D-01 -1.69400306656216500D-01
73 21 -7.92382506610534600D-02  4.98869153988081700D-01  8.51337776845135000D-03  9.45731821060976500D-02 -7.35689434783138300D-02
73 22 -2.10042386277848400D-02 -1.90900670620101800D-01 -1.04819467407121500D-01  5.44846813674646000D-02 -5.06073825204453100D-02
73 23 -1.03474620327849200D-01  1.54082002848294200D-01  2.00084407814217500D-02  8.18748074914647800D-02 -2.77968245818133000D-02
73 24 -7.17923340080624800D-02 -1.75443837972894500D-01  3.39197288497020000D-01  6.09452251037886900D-01  2.73639483785058400D-01
73 25  1.56814393890242700D-01 -1.49497731424634300D-02 -1.42568709172306900D-01 -6.12715694641674400D-01 -8.18964933819175800D-03
73 26 -3.40139584548561300D-01  1.34676724527435300D-01 -4.82257005086182200D-03 -1.64129313716660500D-02 -8.50163631124381800D-02
73 27  1.01429294484104000D-01  7.44912862771814500D-02 -1.66847791117476000D-01  8.74578774184045700D-03 -3.16754485130854200D-01
73 28  2.40674011393899700D-01  7.60804737369544700D-02  1.39532754024405700D-01  1.97617679906476200D-01 -1.35374765915741900D-02
73 29 -3.37319319369766400D-01  7.10963753017169700D-01 -6.66811791650450000D-02 -8.01136078339648300D-02 -6.69052968487239400D-02
73 30  1.50776425933568600D-01 -3.15496619653970700D-01  9.18842390394044200D-02  4.49183857487285500D-01  5.07334657441680300D-02
73 31  4.48199010868121700D-01 -2.15458236212435400D-01  1.57237610646696600D-01  9.77169428831281700D-02 -1.96374076130222300D-01
73 32  1.33074910214255700D-02  2.27099865133174600D-01 -1.94140484745129100D-02  1.87820510666497400D-02  9.34789719772551700D-02
74  1 -1.86523733710281000D-01 -3.62669710672922100D-01  2.06062942401643100D+00  1.28118320894849400D-01  2.23479093478858300D-01
74  2 -4.30055964207028100D-02 -3.32019591219697100D+00 -5.56482221119470900D-01  1.30270308881715800D-01 -9.85114611905563700D-02
74  3  1.10545914573516000D-01 -1.20344533829615900D-02  2.36170033409115800D-01  1.91070318427046300D-02  1.08351418280340000D-01
74  4 -1.09453119388256200D-02  1.68621231365213700D-02  3.44825980470176500D+00  5.06920067815491100D-01  2.30104346972900300D-01
74  5 -5.42363707972627000D-02 -6.61390167089708300D-01  1.02630034738721000D+00  1.66089004216236200D-01  2.00072354020646700D-01
74  6  1.27943238592452300D-03 -2.01351786406571800D-01 -3.72357416153334900D-02  1.28857657166767800D-01  3.20173591179860700D-02
74  7  3.19676142872608100D-01  6.12492122983923200D-01 -4.13279943257755200D+00  3.88356061665722400D-02 -5.35682476245647300D-02
74  8 -5.92973661603315500D-02  1.90301775828746200D+00  1.10849788643090200D+00  5.28118567060242900D-02 -2.36898862859526900D-01
74  9  5.22620299926371800D-02  1.84636832866889900D-01 -1.03274838929131600D-01 -1.06004782402942300D-01 -1.06815404711882700D-02
74 10 -7.97116922036513700D-02 -1.16916444126582600D-01  1.78234777719963000D+00 -2.87482158709380700D-02  1.23652174061442800D-01
74 11 -4.74775195732136800D-02  2.94117891988186600D+00  6.86315560063390200D-01 -1.32826885316402500D-01 -7.83553878820709100D-02
74 12  9.97547725970305800D-02 -2.13993847149591400D-02  1.38140933652703600D-01  3.91123538697481000D-02 -6.20582405854770100D-02
74 13  2.48241753044204800D-02  6.16313923033324700D-02  5.03780957543619500D-01 -2.68283524735883500D-01  2.93028297316288300D-01
74 14 -3.83256053646890700D-02  1.30404138246826400D+00 -2.07205501246112000D+00  4.35226154608430300D-02  3.23925240446879900D-02
74 15  1.26427563300389600D-02 -4.50352803747279500D-02  1.43884433269930500D-01  1.22135142123360700D-02 -3.77874779209197300D-01
74 16  3.76719832879134100D-01  7.63643135750119700D-01 -2.77380515203772800D+00 -4.15912102673721300D-02  2.24572370112703100D-01
74 17 -2.23620911405406000D-02 -1.86000782263153300D+00 -2.36211161156359500D+00  2.04153968515584500D-01 -3.96170927361492600D-02
74 18 -1.52876678557043900D-01  1.92493771293194800D-01  6.31642076886106400D-02 -2.90868697074345200D-02 -1.36684837656550000D-01
74 19  8.32830356772608500D-02  1.89366097286674200D-01 -4.16268787217204800D-01  2.31887437167716200D-01  1.03670734365988700D-01
74 20  1.19104555740158300D-01  1.19756767084779000D-01  1.40534192343462500D-01  5.01236857387180700D-02 -2.76983085489954700D-01
74 21  3.06503497137804900D-01  1.12723566280702500D-02  9.00380755196089100D-02  6.02626367518652800D-02 -2.68249636482311600D-02
74 22 -3.34376731036324900D-02 -1.09373187791294200D-01  3.38835252097928400D-03 -1.56144847103152600D-02  4.62170170257583800D-02
74 23  3.91183695281415400D-02 -8.53353865538990100D-02  8.20092741822171100D-02  1.42855559870333400D-02  9.22981817335971500D-02
74 24  3.05172562160957700D-01  6.25331948372223600D-01 -1.58106533107072200D+00 -7.73578548698426200D-01  2.14663714761460400D-01
74 25  2.19687293592547100D-02  3.55769041372825500D-02  5.04173639141562500D-01  5.30919012991713800D-01 -1.21431045052762300D-01
74 26  4.60737184622929900D-01  1.70641520847154900D-01 -8.83998182636937900D-02 -1.44349426359759500D-01  1.24977214755120200D-01
74 27  1.93722116046389600D-02 -7.56252918885022400D-02  1.31104527493821800D-01  1.32366288446573500D-02 -2.00804342395330500D-01
74 28 -8.00945951321053700D-02  2.80898937527435900D-01 -2.72624110512986900D-01  1.07717131713875200D-02  5.44224191098901200D-02
74 29  3.50815130239552100D-02  2.36573151262682900D-01 -9.59755449027767700D-02  2.22873129258896600D-02  8.76764104646159800D-02
74 30 -1.01144749751608800D-01  1.58596498213462000D-01 -9.74758967222515700D-02  4.17651031894906600D-02  5.57203583985292300D-02
74 31 -1.20358112068085200D-01 -3.35464594839160700D-01 -1.52434633176073300D-01 -7.65299614932080100D-03 -2.24301770113621300D-01
74 32 -2.00927083841493200D-01  7.61149622841475700D-01  1.44227201257241600D-01  5.95488160317740900D-02 -1.64933450910798100D-01
75  1 -1.20322487313647400D-01 -2.36331556783120300D-01  3.39543468104267100D-01 -1.03779608636373000D-01 -1.22675027611053200D-01
75  2 -2.77298717949127500D-02  3.85456645119147800D-01 -2.05950861882397600D+00  1.37996236531452400D-01  5.69584667182068300D-02
75  3 -6.28609202253814600D-02  5.90245350717375600D-03  2.64300840489038000D-01  9.90154637640304500D-02 -3.07413356340995400D-02
75  4  2.90749906805220600D-02  5.06149488784179400D-02 -2.79380668996104000D+00 -2.13200054823205300D-01  2.21789965657086400D-01
75  5  1.91529478578474100D-01  1.15486543864314700D+00  6.52969408815850900D-01 -2.77319009212195700D-01  2.99843340186839600D-01
75  6 -5.13426638401282800D-01  2.13583298214443600D-01 -2.90208444394394400D-02  5.40308310560932400D-02 -3.71478112943358300D-02
75  7  1.04564341686293500D-02  1.08007580095328500D-01  1.34784355910150300D+00  1.58352582454927500D-01  1.82330885782501500D-01
75  8  2.13512322653234900D-02 -3.79897114199509500D-02  1.11374467006670100D+00  1.90553656675879400D-02 -1.48267808906186700D-01
75  9  4.48064593376462900D-01 -2.99796784470275500D-01  1.72696305980966500D-01 -1.01575091605060300D-01  2.61192351371225400D-02
75 10  7.04793389008055000D-02  9.31194223206460600D-02 -1.50571994211207100D+00 -3.31363420026842800D-02  6.33340723358162700D-02
75 11  1.87621365878372900D-01  9.92386254338422900D-01 -1.91561139222307100D-01 -2.53033167892437100D-01 -2.91335378358701500D-01
75 12 -9.70225875419548400D-03  3.01037637112898900D-01  2.69768388516074500D-01  7.66624322761125000D-02  9.21916210040202200D-02
75 13  4.75191827550311700D-02  1.04584956139243400D-01  1.35083037172628900D+00  2.43540786243405700D-01 -1.45718094388995600D-01
75 14  9.28786959404490500D-02  1.14923179124944200D+00 -1.50845208857647500D-01  4.95376907301405800D-02 -1.06792923927476300D-01
75 15  4.24583852639815200D-02  6.43345386634933300D-02  7.81332304558602400D-02 -1.48452529408196300D-01  7.38726188535540900D-02
75 16  4.54690992734232300D-02  1.00977581920402600D-01 -6.19897670187168000D-01 -2.75038447856768200D-01 -1.07688071090239800D-01
75 17  1.58199183003600700D-02 -1.38577413238977300D+00  6.62521922789197000D-01 -1.32939842073964800D-01  1.18447620894155000D-01
75 18 -7.06541092998740200D-02 -4.77935115942807600D-02  6.55914963792356400D-02  1.64517336885248800D-01  4.13422277860183400D-02
75 19 -9.51427498573461200D-02 -1.61984632797507200D-01  9.70109447711356100D-01  1.30585126621776400D+00  9.18847144046894100D-02
75 20  2.02547435396863500D-01  3.09277947946484500D-02 -3.46246083428241000D-01 -8.23530750512318600D-01 -8.29489778447022500D-02
75 21  1.44007534153529400D-01 -4.40525493981145200D-01  6.80470853393412800D-02 -1.41342191837512700D-01  1.99751644678987200D-01
75 22 -5.84094528414745200D-02 -3.56128499786776300D-03  3.56949255272259900D-02 -1.13000739323220000D-01  3.72268766972572400D-02
75 23  5.31559517999374600D-03 -4.25424718772517000D-02  3.33095791136892200D-03 -6.96258649234699300D-03  3.55044529029603700D-02
75 24  1.72955820884852000D-01  4.05242117773044400D-01 -6.60442586678035700D-01  2.18866508980668400D-03  6.18963413245873100D-03
75 25 -2.17531967067279800D-01 -4.99692435953079100D-02 -3.54687450382172400D-01  2.63659772279998400D-01  4.96854709896183300D-02
75 26  2.42674623083896200D-01  7.41233395407981900D-02  8.75059262029716900D-02 -2.04760582340223100D-01 -3.03596381518065700D-02
75 27  2.35120220492029400D-01 -2.10750196030334000D-01 -1.98705268841039000D-01 -9.11563945284949200D-02  4.51285082107832300D-01
75 28 -2.19082328887235100D-01 -2.32202753220597300D-01  2.65720239022972900D-01  2.02016407097887000D-01  7.22624829864583200D-02
75 29 -9.39857549771387100D-02 -2.82377349198291300D-02  4.68040725069933100D-02 -2.18798292137556100D-01  1.69459091914215700D-01
75 30  1.91515778574090300D-01  2.57844917004183200D-01 -3.33053678743271300D-02  1.42807322265853500D-01  1.03744709293089500D-01
75 31  6.12176916897459800D-03  5.66460914007575900D-01 -2.42063617915359300D-02  1.77523793130661400D-01 -2.68197571120214000D-02
75 32 -2.51172869675201600D-01 -9.04415476179987100D-01 -8.53740034190213800D-02  1.61160060923699300D-01  1.24404945461659900D-01
76  1  3.69661291990045300D-01  6.54118211835343600D-01 -5.74787787443664600D+00  1.72524306222805500D-01 -2.12769563650671200D-01
76  2 -1.70588027714655000D-01 -4.86595642640003900D+00  1.76510985251123400D+00  6.32639220398204000D-02  1.08048075697895900D-01
76  3 -2.84634433207294900D-01  1.76586357509401000D-01 -1.88662405105493600D-01  1.63065513383089600D-02 -3.21947225888823100D-02
76  4 -2.37878295077902300D-01 -4.00853860156801600D-01  2.52816138488247600D+00  3.43338830686423300D-01  2.16626477584931800D-01
76  5 -9.18271660376776500D-02 -3.90040724244196000D+00  4.89553473576382700D+00  5.23490446448781400D-02  1.88810620650782600D-01
76  6  5.27710264750694300D-02 -2.41581647125852900D-01  4.64312644561080100D-01 -1.34877098555509200D-02 -2.59528867910741200D-02
76  7 -8.52581610570476200D-02 -1.25434404066002000D-01  1.60784719131671200D+00 -4.20475347186967600D-02  1.07740064606185600D-02
76  8  1.28094875163388900D-02  1.91196357454898400D+00  2.56479460966675600D+00 -5.22590370472241000D-02  3.37151061746491900D-02
76  9  1.35223970713683600D-01 -1.68939076888333700D-01  1.27071373169793800D-01  9.55430317630124500D-02 -1.78567633810116700D-02
76 10  4.91900836740572000D-02  9.82503705035504100D-02  1.04437015867437100D+00  1.91230840576376600D-02  8.51266324163004700D-02
76 11 -1.35736378127850200D-01  1.89680368744755300D+00  5.62513064248275700D-03  2.21657201192409600D-01 -1.28719360651702300D-01
76 12 -3.01480431600625900D-02  1.58867403811763800D-01 -1.40157756999933900D-01 -4.55668237341230300D-02  3.44387669455096400D-02
76 13  1.33414855235496200D-01  2.36629745680595500D-01 -4.18173966737514000D+00  1.98576595465377900D-01  1.09541266403103600D-02
76 14  2.88755643125921900D-02 -2.12074295480448400D-01 -4.02780246069302600D+00 -1.84660328916826700D-01  5.84039311527244300D-03
76 15 -6.16331757687599900D-02  5.57927826534871300D-02 -1.59819117491397500D-01  1.46361912550827700D-01  6.34594227705187300D-02
76 16 -2.06972452356672500D-01 -3.24039953643220300D-01  4.19244851596627300D+00 -8.30156843390337100D-02  1.84352018655956700D-01
76 17 -9.25931026490094000D-02  1.10663570927702900D+00 -4.66183481252971400D+00  8.95914755652882900D-02  2.08352519435131300D-01
76 18  3.88778920525206200D-02 -2.47230411487650300D-01 -3.05830239130784600D-01  2.46576206663152200D-02  3.48209430835044800D-02
76 19  1.88652941377922400D-01  4.50982774462823800D-01 -2.10354265966757300D-01  2.96975045511487400D-01 -2.20317663084613900D-02
76 20 -1.03051451535316100D-01  1.08781109679125200D-01  5.50825607063551300D-01 -4.83850351834642000D-01 -9.27331006050630700D-02
76 21  7.18169128675746200D-02  3.35791019103278900D-02 -1.06001976886834100D-02  7.25337710296798500D-03  8.03992684361915800D-02
76 22 -8.76526455391584800D-02  2.41129992923984300D-01 -5.69811544041094000D-02  1.72188115360402500D-01 -1.44488901383046200D-01
76 23  7.00951024950869400D-02  7.43937988879607700D-02 -4.38303634593431500D-01  7.02582120701004400D-02 -2.67755910666342200D-01
76 24 -3.79441317440129000D-02 -1.30320890687499800D-01 -5.17946089504438500D-01  5.38352440778755300D-01  1.78804563030258400D-01
76 25  1.57533164864131000D-01  9.24253455969464000D-03  7.26228614391658900D-01 -8.56599698075780500D-01  1.54423999780827500D-02
76 26 -2.38769606054746400D-01 -1.03260464697727700D-01 -2.78052029529670600D-02 -1.59462364220123100D-01  6.81657049092028600D-02
76 27  9.12966593109195000D-02 -2.71040412257112400D-01  9.62792288496723700D-02  3.13725983499732300D-02 -2.14535105590112200D-01
76 28  2.71710685105117800D-01 -5.71755795150060100D-02  4.52355924511439600D-01 -6.80971857877833600D-02 -5.16274174477709200D-02
76 29 -2.68423429017501000D-01  7.33627957196578300D-02 -5.77413176591754400D-02 -7.00595727251779500D-02 -1.43689457147132000D-01
76 30  1.77257615718763000D-01 -5.24555180400600600D-01 -2.05889244477104800D-01  5.93799627446176600D-02  3.28703551676774200D-02
76 31 -1.21345246940466300D-01 -5.40060028055483800D-01  9.64404357656021300D-02  3.38846921814130000D-01  1.67952119210624300D-01
76 32  3.63803477071941100D-03  8.28990599324703900D-01 -1.52597071693126300D-01  2.34748692695795700D-01  5.58970730473171300D-02
77  1  3.05624239803933100D-01  6.49486675434163400D-01 -5.89531777937439300D-01 -1.82854049007898900D-01  1.29721567111947900D-01
77  2  3.79010166333193100D-02 -4.38627102913066600D+00  8.74022219979031500D-01  4.73786205762783200D-01 -1.00553562280140600D-01
77  3  2.42174789233667500D-01 -1.41621226953526500D-01 -1.28458482158247000D-01 -1.12963995856775100D-02  2.25821347942655800D-02
77  4  1.57281126576769800D-01  3.28470651347342200D-01  2.40065743490587900D+00  1.13121297200158200D-01  4.05115077156720700D-02
77  5  1.38469754654990900D-01 -2.08144815613272100D+00  1.76744083771847100D+00 -4.43123230043837000D-01 -1.32159268639509200D-01
77  6  1.95019520056033600D-01 -6.28602514165248300D-02 -3.78605037724296900D-01  1.17583556580273900D-02  4.56329411522788500D-02
77  7 -5.71840855115753700D-02 -2.04634288808423100D-01 -1.53251583521004600D+00 -2.17646637300840400D-01  4.53966636728740900D-02
77  8  2.89745948760067000D-03  2.05650454737698300D+00  5.05186404985499200D-01  2.19722564877801500D-01 -2.62659653355122000D-01
77  9  4.52581424485082500D-02  2.17401510906612500D-01 -3.94326452423682200D-01 -9.18274801392205700D-02  1.33800295068987300D-01
77 10 -1.05741113076906100D-01 -2.08025733398735500D-01  1.79535015004199700D+00  1.85036919138515100D-01 -1.04134690991363000D-01
77 11  1.17104055867045900D-01  1.70480338538016500D+00  1.31135477461559900D+00 -3.64711673933306100D-01  1.35454112425073000D-01
77 12  1.28633943510687200D-01 -2.64088055935760500D-01 -3.20854496492166200D-03  1.40912105163596200D-01 -8.13988740132601500D-02
77 13  1.42012527995331500D-01  2.73211937382313300D-01 -3.01863581709013100D+00 -2.42442179722204000D-01 -1.18628388696288800D-03
77 14  7.15430514796797600D-02  5.23704646604638000D-01 -2.85523024007382300D+00  2.11427868612056600D-01  3.21609612964066300D-01
77 15 -2.32315710030332700D-01 -8.92939029337337200D-02 -2.13562411491804600D-03  1.38901658815680500D-02 -5.93491140559214300D-02
77 16 -4.02995627847521400D-02 -1.19579232146639600D-01  1.01768758451574200D+00  1.11420327860017000D-01 -2.01707853580887400D-01
77 17  3.12454894845529300D-02 -1.34002790455015300D+00 -3.50399311933430900D+00 -2.83505090408238700D-01 -1.20466074154092800D-01
77 18  3.11959188711363100D-02  8.92701552829577700D-02 -2.00187128249981400D-01 -2.10410031433656500D-02 -8.74428312099815400D-02
77 19  1.92869343175066000D-01  3.76742817929334200D-01 -1.21506857507754200D+00  4.53508303241132300D-01 -4.56617151211655600D-02
77 20  2.93380203173681700D-02 -2.81127580010120100D-02  7.85956309551580700D-01  3.83502218784507600D-01 -1.03262061006338400D-01
77 21  2.03577573471218900D-01 -2.18460655186105300D-01 -8.27294771255207400D-02  2.18585247423713200D-02 -1.22338304813967100D-01
77 22  1.00479780071597000D-01  8.08306346801520000D-02  2.28584580830263100D-02 -1.74194254397013900D-01  5.32671454697483700D-02
77 23 -4.62681383892324300D-02 -6.99900708051494500D-03 -5.94424260776267800D-01  4.82251245130213600D-02  3.11799022327162500D-01
77 24  1.65679562939346000D-01  3.23429588008155400D-01 -5.00122082468832800D-01  5.01649544324365900D-01 -1.40314889269295400D-01
77 25 -3.50484442308627700D-02 -4.04851880666990900D-02  4.60169125604769300D-01 -7.45384164492439000D-02  6.56561104135194300D-02
77 26 -1.91382538296625900D-01 -3.10087874180389000D-01  1.51192510557732600D-01  2.44986874794671200D-01 -5.49461789113785500D-02
77 27 -1.90040695883293000D-01  4.83122141470804100D-03 -2.54982239377573300D-01 -5.16143776714463000D-02 -4.18751265429023900D-01
77 28  2.09346997660122400D-01  2.09404267768901700D-01 -1.52881483889441100D-02  1.97144338184628800D-01  2.14637903736552200D-02
77 29  5.27117649567570200D-02 -7.44002307682026400D-01  1.03134547456660800D-01  3.20421567055127800D-01  6.46251898834918600D-02
77 30 -2.48639671822193900D-01  6.15393823236370200D-01 -1.30612978184483200D-01 -7.43406169046292400D-02  9.37608457027834000D-02
77 31 -2.08986408245146300D-01 -3.37069643543932200D-01 -1.57432837401902700D-01 -9.65540045548842900D-02 -1.43878669570423800D-01
77 32 -2.58270901527339500D-02  4.91864716448465600D-02  1.86580358660217800D-01  1.88286750080059900D-01  1.51734166655221800D-01
78  1  8.38674989639889500D-03 -3.03928362048743100D-02 -1.97986319184556500D+00  1.47409964663839600D-02 -1.71003327298769000D-02
78  2  1.85018883374025100D-01 -4.24766640887618700D+00  7.87175135832122600D-01 -2.82020464812776000D-01 -4.76519119809450600D-01
78  3  3.56104716152056200D-01  1.20414403657393500D-01  3.73861650743586500D-01 -3.79293110937775100D-02  1.45155820705217900D-01
78  4  1.17691476745238400D-03  5.91355746168718300D-02  2.65265162816189300D+00  5.06224063372046100D-02  2.84849507273338600D-01
78  5  4.39996876295736000D-02 -2.64904322922997900D+00  3.29861340386868800D+00  4.89258969411526800D-01  8.73311637874438800D-02
78  6  1.36976027371212000D-01 -2.24307191158655600D-01 -2.37888373176075700D-01  1.36105224209848400D-01  1.26643375183710200D-01
78  7 -3.29181002157261000D-02 -8.45168815449094500D-02 -1.32907603775557000D+00  4.23747990587080100D-02 -1.17344502559428900D-01
78  8  8.95580858538615500D-03  2.37548056979734400D+00  2.16791952970326000D+00 -1.28264142780545600D-01 -1.89447310576241300D-01
78  9  1.33149319347345100D-01  5.62979912288964800D-02 -1.45042138677351400D-01  8.68167731853364100D-02 -7.01112843600828500D-02
78 10  5.86351358671898900D-02  1.28652669661565500D-01  1.76022695899032900D+00  1.78139185354779200D-01 -1.59603337501793400D-01
78 11  1.28556697112580200D-02  2.49390672736864500D+00  1.14758285181400100D+00  1.74553069846921600D-01  4.43121558303988500D-02
78 12 -2.97033325155895400D-02 -1.46088233148096600D-02  2.07821344152150300D-01 -1.30649813878560100D-01 -1.32780288745271500D-02
78 13  5.84832772678737700D-02  1.69284893364319600D-01 -1.29663026950138200D+00  3.03553685323087300D-01  9.80346328680240700D-02
78 14  1.10809977909795800D-02  6.66181798089534500D-01 -1.89494889760091200D+00  1.62155843559615400D-02  1.23702951001754200D-01
78 15 -8.65087674944009400D-02 -3.71941835073540000D-02 -1.32545818805198100D-01 -2.27702262472092500D-01  2.42059244591929800D-01
78 16  5.93183087635325400D-02  6.92904207308070300D-02 -4.76246357750608500D-01  1.16273969805889600D-01 -1.01152283408142600D-02
78 17  6.83039929560967000D-02 -6.30047326586472400D-01 -2.24727639049684600D+00 -1.14357803941897000D-01 -5.03960833371124000D-01
78 18  3.52574970859818200D-01  1.51385862511306700D-01  2.54797350413096800D-01  4.53997973451698800D-02  1.50492107428580000D-01
78 19 -7.58673165052694000D-02 -1.65754719375430800D-01  8.58545579511686700D-03 -1.65277999063729300D-01 -1.15589732068209800D-01
78 20 -2.32878057427145700D-02 -4.61051126592473600D-02  6.55107988092370400D-01  1.22177924733127600D-01  1.93676646338518500D-03
78 21 -2.50021313853416100D-01 -1.35763323786376900D-01  4.70180659442782800D-02 -6.76353361450294500D-03 -3.61042599820534500D-02
78 22  4.28677935965576800D-02  7.63203607200654800D-02  3.88528468182790200D-02 -9.55888184537543000D-02 -7.59491140963851300D-02
78 23  2.24888324853815100D-01 -1.48939210757429100D-01 -7.57471976836784500D-02 -1.18599579783716000D-01  2.16824176809343500D-01
78 24  1.09838847659885100D-01  2.18583289873469400D-01 -5.04485813672003500D-01 -1.51231775893546500D-01 -1.80287028684476500D-01
78 25 -1.84048871510472200D-02  1.63936833771348700D-01  8.95051353323478500D-01 -1.76265696670954300D-01 -4.91138335494473900D-01
78 26 -1.81002776801744700D-01  8.39509560048882800D-02  9.97070162840681400D-02 -2.66354094796757900D-02 -2.10491540840685800D-01
78 27  2.37126950320361300D-01 -1.16814232172220300D-01 -4.33430145058533900D-02 -5.25075668078914600D-02 -2.87097637956118200D-01
78 28  3.17136595337913800D-01 -3.00389573817957000D-02  2.98716773262662800D-02  2.00178108470040200D-01  1.76345772634968400D-01
78 29 -3.57620131283287300D-01  3.77951877984877800D-01 -1.58760975280839000D-01  1.31632791488603900D-01 -1.03301918699648500D-01
78 30  2.93620419800637900D-01  2.59972969310081100D-01 -1.59786084728159500D-01 -2.00887923507470200D-01 -8.80821997432118000D-02
78 31  2.11402319018364800D-01  9.70449122095216500D-02  2.39213531437320200D-01  1.78378726913640500D-01 -7.60616096196371800D-02
78 32  5.23128693326032600D-01 -1.30826253990379300D-03 -1.41117592416685300D-02 -3.21361827309412700D-01 -1.57912780691860400D-02
79  1 -7.39979745847919200D-02 -1.75580280866196800D-01  1.17384361618030200D+00 -1.50446440189698400D-01  1.68366228026906300D-02
79  2  1.69830241432329700D-01  1.60910145133024300D+00 -2.26817734018369400D-01 -9.65635959341418500D-01 -2.19579882945759100D-02
79  3 -8.18130334970127400D-02  1.03771021791589000D-01  1.63318061781718500D-01 -9.48026848456482700D-02 -1.36309222281446600D-01
79  4  2.20847177185563500D-01  4.39520678322705000D-01 -1.87097377911949200D+00 -6.47389513883690900D-02  3.77592495506279800D-02
79  5  1.26204447596426300D-01  1.19432165897554500D+00 -1.19059108663630500D+00  7.41559215830923100D-01  8.24452982614220000D-02
79  6  7.94549858743488900D-03 -9.03907968488573400D-02 -1.76703585851879300D-01  2.40648135436550900D-01  2.62038081644508900D-01
79  7  2.84223809686925300D-02  7.61874826912629400D-02 -5.34322365119793600D-01  4.38278845870809500D-02 -1.50295844539854500D-01
79  8 -4.23227693535931800D-02 -1.40913794351787200D+00  4.44246944938175600D-01 -1.83693900806741500D-01  1.67756670442162700D-01
79  9 -1.88300481027795100D-01  2.05438105856311300D-02 -2.85944770342133700D-02  1.76956553961232300D-01  8.34191930728390700D-02
79 10  7.39717727102632400D-02  7.07993165141738400D-02 -1.73236809414021300D+00 -3.30724600511791300D-01  2.47944602767074800D-01
79 11 -1.27729458902815000D-01  1.15285671841547700D+00 -6.50099863334398500D-01  1.84591626580328000D-01  7.88000627840691300D-02
79 12 -1.33217734302459100D-01  5.44176715183901000D-02 -1.20796330428725000D-01  1.12372796256660900D-01  3.38653801234141700D-02
79 13 -2.56449186377677400D-04 -1.67638790487364000D-02 -2.63698780911825400D-01  2.07261155423230500D-01 -8.31501032654706800D-02
79 14 -4.85871710630260800D-02 -1.42284427046580900D-01 -1.26849056636967300D+00  1.35607926290609400D-02 -6.35940406090852600D-02
79 15 -3.12401362845729800D-02  9.48341768936588100D-02 -1.34861211633508100D-01  1.48576748307522700D-01  7.22128717741203800D-02
79 16 -1.67516855348818900D-01 -2.95764774545077700D-01  2.58733685355501100D+00 -1.68587476089565200D-01  2.00620196046090700D-01
79 17  6.58931017274150700D-02  7.20238338443996000D-02 -7.62552466026417000D-01  1.22304570400413600D-01  8.71036946225203600D-03
79 18  1.32567198775860000D-01 -1.41277568238111300D-01 -3.33137786609147900D-01 -1.91413967152720300D-01  1.13938635021977000D-01
79 19 -7.46130709096595300D-04 -7.02467086269425200D-03 -5.44303752546028400D-02  2.43621573841831800D-01  2.49370743592316800D-01
79 20 -1.14980934846183300D-02  1.20255073601996100D-01 -7.37115479833105000D-01 -1.01501273173781100D-01 -5.63244931704361700D-03
79 21  2.85733140907682900D-01  9.52644294910616100D-02  5.00876188822138800D-01 -1.47221727505754900D-02  4.96978616655700300D-02
79 22 -3.49756889149948800D-02 -3.71081055344047900D-02  4.19293140666021500D-03  1.76196584742497600D-01  1.87716366374094200D-01
79 23 -9.90752668554112200D-02 -8.86410995186829300D-02  9.14469309376897800D-02  1.35544148018589600D-02 -4.57592859380676900D-01
79 24 -7.32961701059382800D-03 -3.08619706567177200D-02  9.53740787973320100D-02  4.60647716029039100D-02 -1.41192516451139400D-01
79 25 -6.99781318233442000D-02  1.74793447265091700D-01  3.11750809468076700D-02  3.40849044116283100D-01 -6.52374215521778100D-01
79 26 -1.74359694082398200D-01 -2.94552096810860600D-01  3.21386164843904200D-03 -3.49385921597495700D-02 -8.80318553729960800D-02
79 27  1.22970447532745500D-01  4.70633853748279000D-02 -5.71563328913051500D-02 -9.61615760249421400D-02  7.14390762545133600D-02
79 28 -9.16867739772432000D-02  2.02476977227298300D-02 -8.07685105227526200D-02  4.34178736740012600D-01  2.78478393936215000D-01
79 29  2.65756784483362900D-01  3.30396846667127500D-01  1.31543385230284000D-01 -6.94206661552524700D-02 -2.30840588476718200D-02
79 30  3.79947555562658600D-02  3.21200539615238300D-01 -5.30310048246577500D-02  1.96216229495728100D-01  1.66418294072658100D-01
79 31 -1.04843992922020200D-01 -2.43398758551321100D-01  1.26040738846800300D-01  4.68832765428619700D-03  1.06486789681713800D-01
79 32 -4.73369995825532600D-01  7.33630811310640000D-02 -1.95125170860405400D-01  1.68516048309231800D-01 -1.95487335756854200D-01
80  1 -7.03626373781464900D-02 -1.63215454076481000D-01 -1.55672101186277400D+00  1.80979017276530400D-01  9.23756419458259400D-02
80  2 -1.91416627207267200D-01 -3.84975074137823100D+00  3.79710611146629500D-01 -1.67471352428849000D-01  7.93510051501349100D-02
80  3 -1.02849944306988800D-01  2.34989391568529900D-02 -1.66689436939412600D-01  9.95686416964898700D-02 -2.63932220897800100D-01
80  4  2.87590066360840300D-01  5.16655671979012000D-01 -9.98211663218294400D-01  3.35823125037922000D-03 -1.51225622007066600D-01
80  5 -1.92373483332630100D-01 -3.10500974658939900D+00  3.31408287771545700D+00  4.23083638550538400D-01 -4.03170777094410500D-01
80  6  1.70783584461586500D-01  2.32387192632824900D-01 -2.49378186838371300D-01  1.06887905283499700D-01 -5.65079900421514700D-02
80  7 -1.16112483105770600D-01 -1.69067605534124500D-01  2.79135058682346000D+00 -1.61496997897271900D-01 -1.49351860851602500D-01
80  8 -3.52229726308088200D-02  1.67188628161753700D+00  2.03750674101906000D+00  1.99205534203174800D-01  3.34251449971138300D-01
80  9 -1.73955117395414900D-01 -1.60296332575722500D-01 -8.74254628780375800D-02 -1.47535136129684100D-01 -1.44773390835972700D-01
80 10 -8.29949216079952400D-02 -2.04699688725440600D-01  1.13521232312060800D+00 -1.49659548240585600D-01 -5.36883564237070100D-02
80 11  1.46577534000350000D-01  8.08166335762417900D-01 -6.96396508790153500D-01 -3.78325383245377500D-01 -1.43607149777081500D-02
80 12  9.68028993394230800D-02 -8.24421843617152400D-02 -3.17467505755218000D-01 -6.59858677484055400D-02 -1.35176882483801000D-01
80 13 -2.12438066924696800D-01 -5.02564625969731400D-01  7.97966946999784100D-01  1.84909678381500000D-01  1.48789931246024500D-01
80 14  7.12176862645511700D-02 -1.80333193993475200D-01 -1.40497174981782700D-01  6.68668971290893000D-02 -2.22271560392583000D-01
80 15  1.18877219691079300D-01  1.03394340701502700D-01 -2.67391081313530900D-01  7.73431836740354300D-02  6.14710661231912400D-02
80 16  1.16357461287535900D-01  2.71435077080635500D-01 -2.08124899039686300D+00 -1.65429011312836100D-01  5.40022694637482900D-02
80 17 -7.62422547855596200D-03  1.34664390021343800D-01 -1.02700816214943100D+00 -7.36708865360133200D-02  3.01883898335085500D-01
80 18 -9.53108772359826200D-02 -2.06573021099103900D-01 -1.77755990374421700D-01  1.73948040503331300D-01  6.60655654446845100D-03
80 19  2.24738558107521600D-02  3.91547315774460300D-02  4.72828027506813300D-02 -3.92645656198961900D-01  6.47894047667365900D-02
80 20  8.70835208124509000D-02 -2.05080430221166200D-02  5.25522304946415200D-01 -1.23363371826441800D-01  2.36321024123295400D-01
80 21  1.93437422505106800D-01  2.35165657648967700D-01  4.53386053217151600D-02  1.59010094155472800D-01  2.07973093954762100D-02
80 22 -1.79807403550948900D-01 -4.25102774429918600D-02  1.69482505735089500D-01 -1.51866276921004200D-01 -2.11757979961869000D-01
80 23  8.19971496347837000D-02  1.29760830327085300D-01 -2.51595878204066500D-01 -2.22045062316458700D-01 -2.01789050763078700D-01
80 24 -7.78125167110823300D-03  8.92820515191979600D-03  8.14455279481589800D-01  7.75881441554768800D-01 -2.50347113027726400D-01
80 25 -2.29286621929011100D-01 -4.15229553353375400D-02  2.53565797511118700D-01 -4.99592001801797500D-01  5.78742602354478200D-02
80 26 -3.02036081412926300D-01 -2.83582421423165800D-01 -3.60448031684704600D-01 -8.57622730554589200D-02  1.81970320279776100D-02
80 27  6.75652410274808400D-02  1.92144296407158100D-01  1.23798358331953100D-01 -1.29902721529660100D-01 -2.32809630758102000D-01
80 28  2.35446081239010900D-01 -2.63645048090881900D-03 -1.56846159095557000D-01 -9.69665660377332200D-02  2.30308150863202600D-01
80 29 -3.76083581430868200D-01 -6.88146617717446600D-01  1.27125965650660600D-01 -2.00307504233530500D-01 -1.35281527520838300D-01
80 30 -3.24814712381192900D-01 -1.05973181331820800D-01 -1.62576083920900400D-01 -1.53454711756150700D-01 -4.13969210740813800D-02
80 31  4.77539397037684200D-01 -6.36809288979610000D-01  1.57555596873770800D-01  9.25474830369410800D-02  5.30063687197179000D-02
80 32 -5.76172442335644600D-02  5.08355270103953800D-01 -2.67856714953881500D-01  2.65769821489676400D-02  1.22015501383506400D-01
81  1  1.73487323561214000D-01  3.59266208616791600D-01 -6.18545692876549600D-01  9.54909774329357600D-02  1.13520519816636600D-01
81  2  2.53037899313478900D-02  1.23381518305290400D+00  1.92001104869522500D+00  2.36523462993350400D-01 -5.60296648663593000D-02
81  3  2.00343719873540500D-01 -1.44314055007179500D-01  1.76917106790299500D-01  1.65809110375700100D-01  1.86902330084869100D-02
81  4  1.12944321578396100D-02 -8.67555635897739000D-02  2.58350638803986900D+00  4.64894854674650500D-01 -4.37558861350954600D-03
81  5  8.00014127045398500D-02  4.90642469189867400D-01  1.36523130333911300D-01 -4.06886922246861900D-01  1.64217538678185700D-01
81  6 -1.75224375215613500D-01  1.10068365374265500D-02 -4.39108952546929500D-02  5.62706523834486500D-02 -9.37065284294546100D-02
81  7 -1.50757702432110400D-02 -6.21960763475895500D-02 -1.27146802495143900D+00  2.17683323078439700D-01 -4.03528119199757500D-02
81  8  3.83300694741362800D-02 -3.50720929742615500D-01  2.72487584703947000D-01  1.49883745155598600D-01 -1.65553165290081800D-01
81  9  1.05554909749431900D-01  5.99982555406475400D-02 -1.20146539790323800D-01 -9.04291199536025700D-02 -6.64761419229927000D-02
81 10 -6.59396372656265600D-02 -1.21204241724800400D-01  1.32181070899465200D+00  2.02867574700404300D-01  5.17935441673401200D-02
81 11 -5.65910055485391400D-03  1.51811767312329200D-02  8.36838345353611900D-01  1.30502370732915800D-02  7.22959534779570600D-02
81 12 -6.01714795086486400D-02 -1.21244739693093400D-02  2.91929489363306200D-02 -1.60392035068930100D-01 -1.65450538603151300D-01
81 13  1.74365401633147900D-01  3.02800744192913700D-01 -4.11960809370263400D+00  9.69622499544438400D-02 -4.65761407828698500D-01
81 14 -5.07297898685647100D-03 -9.03198963130260600D-01 -1.98543562290215700D+00 -1.99029197474991800D-02  8.28505254918370800D-02
81 15 -2.20431901791882700D-01  1.37581376300047300D-01  2.02546366704222400D-01  5.78612385147811200D-02  2.02232522009315800D-01
81 16 -3.45523085545181200D-01 -5.84423062965446100D-01  5.95135109992381200D+00 -2.71171610024437400D-01 -2.44187927247811800D-01
81 17  8.87710414705578800D-03  1.41834110256803600D+00 -1.66802395435866600D+00 -2.82698943220408500D-02 -1.62392506851826100D-01
81 18  3.68787928607178000D-01 -2.06395421755350100D-01  3.99103824991664300D-02 -3.91900451481680100D-02  1.80432978372741000D-01
81 19  1.22928562416499800D-01  2.36663251519705100D-01 -9.89672418996291800D-01 -1.02668143569880400D+00  2.81920513125696900D-01
81 20 -5.37915798817344900D-02 -3.22961195406116500D-02 -7.84193374217837200D-01  5.66034503411101400D-01 -3.57578964665136300D-03
81 21 -1.40809201378513000D-01  6.33401270071861800D-01 -1.36415353011385300D-01  3.65214861357682000D-02 -1.24838394804091800D-01
81 22  8.83169086683247300D-02 -1.77219675495353000D-01  1.51827326328288400D-01  1.98863551801853600D-03 -3.84922486983085200D-02
81 23 -1.47056386747273300D-01  1.85548635445582400D-01  4.08596933614787200D-01 -2.45994238519166200D-01  1.37679914936579600D-01
81 24  2.83470978037543800D-01  5.50347601294728700D-01 -1.62647376310903600D+00 -6.73193138503153200D-01 -1.52165248776287600D-03
81 25 -1.80460203093110600D-01 -2.65486576294359900D-02  6.80436937937903500D-01  8.52166975327845600D-01  8.69603933434920100D-02
81 26  4.09169048170095700D-01  5.76282197806942700D-02  1.69397901274943900D-01  1.07107842237441600D-01 -1.12302572722178400D-01
81 27  5.19473048473632000D-03  2.72974774557822700D-01  5.81327199486290900D-02 -6.02534807726945800D-02 -2.18105791810647300D-01
81 28  8.89362405557103900D-02  1.29169551254937000D-01 -6.88453504361920700D-01 -1.68650229231148600D-01  7.49502994401182700D-02
81 29  1.58582696423145100D-01  4.97685725516234800D-01 -8.68054447902268100D-02  2.53730562257900800D-02 -4.70474765565365300D-02
81 30  1.20189887677735900D-02  2.02322466150615900D-01 -5.98241700078993400D-02  2.69826878187878000D-02 -2.22391346654527300D-01
81 31 -3.61249408681971500D-02 -5.30750716457843000D-01 -1.58832825437914700D-01  1.74320574350067600D-01  1.98514190096152300D-01
81 32 -1.43539533697140000D-01  1.96059507563518800D-01 -8.77257951652072500D-02  1.30268385623897400D-01 -1.66656771904642300D-01
82  1  1.15202594337258400D-01  1.39038894890288900D-01 -4.23246324592673300D+00  4.70508387626425600D-01 -3.79548787276429500D-01
82  2  6.91090810230822300D-02 -4.18261450592353900D+00 -7.71276191479362700D-01  8.44362203670038200D-02  2.07966671598501200D-01
82  3 -5.86832153752776400D-01  3.78865482154273300D-01 -2.93427440360584600D-01 -5.31158357274191200D-02 -2.50130111350625100D-02
82  4 -2.54911230139874800D-01 -5.00213508317461700D-01  9.11005001744326300D-01 -1.37424235194871100D-01 -2.02757653045470400D-01
82  5  1.77770140550826800D-01 -2.38776276538456400D+00  4.18531786343019600D+00 -3.87235311922258700D-01 -5.50026257451074200D-02
82  6 -1.97548412205460500D-02  7.47574669656536400D-02  3.78593413418601500D-01 -5.67701569176213600D-02 -1.59929828927758700D-02
82  7  2.40807391423980900D-01  4.32637009798783100D-01 -2.40779428466560600D+00 -6.31217791095383500D-02 -1.34975889525087400D-01
82  8  6.10074464328943400D-02  2.90557320312807100D+00  3.92993376006448300D+00  5.22467011565658800D-02 -2.28430563868936800D-01
82  9 -7.91452422270929100D-03  2.36345088091647400D-01  2.38145201774308600D-01  7.15219699318545800D-02 -7.31732895777358600D-02
82 10 -8.33036403716114300D-02 -1.75477546427676400D-01  2.73314952301994700D+00  8.06236346101629600D-02 -1.22643439486212800D-01
82 11 -1.10052653045299200D-01  4.73890588746866600D+00 -9.75010541154207700D-02  9.80929441915563600D-02 -2.92702964011542300D-01
82 12  3.65822194110239500D-01 -7.31192300986953400D-02  3.37451312650046700D-02  3.31162415865333500D-03 -3.14507036000996900D-02
82 13 -1.24964045220212300D-01 -2.33176407462842900D-01  1.46637833336629800D+00  3.06962563485349900D-01 -1.06828645163071000D-01
82 14 -6.96795358693301200D-02  1.03977580358893100D+00 -2.35945678082193700D+00 -1.81930644964608300D-02 -2.31516922975450000D-01
82 15  3.44131291930054700D-01 -1.12614368954607600D-01 -2.51944561437595000D-01  2.72505409766005400D-03 -2.04181358640465600D-01
82 16 -1.04262750621041900D-01 -1.68495714265544700D-01 -7.20874667796222900D-02  1.77250409520177000D-01  8.08979938485278000D-02
82 17 -1.95760156822022300D-02 -3.56881453986643900D-01 -1.93516153146757200D+00  1.06018389085894800D-01  2.90755562303526900D-01
82 18 -1.82752396188962900D-01 -1.08003166114563200D-01  2.32199710498496500D-01 -1.00983568606288700D-01 -1.64960490756870600D-01
82 19 -1.96555015380336500D-01 -3.63401240924160500D-01  1.97100799011077300D+00  1.00241268918195800D+00 -8.44799251856608600D-02
82 20 -2.41954518376890200D-01 -7.93658173871982100D-02  6.26470274703563800D-01 -8.95112240902156800D-01  1.10933005656892800D-01
82 21  6.13285547166328300D-01 -2.93755212485679400D-01 -1.26671077415896100D-01  1.27572086604480800D-02  2.69234963626778600D-01
82 22 -2.81992172287224300D-01 -6.33865348609818800D-02 -4.22787807086969200D-02 -2.50433106963422400D-02 -1.72213207440139600D-01
82 23  5.82133592015447500D-02  1.13999848238596900D-01 -2.60128301334768500D-01  1.43988326823420800D-01  7.33460468360684800D-02
82 24 -5.95613225452654600D-02 -8.75789682682495800D-02  3.45144175945126800D-02 -5.44018798178737000D-01  3.80350861464818800D-02
82 25  1.27016968720933300D-01 -3.23830600195618900D-02  1.20228710942072400D-01 -6.00707484210741000D-01  8.45727651217128400D-02
82 26  3.28983940797339000D-01 -5.04688117004664200D-01  1.87162566635556500D-01  8.85434872378842900D-02 -1.88553340202860100D-01
82 27  1.00009852964975600D-01 -3.22437679492715600D-02 -1.21326500476563600D-01  2.23287003130390300D-02 -1.64804177019316400D-01
82 28  4.48768655853337800D-01 -2.83964478834021400D-01  2.99130158745911100D-01  6.55694532841777100D-02 -9.22067139107718600D-02
82 29  4.04261409257435400D-01 -2.10974888380448800D-01 -2.12729772020426700D-01 -1.59119767298964300D-01 -1.18642722677809500D-01
82 30 -4.65873652168075500D-01 -2.66668383967583700D-02 -2.73824275124456300D-01 -2.61370034418545300D-01 -2.80841821405985700D-02
82 31  1.56454116595123500D-01 -4.40699265547109400D-01 -9.10754664655743400D-02  2.51860288535256700D-01 -9.15468234658800400D-02
82 32  8.74656805065727200D-02  4.86911929073940900D-01  1.80995433060940800D-01  2.40335791438376700D-01  3.80184525929974300D-02
83  1 -2.49671998176728400D-01 -4.60130444642793300D-01  2.99054514872934200D+00 -6.30094872622291700D-02 -2.65558630563548200D-01
83  2  1.31835091539972600D-01  3.57448475533031600D+00 -5.28536586797442800D-01 -1.99651999890521200D-01  2.30699544644597000D-01
83  3 -3.10526759773132700D-01  7.98272151285365900D-02  3.56915601897267000D-01  1.29872047348116200D-01  1.25623428394957700D-01
83  4  4.15782264455619800D-01  8.30713324501957600D-01 -2.69031641330116700D+00 -1.49219815632827400D-02  1.06427185858806300D-01
83  5  9.55188712529099200D-02  2.64703388782618400D+00 -3.86772552565839200D+00 -2.05844857196615400D-01  3.21698045786432900D-01
83  6 -4.25991672278418300D-01  1.04293626491984800D-01  1.72015917105011800D-01 -1.33810935043397200D-01 -1.95402608304811700D-01
83  7 -3.61713330491810000D-02 -7.66141532900496000D-02 -9.16133215141724100D-01 -2.23984843500378500D-01  2.47416263530972200D-02
83  8  1.35357546095327900D-01 -6.00000410289197000D-01 -1.49880399046343900D+00 -3.39940548382184000D-01 -2.01287583678097000D-01
83  9  1.72521829315003800D-01  2.87657543630924700D-02  6.20353658083060100D-02  1.96316057303140800D-01 -1.06996611027944600D-01
83 10 -1.18746194660581800D-01 -2.94362173367663200D-01 -2.30765868148928700D-01  1.79878578914614000D-02  1.21116962740421900D-01
83 11 -9.31085168352661800D-02 -1.01978100722609800D+00  1.77464048177984100D-01  4.36173794912509500D-01 -8.33197795401175700D-02
83 12  1.25491244011751400D-01 -4.21714644716337900D-02  1.93550659376803900D-02  1.94361312407113200D-01  6.55743310915359500D-02
83 13  3.59186412508713700D-02  4.07403544720556200D-02 -2.15696399997427300D+00 -1.07762572363446300D-02 -8.20549827848412000D-02
83 14  1.57021353519303900D-02  1.64384022674890000D-01 -5.70320842602128300D-01 -4.32577067778908000D-01  5.47274914342027400D-02
83 15 -5.16571399084226200D-02 -3.07035152577799300D-03 -1.66069492557565400D-01 -4.36300034876003700D-02 -4.03790814004413100D-01
83 16  9.26407626841060200D-03  7.58794219029200100D-02  2.08563897811264400D+00 -7.98902827066862200D-02  4.51219420757902900D-02
83 17 -8.80229678473056200D-02 -1.45340222525968300D-01 -5.98539990947507800D-01  5.58389445464839800D-01 -2.37422294769643500D-01
83 18  3.00353773465909700D-01 -6.29314786962668200D-02 -2.75176140662984000D-01  1.48080181606401300D-01 -2.48687637585545900D-01
83 19  7.23393731339932300D-02  1.67625656315863000D-01 -3.48591869286915900D-01  1.06477285883614000D+00  6.62317214060611800D-02
83 20 -1.47229024500697500D-01  3.24853498776514400D-02 -8.31698545658098000D-01 -1.69274717685154300D-01 -8.30356578748326600D-02
83 21 -5.12153671412990500D-02 -6.22894832587790000D-01  1.62854810510488200D-04 -8.56118777496414900D-02 -2.91247726292578400D-03
83 22  8.85243550125669900D-02 -5.73250254661997400D-03  1.10523422138404700D-01 -1.47625287154338300D-01  1.23993433954017300D-01
83 23  2.92062001563077600D-01 -4.16055435517095100D-01  3.19203286035822400D-01 -1.65576004984199400D-01  1.28170372683508000D-01
83 24 -1.10093980981709700D-01 -2.47319232174393600D-01  4.85787193221179800D-01 -4.57776236388837300D-01  9.80166664063406000D-02
83 25 -8.04797480449384600D-02 -1.57281880664903800D-01 -3.83247930844560500D-01  9.26429156205924000D-01  3.47706174339294600D-01
83 26 -3.29898834895633300D-02  1.60284616122067500D-01  4.56551301508885700D-02 -1.94809716789821300D-01  4.30399966055516900D-02
83 27  1.51769720184269300D-01  8.43209316833533300D-02  2.36759943803590900D-03 -7.12231300011188400D-02  4.18440481403083000D-01
83 28 -4.47785873108433500D-01  2.93453917053506900D-02 -4.40577656740323700D-01 -1.41421327662794400D-01  3.00770047287592100D-02
83 29 -1.73521407618216600D-02 -2.31871244630690200D-02 -3.19473678690967800D-02  2.17272106513867100D-01 -1.40709032020944400D-01
83 30  1.97812567236930700D-01 -3.27432748714811700D-01  1.41212341074190100D-01  3.69981169568971400D-02 -1.59778379222372800D-01
83 31  2.71624641695527900D-01  7.28104252599176100D-02  7.64457228721392900D-02  1.72769839226228400D-01 -2.03505070115503400D-02
83 32 -1.20194101251518400D-01 -1.83166880941631000D-01 -1.18191531583565900D-01 -2.23430543533495800D-02  8.15364456009810100D-02
84  1  9.91836513338786900D-02  1.30248398273913500D-01  2.69957551416269000D-01 -1.25990517489366700D-01 -1.50626955762449600D-01
84  2 -8.19319082566803100D-02  3.29771549886091300D+00 -8.43245756231370100D-01  5.12501628019859400D-01  8.78609400818760500D-02
84  3 -1.17900896164818100D-01  3.00399560829425000D-02  2.26430544817969000D-01 -9.75613035108522100D-02 -6.65890889354561600D-02
84  4  4.39349420532509400D-02  2.23481573887480100D-01 -8.59440703866118300D-01  1.52912183037801800D-01  2.36370362395748900D-02
84  5 -1.01319615819252600D-01  2.65279565806559900D+00 -1.51638589396925500D+00 -1.58309272980512000D-01  3.70360659624143600D-01
84  6 -4.87018497979126600D-02 -3.21658809826230900D-01  1.62474371099796600D-01 -4.20624415230257300D-02 -1.30034852691407900D-01
84  7 -8.62160528136428700D-03 -8.91917362657277400D-03 -1.51533769593772200D-02 -4.02142348098921300D-02 -1.87675799412173800D-01
84  8  2.13858814059843300D-02 -1.44506467218849700D+00 -8.19703549733532900D-01  2.94021234209174600D-01 -3.59457575606334400D-02
84  9 -4.24362326774261100D-02  7.83819902380599600D-02 -4.92665502512791400D-02 -4.46440098052427900D-02 -2.32504405653816500D-01
84 10 -1.55056576694331300D-02 -4.03721838170326400D-02 -3.94641552470667300D-01 -7.52488533765774300D-02 -1.96268504454004300D-01
84 11  3.52639999576206000D-02 -1.48490804457247500D+00  6.70611109935391700D-01 -2.91866161643525400D-01  8.77826090763576100D-02
84 12 -7.43598126956471100D-02 -1.34227963807095700D-02  5.93696155743771200D-02 -1.03349033267032700D-01 -1.58346072309423100D-01
84 13  1.94079367617020400D-01  4.30862961929669900D-01 -6.52017477771753700D-01  6.31917957762723700D-02  1.97043007059690400D-01
84 14 -3.67934282574434700D-02 -9.31033334194193700D-01  1.09741869179309300D+00  3.02283174131617800D-01  8.94382871395163300D-02
84 15 -6.79048621049924700D-02 -2.15334250345231000D-02 -7.82972959102078600D-02  1.98450173590605600D-02  8.88374296337286200D-02
84 16 -7.48870571901329900D-02 -1.79196871811440600D-01  1.25382607648104300D+00 -8.49337442094737200D-02  1.34391984742369300D-01
84 17  4.34542832020586400D-02  2.95392024954642200D-01  1.73291840257511000D+00 -3.75767362255286600D-01  1.01176055065135800D-01
84 18 -1.28591613222378400D-01  2.74155581572423100D-02 -1.17939385576563100D-01 -1.53064917493942000D-01 -3.53923931290997000D-02
84 19 -1.10268899421847300D-01 -2.36001273331501200D-01  6.31402971176407300D-01  7.82176500954357400D-01  2.52116006191407700D-01
84 20 -1.33662329405600100D-01 -1.56572355496867200D-01 -9.62944449874202900D-01 -6.46835427430199800D-02  2.24547683122064900D-01
84 21  3.81444828908368600D-01 -4.11717936507205200D-01 -3.36730602658217200D-01 -1.29949948283467800D-01  2.70223644143729700D-01
84 22 -1.40273695860261700D-01  3.41745962573309400D-03 -4.43398928045999100D-02  1.45107718648468700D-02  1.67781142303127000D-01
84 23 -3.09062833896396000D-01  1.41281691593269100D-01  2.34004090001347700D-01  5.61140370024808100D-02  1.31096451342573400D-01
84 24  3.12303669630056000D-02  3.10587141271310100D-02 -8.10496544955170300D-01 -1.03010715067699200D+00  2.75468235372008800D-01
84 25 -6.67855195032015400D-02 -9.21265415518403400D-02 -7.26625557566293700D-02  7.69005916372891300D-01  3.02949548753762800D-01
84 26  4.38236629662132500D-01 -2.58894972650072200D-01 -1.90146059387830800D-01 -2.41827424872564300D-01  1.10623683357984800D-01
84 27  1.31203741514580000D-01 -4.00119176402807800D-01  1.25156665838271400D-01  1.95586888539468900D-02  2.78383746791621000D-01
84 28 -3.11323897842298400D-01  3.29401510506773900D-02  3.14205605701726100D-01 -2.36871512491842200D-01 -1.79021125620744200D-02
84 29  2.50340251266239300D-01  2.05403922251950400D-01  8.20184514232034100D-02  1.06695075313934200D-01 -2.77537067016118200D-01
84 30 -7.48825609802344200D-02  7.97959880680041800D-01  1.88045145444167600D-01  7.80451804373823000D-02 -7.09211918538394200D-02
84 31  2.13289267251804000D-01 -1.88878488659995300D-01  2.08348514523849200D-01 -1.43075397020826400D-01 -8.37093917637452800D-02
84 32 -3.05033494373148900D-01 -4.14382292298286500D-01 -1.36994991719845000D-01  1.25928847302175400D-01  2.89869767673681800D-02
85  1  2.39203404044293400D-02  8.19148332744553100D-02  3.82257699049618800D-01  1.61664305558020900D-01 -5.15856143790050400D-02
85  2  2.50201094684797500D-02  8.67995121393814500D-01 -6.11728206384029400D-01  1.32586064691737300D-02  9.57401524171586100D-02
85  3 -1.33297636460638400D-01  3.75574840434805300D-02 -4.06720539873347400D-02  3.86535459815579900D-02 -1.13427860070077400D-01
85  4  2.23364582270275400D-02  1.16146756517226200D-01  1.16458075955446900D+00  1.01498789052327800D-02 -1.38105263111661700D-01
85  5 -1.38550305107288700D-01  1.06791534397104000D+00 -1.78768599340884000D+00 -1.18696660386255400D-01 -1.31835314764159100D-01
85  6  2.30859307265324500D-01 -9.90239925011655600D-02  4.26033947056003700D-01  2.01550971591417500D-02  9.09399872487940800D-02
85  7  3.02729199572421400D-01  5.11462467881312700D-01 -4.84920415891219400D+00  1.12898794105885100D-01  7.64550040704940800D-02
85  8 -1.33775554542514400D-01  8.49677771500422800D-01 -1.63333631474647100D+00  2.49478162386944500D-01  1.01761861763060600D-01
85  9 -3.32641669496831500D-01  2.30879807733769300D-01  6.66761777484874100D-02 -8.33621472918462900D-02  1.94638855217585500D-01
85 10 -2.69515893470602700D-01 -5.22617533926571800D-01  2.14034562028119800D+00  1.16884809494248900D-01  1.40536916923165300D-01
85 11  1.44263272309778100D-01  4.83627258894504900D-01  2.99632618298700700D+00 -2.60604509276647500D-01  3.20405212483837400D-01
85 12 -3.17902594257037300D-01 -2.50261822679926900D-03 -1.42039826947202000D-01 -1.16908020402226100D-01  2.11919528298963200D-01
85 13  1.99008224798233800D-01  2.99126978212089600D-01 -4.29588554608834700D+00  8.75743898094908700D-02  2.51078795625937300D-01
85 14 -6.59110887239702400D-02 -4.92277987511514400D-01 -2.46074803174296800D+00  1.97666829234434700D-01 -2.30482031447561000D-01
85 15 -8.53239159852608000D-02  3.15805947432823300D-01 -6.44225681332951900D-02 -2.00108617752803000D-01  5.87051203274927800D-02
85 16 -1.63833271400080200D-01 -2.76652538995984900D-01  4.07724274599585800D+00  1.15723104536670800D-01 -1.34971457403039600D-01
85 17  9.32681772991807900D-02 -8.76802976357187400D-01 -1.22875976766089700D+00 -2.16313378208952900D-01  1.90144263094725200D-01
85 18 -8.39104074774017400D-03 -1.81753222346984500D-01 -1.02933397270186800D-01  3.22580766973092800D-02  4.73922990606470500D-02
85 19  3.06238300508053900D-02  9.73026631924423800D-02  2.11975562720072000D-01  4.91091774115483600D-01 -6.70656170804226500D-02
85 20 -6.29183511079108600D-02 -1.98009660821687500D-02 -8.54266642068847600D-02 -1.77740515979124600D-01  1.28045583162479300D-02
85 21 -9.13381130713425400D-02 -1.85945860101734700D-01  1.67910623907533700D-01 -1.73011546415099600D-02 -8.26811750784949000D-02
85 22  9.99823297200063100D-02  5.31713348085670700D-02  1.48779320537178400D-01 -2.51877146056013400D-01  3.11111536436593100D-02
85 23  1.23318489734300000D-01 -1.54429643377957800D-01  6.63160074117573300D-02 -1.50547028234035300D-01  1.54266097831304700D-01
85 24  8.43900007711958700D-03 -1.11664448496237300D-02 -5.62842800567124700D-01  3.77062592630294600D-01  7.88885364543598600D-02
85 25  3.07857990113530400D-02  2.78140418592766000D-02  1.36139789950337900D-01  2.83486001668076000D-01  5.30871005491784000D-02
85 26 -5.06848309994232500D-01 -2.53563814839979900D-01 -1.31578036029603200D-01 -1.65013109849995100D-01 -1.27488880973321700D-02
85 27  1.77761997947326900D-01  6.68871671859664600D-02  2.92133782184294200D-01  7.71213747416044900D-02  1.29080293242320600D-01
85 28  1.46814682103983400D-01 -2.75894975346303900D-01  1.32176814249815400D-01 -2.91466896278878700D-01 -1.31108529238010200D-01
85 29  2.80282456732620900D-01 -3.87260601359333800D-01 -2.47831392183242300D-02 -1.47813164995007600D-01  1.92413044398008500D-01
85 30  7.44872670839531500D-01  9.28339038520423100D-01 -4.49860442299989900D-02  2.67851247277131300D-01  1.58847281663069300D-01
85 31  4.94585402605407600D-01 -5.41869024744206500D-01  9.38681396233642000D-02  2.48169528868390300D-01 -1.14767102656910500D-01
85 32 -6.00946799134226600D-01 -3.89877396836138400D-01 -3.54912667060206000D-03  2.70920173920501300D-01 -4.50273727675548100D-02
86  1 -4.90434304098411800D-02 -4.49281034325538300D-02 -2.88306795728096100D+00 -6.44448043718013500D-02 -8.48801579029111900D-02
86  2 -1.02197032762186500D-01  2.59945404022646600D+00  3.23246270957705200D+00  7.02877525722613400D-02 -1.69350223358125100D-01
86  3  1.96661435464395000D-01 -2.73112121062690700D-02  4.93825592113402300D-02 -4.33110305617628300D-02 -7.19093215131709500D-02
86  4 -4.60701544721560700D-03 -5.09008354340584300D-02  1.42480420747529600D+00 -5.19315472508834500D-01 -1.65373862794154200D-01
86  5 -2.59235839594249200D-02 -1.30016647253578600D+00 -3.48311315328511600D+00  2.86147129794231000D-01 -2.02525966363824600D-01
86  6  9.78228976116375800D-03  1.92743676602659000D-01 -4.29588836358907200D-01  7.65835478020992500D-02 -2.38278555101906900D-02
86  7  2.53786915451076100D-01  4.69288837756209200D-01 -5.20819908906046700D+00 -3.97989399702112900D-02  7.40018479309661600D-02
86  8 -1.88848329362571400D-04  1.81397599331547700D+00 -2.58991669193414000D+00  2.24082036733841000D-02  2.50497440781353600D-01
86  9 -1.75340555289752000D-01 -7.51568854916031100D-02 -5.29146048060074000D-02  1.05795879212063200D-01 -1.67003727956226000D-01
86 10 -2.20119966131253900D-01 -4.68950829753696000D-01  3.28710644332623400D+00  5.44655021507545900D-02 -2.92376383477171600D-01
86 11 -1.40572048139521700D-01 -1.23113737269754200D-01  4.14733291497429300D+00  1.03720111163887900D-01 -1.37796180004781600D-02
86 12 -4.59182517951474000D-02  5.96978697956248900D-02 -2.01840826051435100D-01 -4.97993871966134600D-02 -1.46727853834649100D-02
86 13  1.94711891756546500D-01  3.73338292589701900D-01 -5.22996110082857700D+00  1.07556849207293500D-01  1.03809251285679700D-01
86 14 -1.00139893171109400D-01 -2.47745723797905400D+00 -2.25019845579828100D+00  1.30444040704420700D-01 -2.24955342363825100D-01
86 15  2.11473529402465500D-01  1.34818129613627200D-02 -2.82261597488558000D-02 -1.83736462594279200D-02 -1.54371457288971600D-01
86 16 -2.56412295009493700D-01 -4.75765901763720300D-01  6.45232495974296000D+00 -3.64898499895139400D-03  6.44259697790456600D-02
86 17  2.22282621465391200D-02  3.09905328690216400D+00 -1.18415947875440500D+00 -2.42590443259465800D-02  1.45033520961642800D-01
86 18 -7.45180909554096200D-02 -7.05154300062342500D-02  2.30567032115816200D-01 -1.82700173002652900D-01 -3.14519511215884500D-02
86 19  8.27920093529996200D-02  1.63117886761501900D-01 -1.21797002063096700D+00 -6.75516986716568200D-03  1.21240313048370500D-01
86 20  2.18334228028918200D-01  5.42238071406082900D-02 -5.20772791082386900D-01 -3.14942742757125900D-01 -6.10971710844439900D-02
86 21 -1.47247403253321300D-02 -3.68514340363676700D-02  1.22869122214402700D-01  4.51708503818233700D-03 -2.03077593354542400D-01
86 22  1.98560508316362400D-01  3.93308800235215100D-02 -3.41559231888218000D-03  9.23134879454787200D-02 -5.61912892274612100D-02
86 23  4.88332654201624400D-01 -4.32141364974160600D-01  1.21013874477127300D-01  1.02437018462897900D-01 -1.43552406397572400D-01
86 24 -7.44183504362316000D-02 -7.92523434626138500D-02  1.57409885617197700D+00  6.84991523988073800D-01 -7.64056559510869200D-02
86 25 -1.63205805269754500D-01 -1.22454037141076300D-01 -7.86379582792080600D-01  2.29925038315224900D-02  1.79560199737554300D-01
86 26 -7.91880291481978800D-02 -2.07536955142060200D-01 -4.29591288873885400D-01  4.04145906336215300D-01 -8.79364814130566100D-02
86 27 -3.16209424923158500D-01  1.01335977718128300D-01 -5.75186632384023000D-02 -5.49500527670801600D-02 -2.45100979455578500D-01
86 28 -4.21851502192065800D-02  2.87286129674785000D-01  9.15581517339760600D-02  2.07103652232774200D-01  9.56362902950720400D-02
86 29 -2.58303928588299300D-01 -7.48090606899194900D-01 -1.44692748172767300D-02 -1.20879852764275200D-01 -2.07747851146034600D-01
86 30  5.82863612153696300D-01  1.42334774868828200D+00 -1.09379764333693700D-01 -1.13762137435713800D-01 -4.49138293508104000D-02
86 31 -1.81948521785227100D-01 -6.49483858997341800D-01  1.52541232453029500D-01  3.23378249990907300D-01 -1.81248141018168600D-01
86 32  3.17418003970154600D-01  7.78576197414628400D-01 -7.50482251967255300D-02  8.72360287455282400D-02 -1.73079335988327000D-01
87  1  7.26456747518586700D-02  7.91506194050238400D-02 -9.30395165685987900D-01 -2.76619111584606100D-01 -5.27036687661870500D-03
87  2  9.41670383359657400D-02  4.74403093111113200D+00  8.75201908239241700D-01  1.07986694685974800D-01  1.93925068975986900D-01
87  3 -1.69051562447826700D-01 -2.48735065281600900D-02  3.64066435474816700D-01 -1.31658621098777800D-01  1.95565473666587200D-01
87  4 -1.90884512916184800D-01 -4.09294214628609500D-01  9.53817559966548100D-02 -1.30002293724720800D-01  1.60236752880301200D-01
87  5 -1.30138788026172000D-01  6.68411099590890400D-01 -5.52428540434709300D+00  1.80249743371172700D-01  2.49664063297978400D-01
87  6 -2.19315531500511100D-01 -3.03485317974690700D-02 -4.40696185769884000D-01 -2.76236629385776800D-02 -2.28987331347773300D-02
87  7  2.07848267275985500D-01  3.92570871709666100D-01 -3.94148915340810600D+00  4.21783316793646800D-01  3.80530587521185000D-02
87  8 -1.42881546751201900D-02 -1.25199335068969900D+00 -2.69522063693943800D+00 -1.39876800322106600D-01  1.23814811549692400D-02
87  9  2.90380801942769800D-03 -1.52852891743970500D-02 -3.67262061719714600D-01 -6.83549616839172500D-02 -2.16723964822611400D-02
87 10 -7.63263577653032800D-02 -1.22760986122579300D-01  1.93200067016358700D+00  1.27761652977552200D-01  8.02040956690253200D-02
87 11  1.07036471016912100D-02 -1.40473663534401100D+00  5.75823957180862100D-01  1.22499142046323400D-01  6.51319420009558200D-02
87 12  1.11757570113587300D-01 -1.76889512114544600D-01 -8.55268310636908700D-02 -2.40268005799602400D-03 -6.33387107004139100D-02
87 13  8.40151430780989200D-02  5.17913186899332400D-02 -1.76770964708369100D+00  3.45029922080962100D-01 -7.86754620191673200D-02
87 14  4.97388326521218500D-02 -2.58671956648297700D+00  3.96504193984059200D-01 -2.58642909529634900D-01 -1.35313293176478900D-01
87 15 -1.84352120381681700D-01  3.19665413558163500D-01 -3.01731014784748200D-01 -1.04739401539542600D-01 -1.73424033553999200D-01
87 16 -4.14240785280051800D-02 -9.79568944339812700D-03  3.36502238523793900D+00 -5.53414929314996100D-02 -4.52474333805968700D-01
87 17 -3.78915892686204800D-02  2.39375192322675500D+00  1.92937935712316800D+00  1.37361875042929800D-01 -1.12271850293324900D-01
87 18  1.89181815068770800D-01 -7.69099647754466900D-02 -2.82760496612087100D-01  2.67589511817176700D-02 -2.85157838583816800D-01
87 19  1.73162172741624300D-01  3.90278789822158000D-01 -6.49955371166347600D-01  4.18513055518627100D-01 -7.32663226761884500D-02
87 20 -8.56770912055554800D-03  9.50939812286032000D-03 -4.95691670731385400D-01 -2.15691492672617900D-01 -1.44094542893651000D-01
87 21 -2.26682724383910200D-01  8.95265536647858700D-02 -1.05397117012327800D-01  3.03509649430513600D-02  2.31980095995653700D-01
87 22 -2.62331060938704700D-01 -4.61964402098743700D-02 -8.14879681085201200D-02 -5.63965359857396500D-02  2.35243971583994100D-02
87 23 -2.12614414575111300D-01  1.89090017416713400D-01  3.45766957637090300D-01  7.86891190071604300D-02  2.75772763354171800D-01
87 24 -2.08101222039202200D-01 -4.18010028097404100D-01  1.56883891444720900D+00  6.86187541374892400D-01 -2.05933689859963900D-02
87 25 -1.28652951250189900D-01  1.34638507165458300D-01 -1.00215678266576700D+00  6.54881388371355500D-01 -2.14577229221522900D-01
87 26  5.31840564288306500D-02 -2.45587040707424100D-01  1.30176273357057100D-01  2.17353089513904100D-01 -1.10213687843100400D-01
87 27 -1.07139401670803100D-01 -1.24184939297175700D-01  1.78332368709980600D-01  3.02282235737264400D-02  1.00538588460950900D-01
87 28 -2.03809571412921900D-01  1.03270982951971000D-01 -8.42889853160257000D-03 -2.45974301406469100D-01 -1.19114312995622400D-02
87 29 -2.31258061547930300D-02  5.37523039026834300D-02  3.17356923698756600D-01  1.05458656887981700D-01  8.16255150342308800D-02
87 30 -1.43085126581722800D-01 -3.07385803186919500D-01 -7.13502936035618600D-02 -1.94638741144315500D-01 -6.68117155971882500D-02
87 31  2.01601232318706500D-01 -4.86113879834960800D-01  2.09051816504496300D-01  1.70907389646877500D-01 -5.19972003544407100D-02
87 32 -9.30857331824511800D-02  2.29486811494471500D-01 -9.98930051446457500D-02 -1.52156743503704300D-01  1.48135004071476600D-01
88  1  1.12680233419247700D-01  2.58495118484958000D-01  3.15339005232617300D+00  1.94384130869075800D-02  3.13226713524408500D-01
88  2 -1.66623058587410300D-01  1.15948744600747600D-02  8.05238965038824100D-02  4.83123741881406600D-01  4.93538634295196900D-02
88  3  2.59714339088913600D-01 -3.09068202518432500D-01  2.52760052216897900D-01  1.56271609782021600D-01  2.76614622265113600D-02
88  4  4.92874930099611900D-02  1.16250727185856600D-01 -1.22966023244130400D+00 -2.24501735057417300D-02  1.70774699417271300D-01
88  5  4.56888061614988000D-02  9.13391008253355600D-01  7.30314357807999000D-01 -3.80641197888891000D-01 -1.31158251930260900D-01
88  6  5.00693762093572100D-02  8.10888757209043700D-02  1.85766378633778500D-01  9.75096686410295800D-02 -7.78264723725172400D-03
88  7 -2.54228849473333200D-01 -4.50455435833172300D-01  2.53305540030397200D+00  2.82342914668079000D-01 -7.99814160015896300D-02
88  8 -1.25263892518035400D-02 -6.82323816744209300D-01  4.10765232633514200D-01  2.66307459764646300D-01  3.72996027070387500D-01
88  9 -6.04101022854435200D-02 -3.12585924784944800D-01 -1.68770376770664600D-01 -1.72495514173081200D-01  7.41267543577987000D-02
88 10  6.31750755890342500D-02  6.09044217717466200D-02 -2.34295275055558400D+00 -2.24947723357802000D-02 -1.33345774836285800D-01
88 11 -1.38719232621440000D-02  7.64198177110999500D-01 -3.66029206218078900D-02 -1.29454754358760300D-01 -4.17104786940387500D-02
88 12 -2.37460260222118400D-01  2.79170738916158100D-01  1.90159748759340200D-01 -1.05430572170533900D-01 -1.70554262663818000D-01
88 13  6.20093850499501100D-02  2.00301684545620500D-01  3.19364009062042900D-01  7.22886707081216700D-02 -2.86134664389409700D-01
88 14  6.41861509486375300D-02 -2.44163295182597000D-01 -2.34982122118160700D+00  8.79180230114953900D-02  4.72756374413436600D-01
88 15 -1.53848141843192100D-01 -3.18908232570245400D-01  2.26204588760551900D-01 -2.35488831447992800D-02  1.70829551170170500D-03
88 16  3.84464920479901700D-02  5.43065531527408100D-02  5.23552156068931800D-01  9.45351352053504100D-02 -1.66073244257282300D-01
88 17 -3.93514819673974800D-03 -6.55333771785315600D-01 -2.02445786892967600D+00 -1.38441370338299600D-01 -2.72510219452881000D-01
88 18  8.20430854235809500D-02  1.90467134029301100D-01 -8.13113728326959300D-02  2.83542564712368200D-02  6.55051656797576800D-02
88 19  1.12267117678272100D-01  1.53895555921715700D-01 -1.27997348338230700D+00 -8.07142486809295000D-02 -8.78862246769288700D-02
88 20  3.97536395003345700D-02  9.86141569678112000D-02 -9.08154370716809500D-02  9.31056418060151000D-01 -2.33351031083576500D-01
88 21 -3.37428997147574500D-01 -2.26035275207548900D-01  2.45439303685687300D-03  7.72654788926115700D-02  1.95595094215931000D-02
88 22 -9.68249883142054400D-02 -2.95313176212216700D-01  1.23579514445340200D-01  2.05729804225920100D-01  1.78369737579849300D-01
88 23 -4.13049684712145900D-01  2.34679947132296000D-01  5.74405380265332300D-01 -1.25072015917022800D-01 -8.88012048482126800D-02
88 24 -2.95070689405474300D-02 -7.58639972739825300D-02 -1.15681400674220500D-01 -5.54433459448229500D-01 -1.53712188202739500D-01
88 25  1.61890895381415300D-01 -1.07657668916430600D-01  4.54639294942283100D-01 -2.62109676984326400D-01  2.04516043212479500D-01
88 26  8.36456621991294700D-02  1.31493517468930200D-01 -5.47295475565834900D-02 -1.07050899797490600D-01 -1.07850622992139500D-01
88 27  2.14901522789629600D-01 -1.04043885431477300D-01 -7.29891853052236100D-02 -2.53050051923390900D-02 -5.43005389781135600D-02
88 28  2.54754341165877800D-01 -2.00453802187764100D-01  1.88676897296623000D-01  1.04598984059194100D-01  1.08322854094973400D-02
88 29 -3.80760218523614500D-01 -2.30191157097004000D-01  3.62001812733957800D-01 -2.49730079006741500D-01  2.56276852038661600D-02
88 30  3.70656626775260500D-01  1.10990378173646800D-01  9.24619590542102200D-02  5.66441075228474600D-02 -1.14026949641329700D-01
88 31 -6.73867017816306600D-01 -1.30464584665593900D+00 -4.87505128167742300D-01 -1.86405568802143600D-01 -1.42548378176347500D-01
88 32  2.15181610732410400D-01  2.15468274246186800D-01  2.36619009630697600D-01  6.12871237555457800D-03 -6.18899889131962000D-02
89  1  1.04466209780879200D-01  2.05591346963449100D-01  1.27657272821848100D+00  2.03683594181795400D-02  2.12105750968944500D-01
89  2  1.31861705590433100D-02 -1.19300750809439200D+00 -2.23255307663250400D+00 -4.44196868498892900D-01  6.86806697340651700D-02
89  3  6.05259683026779400D-02 -1.29206638036741400D-01 -1.51941124135928100D-01  9.29429618393120900D-03  1.53823856992336600D-01
89  4 -1.58826130266423300D-01 -3.05533602079507300D-01  1.84461154415373700D+00 -2.13007160203703500D-02 -1.96234271158026400D-01
89  5 -1.33416573302082900D-01  3.47465465459397500D+00  3.49016037166373700D+00  2.43674347094481600D-01 -2.53387425023557300D-01
89  6  2.97794708699786500D-01 -4.44072836762283300D-02  8.39308111312085700D-02 -2.26637831728063000D-01  5.31472811221874800D-02
89  7 -2.93748635115048300D-01 -5.55490304991975300D-01  5.44430953431788500D+00 -1.24776868329817400D-01 -9.68893816260032000D-02
89  8  8.78200638231404500D-02 -3.16100256683907200D+00 -2.59659950355412400D-01 -5.80674828287291800D-01  2.48685335388720500D-01
89  9 -1.08364103973080700D-01 -1.40321231415638600D-01  6.62276944866896500D-02  1.95385232301354900D-01  2.00237980379857500D-01
89 10 -5.65215214004349900D-02 -2.05024410374837600D-01 -3.49193479650888000D+00 -1.05127273662990500D-01  1.83256948439386000D-02
89 11  1.05095582427025400D-02 -2.31186784557640900D+00 -2.05909590843438200D-01  4.59097648108632700D-01 -3.10894407587775000D-02
89 12 -2.14436818479690400D-01  2.45526259238469400D-01 -2.28581800385991900D-01  3.69291048060193900D-01  6.89557093176144500D-02
89 13 -1.26727693014139200D-01 -2.61613055266096000D-01  9.15255644841434800D-01  1.45888779394643300D-01  2.16164853856591500D-01
89 14  1.35611699689471400D-01 -4.23719187654309300D-01  1.40644271293121900D+00 -4.86041878679613100D-01 -1.85023445829600800D-01
89 15  2.19213916822539600D-01 -3.41904709929399100D-02 -3.26819113571815900D-01 -1.56466594778844600D-02 -3.12773183155918000D-01
89 16 -1.96398331038069700D-02 -1.19262311151042700D-01 -3.16120049597006800D+00  2.92061765773434200D-04  1.62610168317847200D-01
89 17 -7.55510649617578300D-02 -6.91551149818361400D-01  4.61734434048389300D-01  6.23223944460998600D-01  1.04718801403179000D-01
89 18 -1.57083821635596600D-01  5.23650202324177800D-02 -1.77046777272492400D-01  2.01284365746465500D-01 -1.59036492210191000D-01
89 19  7.80707620413475100D-02  1.54539635105873600D-01  8.43306718280408500D-02  1.40189137997515000D+00  1.31995739866819300D-01
89 20 -5.79040861031376800D-02 -6.28740511389508100D-02  2.17994774970990700D-02  3.10535728955664900D-01  1.73713536427917800D-01
89 21  4.06234341582961500D-01 -5.28096177441770100D-01 -1.81353372635723600D-01  4.81623671665421800D-03 -9.32721672601032800D-03
89 22  4.51098000935486500D-03 -7.83164688359366800D-03  1.47728086648456100D-02  9.14186842994872500D-02  1.89529590795394700D-02
89 23 -2.40185153187094100D-01  2.21232194107552200D-01 -1.30238629897445200D-02 -6.14710979708629500D-02 -5.80946942414909700D-02
89 24  3.51278996463438500D-01  6.97736338494549900D-01 -2.82545235019900700D+00 -2.66687306144680400D+00 -9.29040790271504900D-02
89 25 -1.43654503925216200D-01  1.72933261943122900D-01  1.00337079791717300D+00  2.52021693593188200D-01 -2.67492079558592500D-01
89 26  1.23260175341958900D+00  3.43664291985745900D-04  3.57295264893457000D-01  5.93856184056155600D-03 -1.11037731253554200D-01
89 27  1.05099169412993200D-01 -7.84228210991210500D-02 -7.99872837785449600D-02  1.38670711679028900D-01 -2.23739759071204900D-01
89 28  4.14981706192159600D-01 -1.91241947120954900D-01  2.90909395980787200D-01 -1.10852692996668800D-01 -2.89223096880023400D-01
89 29  9.32435973320309300D-02  8.70935449253287800D-01  1.64114526206096700D-02  3.79007074405879700D-02  3.55760628512914200D-02
89 30  5.45100121653134400D-01  4.06107680414974800D-01 -9.28774975428713900D-03  2.78326777196335500D-01 -9.85776872041380600D-02
89 31  3.47540070692509900D-01 -2.94807964306333400D-01  2.23328286935854400D-01 -6.42761750630351400D-02 -7.71959664119288400D-02
89 32  2.19178180236871800D-02 -1.71178883626054900D-01 -8.02519642188594500D-02 -1.49645096436656900D-02 -4.81264043089952800D-02
90  1 -5.65390825622557500D-01 -1.08747003043157500D+00 -8.21076631951822500D-01 -7.63888638940734100D-04 -4.80927095216241100D-01
90  2 -9.50725389342333600D-02  1.50813853379705400D-01 -9.44528815151794900D-01  9.58100347688164200D-02  2.84564351168497500D-01
90  3 -3.14838999646835300D-01  3.02746484783380500D-02  2.04067975004798200D-01 -3.57881913103298300D-02 -3.73235666146269600D-02
90  4  3.02364968190596800D-01  5.74933572881774500D-01 -2.29963876821523800D-01  1.90442770355403000D-01  1.38134472281145500D-01
90  5 -2.89080153139412600D-03  2.41991922957527300D-01 -2.66676804092997000D-01  2.18173902103340700D-02  3.68484752482805600D-01
90  6 -2.90477130939582300D-01 -7.80076215432229400D-02  1.65094103151931500D-01  6.45188241918750500D-02  8.40327602707157000D-02
90  7 -7.99460746239411400D-02 -1.48092071318138300D-01  6.66664876923825900D-01 -1.64352130706803600D-01  2.13500734840528100D-01
90  8  1.22997579415741800D-02 -9.00456862998923200D-02 -8.04803992929555600D-01 -2.44862884882453600D-03  9.61398050890728600D-03
90  9 -1.18565116455308500D-02  2.24253113662378800D-03  3.61414232703226000D-01 -6.08381402300603000D-02  3.58167380874058500D-02
90 10  1.49052827841888300D-01  2.44357053017815100D-01 -2.06722540375268800D+00 -9.96978337819678600D-03 -1.09157772659144600D-01
90 11  3.10923573317800700D-02  2.51421870668549300D-01  2.97826001512583400D-01 -4.74272357057369600D-02 -1.56376431383051800D-01
90 12 -3.76098640107408500D-02  1.93986295393793000D-01  1.71615954795472500D-01 -3.80855772823792900D-03 -1.16800811678622400D-01
90 13  3.75179185024412300D-02  1.17159454463246900D-01  4.48163568576042400D-01  1.80468955920363000D-01  5.95228890149422400D-02
90 14  2.44085672665801300D-02 -3.46091015651638900D-01 -1.35148123024230300D+00 -1.01859018133901300D-01  3.49992351384723500D-01
90 15 -2.56021126176220200D-01 -9.39712252085045100D-02 -2.59766144919165700D-01  1.69278026121984000D-02 -1.47364026631660100D-01
90 16 -3.16071453882683700D-03 -7.11678389182560400D-03  9.10347024514384800D-01 -1.90753175597389300D-01 -7.90276084847482000D-02
90 17 -4.24156599515815300D-02  4.03924367793367000D-01 -3.00272178076931000D-01  1.78784389851882600D-01  2.16321995827487600D-01
90 18 -1.95623628617105400D-01 -2.06983672103819400D-02 -1.69762634079041700D-01  2.54376635960626700D-02 -1.59725958057285100D-01
90 19 -2.99906482433841700D-01 -5.46425635259241000D-01  1.98520086649087600D+00 -1.12529283284454800D-01 -5.39496126643160800D-02
90 20  1.05065626961468300D-01 -2.04139680276116800D-01 -1.00880108572859500D-02 -1.45583166672617200D+00  4.32644967785238700D-01
90 21 -3.81306913135153700D-01  3.73579559960418100D-01 -5.49495949910122100D-01 -4.37875479534407800D-02 -3.06108476632808200D-02
90 22  7.43983956167210600D-02 -3.14442427576059000D-02  1.42472917966337100D-02  7.84473532338162400D-02 -3.75404455261781100D-01
90 23  6.98717705423202000D-01 -3.23313250161420800D-01  1.50522772442974800D-01 -3.57073702972033400D-02  3.99708706031926200D-03
90 24  1.92728113199122400D-01  3.90908679063520400D-01 -1.10479938146303700D+00  1.10412710851345200D+00  4.44920889792603700D-02
90 25  8.44936831558876800D-02  2.06009483762606600D-01  2.83122126561943700D-01  2.83519042151697000D-01 -4.49240855665775600D-01
90 26 -6.14776206677511300D-01 -8.02081048759726200D-02  4.58844616997632300D-01 -7.09134558852942200D-04  4.63648701615747500D-02
90 27 -4.56557356027222600D-02  7.00396326284974800D-02 -7.32593124131661900D-03 -2.45796802552381600D-02 -3.12205196036059300D-03
90 28 -1.03242053801794500D-01  1.06364105762155200D-01 -4.19493498111466900D-01 -1.88638799482221100D-02  2.00853473692834600D-02
90 29  2.72970534480606800D-01 -7.79140629994599100D-01 -1.40703791714346700D-01  2.50109418711437800D-02 -3.02647902266066500D-02
90 30  3.44074287634898700D-01  3.02627855208171900D-01  1.00904709692652500D-01 -1.69221820263450700D-02 -6.75341732430122200D-02
90 31 -2.76005653086162600D-01 -5.90934123262334600D-01  7.49658059486821200D-02 -1.09119902396036400D-01 -7.02596327741968600D-02
90 32 -2.01638113869846200D-01  2.89499844483931600D-01 -4.70564633293146700D-02  2.00516971368364600D-01  1.83137034676300000D-02
91  1  2.79111993359499000D-01  5.68093982065605500D-01  3.40730529924957500D+00 -1.06103686381553000D-01  5.48873115614602400D-01
91  2 -7.59130012658730000D-02  2.26729737961945000D+00  6.12036879265646900D+00 -9.09776283565643500D-02  8.52523934137346500D-03
91  3  3.72467090890352600D-01 -3.80992330231726100D-01 -2.20305435539608200D-01 -4.56846650420863100D-02 -1.16340962754590400D-01
91  4  8.50726397605798100D-02  1.18986137515711600D-01 -1.93329034784290300D+00 -2.18317241205786600D-02 -2.24499937414829300D-02
91  5  9.03805056106095000D-03 -2.99790031308028400D+00 -3.90259279171609300D+00  2.34124120818298900D-01 -2.65216027989989800D-01
91  6  3.34164546547116400D-02  2.31799573335275800D-01  1.74701040106112500D-01  9.56788054754736100D-02  8.28534859623793100D-02
91  7  1.47069448162216500D-01  2.58729475428401100D-01 -5.21504915184359200D+00 -1.82198665542930300D-01 -1.83018188094555600D-01
91  8 -1.16641238086746400D-03  2.28685230882821600D+00  5.99365970132732300D-01 -1.22416726155083100D-01 -1.64536067863986600D-01
91  9  7.85429794558107900D-02  8.59930884081720900D-02  3.93596188517875900D-01  3.78871837833673300D-02  1.06986973012543900D-02
91 10 -1.61491251951998100D-02 -3.65358327328622500D-02  1.43942354375467200D+00 -3.28951654754969100D-02 -4.92283044241653000D-02
91 11  5.02371121252627600D-02  2.93856855762519000D+00  6.64056375384804800D-01  2.89759804417269100D-02 -3.20633787339482000D-01
91 12  1.85976865036480000D-01  1.34656922302999200D-01  2.23051602100862600D-01 -2.08386243604216600D-02  6.78080898588681500D-02
91 13 -1.61276686905408900D-01 -2.79193860989644900D-01  1.03016346033892800D+00  1.25235095834738800D-01  5.83844497877539000D-02
91 14 -2.34257599292994900D-02  3.56504217499433700D-01 -1.87416581964891800D+00  4.16377323654451900D-03  5.60941186346899700D-02
91 15  1.22695072422604500D-01 -1.78789191057292400D-01 -1.81556833909415500D-01 -6.59150149498237700D-02  6.08235059035724700D-02
91 16 -1.81735120947929500D-01 -3.60641810625150900D-01  4.09571450727830200D+00 -9.36503331719791000D-02  1.10176333246455600D-01
91 17 -1.26090548418414800D-02  1.71363011430618200D+00 -7.98633562634196000D-01 -3.24205631835388700D-03  2.02977134634373600D-01
91 18 -2.18741042258246100D-01  1.57639076238733800D-02 -1.64662553904557500D-01  4.53811878363261300D-02 -7.45738596775226700D-03
91 19  7.95971573527367500D-01  1.53374609767261900D+00 -5.76735566700421200D+00 -2.71151479055187500D+00 -3.34701819575363600D-02
91 20 -1.73747276535013300D-01 -1.42321138786915600D-01 -1.18639634966466400D-01  2.69793090064116400D+00  3.78336099247910100D-01
91 21 -5.37612912432218800D-02  7.12316393847967400D-01 -3.32078123405813200D-01 -1.33553878914727900D-01 -1.00857444620462000D-01
91 22  2.34411323535191100D-01 -3.94044649809248400D-02 -5.51723489521415000D-03 -6.05091554151428200D-02  5.15951394319595400D-01
91 23 -4.77543317266525500D-01 -3.84080770530681200D-02 -5.09777033974629600D-02 -6.87589640032890900D-03 -6.35988551742593400D-02
91 24 -3.14796022969272300D-01 -5.87090453516864600D-01  3.04923579940034500D+00  1.56501974310779800D+00  7.31532481641223200D-02
91 25 -9.55546005260486500D-02  1.53943946747917100D-01 -9.66672416295941000D-01 -1.83100769641219500D-01 -4.02037560468766400D-01
91 26 -3.74692832373551700D-01 -1.14899473933701200D-01  2.67308511772100000D-01 -7.28189873335999500D-02  1.79487989710658400D-01
91 27 -1.06669002377058600D-01  5.82113373106463100D-02  4.99593855498301400D-02 -1.10687800120472800D-02 -5.60608798677877200D-02
91 28 -2.55885395327837900D-01  3.11946275195625500D-01  1.62724509438633100D-02  5.64235199090035200D-02  7.30023260679040600D-02
91 29  2.25262800644626900D-01 -3.44006486897819500D-01 -3.35821633777310200D-01 -7.80029423950962900D-02  1.33018311273156700D-02
91 30  1.59719948069567100D-03  1.60669302818308000D-01 -4.04002695456498800D-02 -1.02232680419881600D-02  1.21679326800886500D-02
91 31 -1.32900387539108900D-01 -3.74777852740673000D-01  1.87428507074579700D-02  6.45178839141773200D-02  9.16509563370877200D-04
91 32 -1.38734201550907200D-01  7.99024750402602000D-01 -5.93292313788535300D-02  9.95144522015818100D-02  8.11862346688634600D-02
92  1  1.96288459152292500D-02 -5.00809765201047600D-03 -2.30708144553808000D+00  6.33738857109982400D-04  5.33923191589251800D-02
92  2  1.75895889518985000D-01 -1.46928394002737300D+00  2.65086794562928100D+00  2.28415241128745600D-01  1.13639675831832200D-01
92  3 -9.74617334064227200D-02 -1.61779424254077100D-02 -2.47647840469102600D-01 -1.49418872474989000D-01  1.48598292253163400D-01
92  4  3.20820254838282200D-01  6.80330817917331700D-01  1.56742465322900100D+00  3.92177977750135700D-01  5.61148996311317100D-02
92  5  3.99972871958805700D-02 -2.60085009196312200D+00  2.24852866401258400D+00 -2.51041380539776400D-01  1.77868757914051200D-02
92  6  4.45555624037740600D-02 -6.23424381951799100D-02  1.16622116071302900D-01 -1.05218491043470400D-01 -8.98325927953365600D-02
92  7  6.46524843928896600D-02  1.38298956981367000D-01  7.05324489829353700D-02  8.87190841455149000D-02 -1.04534139378388100D-02
92  8  4.83119875180976400D-03  1.25753353997503100D+00  6.96156219259264300D-01 -2.67625002770317000D-02  1.05234607355555300D-01
92  9 -2.29748154999298700D-01  1.24513547643741700D-01  1.64840649628316500D-01 -3.37680320692385200D-02 -5.78781185557073300D-02
92 10  3.70014142068630900D-02  1.24898906725091100D-01  1.44410838982479000D+00 -1.30363063915887500D-01 -1.03469775441545700D-01
92 11 -8.01474320945219900D-02  1.62111895057145900D-01  7.57432132158573100D-01  2.05283774372514100D-01 -4.23743403191553800D-03
92 12  1.16724690450239600D-01 -1.12487256418325600D-01  1.47159169230213400D-01 -9.07224184478873500D-02  8.93183093667608400D-03
92 13  2.81720667797358500D-01  5.50781570696731600D-01 -3.83943328648040900D+00 -2.10934487084973900D-01 -2.51833907056126500D-02
92 14 -4.55679603100823300D-02 -2.49431770192984100D-02 -9.19139122784118700D-01 -1.93772510079831200D-01 -1.51849273256345500D-01
92 15  4.38909293165654500D-02  1.07958343939781300D-01  9.34779492080878000D-02 -1.29111700243777500D-01 -1.59838249422408600D-01
92 16 -3.24778485762632400D-01 -6.70814618414197300D-01  3.30765149979584900D+00  8.44197266189598700D-02  4.83488811085603000D-02
92 17  6.75474756382996500D-03  1.18554885635794200D+00 -1.95255701813743600D+00  9.38181936399664600D-02  2.46860203480992700D-01
92 18 -8.44939772187436600D-02 -1.62366226262248100D-01 -9.41956655933239000D-02 -1.73949800541932300D-01 -2.54522287898542500D-01
92 19  2.07322029549269500D-01  4.16779656286029600D-01 -1.22620144056389000D+00 -9.95896002572951400D-01  7.14336264685582800D-02
92 20  1.15867739059508400D-01 -2.68118113914723800D-02  1.30667744071900900D-01  1.71788289454866800D-02 -1.14544955041434900D-01
92 21 -1.06843334550038400D-01  6.88093636438419000D-01 -1.04979454164247600D-01  2.20181597133326700D-01 -3.11866555978653700D-02
92 22 -1.88994941535460800D-01 -1.06357367012717600D-01 -1.59798163796347700D-01 -1.28997925617712600D-01 -2.47218727719867300D-01
92 23  9.23391593978672900D-04  2.46295336125889300D-01  1.37188245126711700D-01  1.97382095287967800D-01  3.29304552365643200D-01
92 24  9.85350451640125800D-02  1.74903445803104700D-01 -3.92148075833269800D-01  4.02608004661414900D-01 -1.44870103094437700D-01
92 25  7.21562624951878500D-02 -4.11852444957731900D-02  1.08033123851883800D+00 -2.79513832725457000D-01  1.84804626529848800D-01
92 26 -2.92605789559196400D-01 -2.42049262129283900D-01  1.61674178880587400D-02 -1.18020179582681800D-01 -1.67959334217931200D-01
92 27  2.85979513800612800D-01  9.95067740362458100D-03 -1.84048419859224300D-03 -4.73632025508251300D-02 -5.20360887248793300D-01
92 28  5.18249564527123100D-01  2.11132272167023500D-03 -7.10147149064713400D-02 -1.46755470709332800D-01 -6.18174072803803000D-02
92 29 -1.31295949456503300D-01 -2.46400224423204000D-02 -8.10093847688643100D-02 -2.52865211704565200D-01  8.15196188877720400D-02
92 30 -1.31918707311756500D-01  2.96888927269920200D-01  1.91885722393321100D-01 -1.32314000395178500D-01 -5.99310635667891000D-02
92 31 -5.02586485136560400D-02  6.62825238353855700D-01 -3.50403832569641700D-02 -5.80223337647846100D-02 -4.99363130197906600D-02
92 32  1.14116502699876500D-01  4.61019553071199600D-01  1.89476160449725800D-05 -3.54394222554977700D-02 -1.43351525165824400D-02
93  1 -7.19109307375565400D-02 -1.38280956172371500D-01 -4.15799619479101400D+00  2.81947408391476600D-03 -1.54207658855708500D-01
93  2  5.59048874139578600D-02  5.12913079529679900D-01  4.89148038600120000D-01 -3.58499637618019900D-01 -1.24431242505800100D-01
93  3  2.64920083458004700D-02  9.79392341600017500D-02 -1.52069350976284800D-01  1.66685814337227200D-02 -2.42982583108857200D-02
93  4 -7.89406703154717200D-02 -1.66004633861235600D-01  5.67008666337605600D+00  3.29751330448996000D-01  4.69046524399220600D-01
93  5 -9.11918500414015900D-03  8.22983974291816000D-01 -2.37214247344520500D-01  2.55765880296934600D-01  1.36645987464876100D-01
93  6  2.19756168640316000D-01 -3.56402156105193500D-01  4.56717168485127400D-01  5.88818587411043700D-02  6.87999332571386400D-02
93  7 -6.09048813546205200D-02 -1.30591631128765600D-01 -1.80453212381830400D-01  6.96143021248836900D-02 -2.04251634728128000D-01
93  8 -3.61764131521539600D-03 -1.13448481020072100D-01 -1.36992168807124900D+00  7.49388776040507300D-02 -4.60810186544835700D-02
93  9  1.27537200940941000D-02  3.33272985603905000D-02  2.79728407137434700D-01 -2.05301905734322400D-01  2.30759406640140600D-02
93 10  3.30524013938109200D-03  3.57674413989588100D-02  8.20755945025639600D-01 -1.84253097069572600D-02  1.09383925170321800D-02
93 11  5.22787176327666200D-02 -1.40122612156139800D+00  4.92312269029402100D-02 -6.97245585609925400D-02 -1.30402323988685000D-01
93 12  1.55597373163550000D-01 -2.51950491748661300D-02  1.35407584169866800D-01 -3.99789031534780800D-02 -3.14705905020373400D-01
93 13  1.57207668450198100D-01  3.52618119529449200D-01 -5.26025165480997800D-01  1.20217949777410600D-01  9.26448967228436800D-02
93 14  7.82408545906967700D-02 -9.43594757084181600D-01  1.45731237456728200D+00 -9.51853936003351600D-02 -8.04581958858504700D-02
93 15 -9.98978879127083600D-03  9.04479846771202700D-02 -3.08137466095998900D-02  8.82302266371447100D-02  3.38210984061635700D-02
93 16 -8.38453717991145100D-02 -2.09665864190137500D-01 -7.24174542786467400D-02  2.70980257247023200D-01 -5.27111398363076000D-02
93 17 -3.69272483277086500D-03  1.87242057434160900D+00  1.21673452557241200D+00  5.75160242807966900D-02  1.33850620234397600D-01
93 18 -2.00542925556887200D-01  6.66923053224885800D-02  4.43942518409468100D-01  1.01716611249944500D-01 -3.46620151021846100D-02
93 19  1.13577259212985100D-01  2.81390922111881100D-01 -2.97910325791355000D-01  2.60579528024832300D+00  3.53074192049670800D-02
93 20  1.60434920830323000D-01  4.81395941738067700D-02 -1.11282175249467200D-01 -9.84071398587620300D-01 -4.65770651579854100D-02
93 21  1.33684848704658200D+00 -7.61090708882015000D-01  3.01686638326161300D-01  9.26567611324650100D-03 -2.17661394735622300D-01
93 22  2.08395718622377400D-01  1.17019179844059600D-01  2.36966383034189300D-02  4.80565024191496900D-02 -1.50065854138029200D-01
93 23  5.86415404992370700D-01 -4.36349550854340900D-01 -3.72007244823009000D-01 -4.65512158429295700D-02 -1.36518864331237300D-01
93 24  8.86202742597080900D-02  1.12385214148013500D-01 -1.39298214840584200D+00 -3.38180364361569200D+00 -1.50055687909157600D-01
93 25 -2.08429927539351100D-02 -4.98122394794387300D-02  1.71305098705831600D+00  8.48592512214863400D-01  1.44990244329030900D-02
93 26  1.30335116480212000D+00 -4.34230323062097300D-01 -2.32389393362536800D-01 -5.09096160033687600D-02  9.08821514701511900D-02
93 27 -3.99725354667810300D-02 -4.00086522048434700D-02 -8.48531117814833700D-02 -1.37252683819338300D-02 -5.16848718926918200D-01
93 28  9.11611167563532200D-02  4.25687602170565700D-01 -2.23150514821710300D-01  1.64027921025097000D-01  5.96442183414830000D-02
93 29  1.72870243140865200D-01 -5.99119709014348000D-01  2.46135550878591500D-02 -2.36734096232976900D-02  7.01326108815913000D-02
93 30 -1.68810925140169700D-01 -9.78024145445213600D-02  1.35854538417748300D-01 -1.67841278882855900D-01 -2.70877481007536200D-01
93 31  1.14314722732023300D-01  1.91370904725962800D-01  1.38028768709059000D-01 -2.61210999734100900D-02  9.04264767100318200D-02
93 32  3.41776557573441200D-01  8.63348544690961900D-01  3.68127753470954700D-01 -1.34886584500138700D-01  1.01891447642741400D-01
94  1 -1.65204864725153800D-01 -2.65900390369113100D-01  4.29416146078196600D+00 -1.65061615954646700D-01  2.21561869885478100D-03
94  2 -1.25081440763244000D-01  3.13167938325019700D-01 -9.67699997169039300D-01 -1.81387816429885100D-01  3.44464237227798300D-01
94  3 -7.22649574151549000D-02 -2.72199279812643700D-01  2.22839864395645300D-01  5.09072735140711100D-02  5.19884553549422400D-02
94  4  3.38399117836827600D-01  6.00219764399082300D-01 -3.90829644983120200D+00  1.50175770334584800D-01  2.93186405826822100D-01
94  5 -8.10666976100652100D-02  1.86650229081646200D+00  2.05143686753006200D+00  2.77360825520411700D-01  2.03228435607226700D-01
94  6 -3.13070968593403700D-01  1.09842532986178000D-01  3.28547813559669800D-01 -4.21420820582145800D-02  6.57285207411009800D-02
94  7 -2.22651576314120000D-01 -4.16729126565630500D-01  3.69343998579570200D+00 -2.79077831916048000D-01  1.11624996000563500D-01
94  8 -5.68253876658984800D-03 -2.78435428289617700D+00  2.85366749681054800D+00  1.03569783510955100D-01 -1.74255593946407800D-01
94  9  3.15952634234223900D-01 -1.41697040287817900D-01  6.56094205357955500D-01  3.97153274238811000D-02 -1.11265709822362800D-01
94 10 -1.72152106467967900D-01 -3.40075660467926900D-01 -1.50918357806645000D+00 -3.37754606453534800D-01 -2.50759657948971000D-01
94 11  1.95239456602592900D-02  3.88590021089270800D-01 -3.03095493854378100D+00 -7.47382255997890800D-02 -4.89460945696627500D-01
94 12  6.67122224967644100D-01 -1.77661279271015300D-01 -2.32044502949018800D-01 -1.32422741400481200D-01  3.70181987331725000D-02
94 13  5.09083634994591100D-02  1.25905136386722400D-01  2.27551680302531800D+00 -1.46971890771702200D-02  1.24822832139795300D-01
94 14  8.18417651732223300D-03  2.10733277813857900D+00  1.19183601708742600D+00  1.32255991174159000D-01 -3.83682229693150300D-01
94 15  3.08389473656044800D-01  7.52927560371050200D-02 -2.86046509176255000D-01 -2.41846823093459500D-01 -3.08940430726894300D-02
94 16 -8.90923579305124700D-02 -2.26087137232909200D-01 -1.58488331894729400D+00 -1.46208457986234100D-01  1.84518536559501000D-02
94 17  9.01567176389687400D-05 -2.64843436763031100D+00  1.31591469533172100D+00 -3.98875302213932300D-02  2.51630881737170200D-01
94 18 -2.86540425209228500D-01  3.49095434720598100D-02 -4.77707101443498400D-01  2.61771523441335800D-01  7.54272544414689600D-02
94 19  8.63342684412168300D-02  1.59395611673723300D-01 -4.49596970203897300D-01 -9.22159212095550000D-01 -1.09880916494107800D-01
94 20 -6.22749498657554300D-02  5.03462286617539600D-02  2.35963042631391500D-02  6.02923373104491200D-01 -7.21464172283599900D-02
94 21 -3.83935291381281900D-01  3.38055449393607900D-01  2.36276599009690700D-01 -1.43588376835253000D-02  5.05275616887720500D-03
94 22  9.30608151464700300D-03 -4.57643784414415500D-02  3.56937864580000600D-02  1.54329790080799600D-01 -3.96063261543721400D-02
94 23 -9.42706772476266200D-02  1.33877003401996900D-01  9.94941635447061500D-02 -1.10920203579399700D-04 -1.94710740785500100D-01
94 24  1.76925896020389900D-01  3.53448457871613200D-01 -1.25847149178147900D+00 -2.04903019908412700D-01 -1.11005342274522800D-02
94 25  1.57891151932560800D-01  3.17862636637447500D-02  5.86704802127671800D-01 -1.06816290566709300D-01 -4.57186294185128000D-02
94 26 -1.42095802961618200D-01  2.61979869431871500D-01 -2.17437165879712700D-01  6.42814469889034400D-02 -4.86824205050663000D-02
94 27 -1.55990264838374500D-02 -6.37528452187498800D-02 -1.22576683595235300D-01  1.13065360207522300D-01 -2.91245838944628900D-01
94 28  1.51257445100321400D-01  1.39988393844307500D-01 -4.59663708919093300D-02  1.65736263511588200D-01 -1.53799883593595800D-01
94 29  9.15009523596162500D-01  1.55752203326762600D+00 -3.88164996822278400D-01  1.34970777241317500D-01 -2.19141626864420400D-01
94 30 -8.14732257825571500D-01 -1.57924968263320300D+00 -1.86458068379525400D-01 -4.22901463969614200D-01  5.58040401137008200D-03
94 31  3.92624309080976100D-01  1.12561146107112200D+00  1.32911853421021500D-01  1.87217272034783500D-01 -3.15614797596217700D-01
94 32 -7.22428753229058300D-01 -1.47274671628652700D+00 -2.59473373128302000D-01  1.78553631675415800D-01  8.94858447390902600D-02
95  1 -1.83842532664158900D-01 -3.20742693502852800D-01  3.54511695847198500D+00 -9.95264493349448400D-02 -1.29976474279703500D-01
95  2  2.33666186926820300D-01  2.99429739404876100D-01 -9.50105702056319500D-01 -5.80922876343122600D-01  2.05650441670030100D-01
95  3 -3.81672172955475500D-02 -1.67483224374484100D-01  4.22708096446577700D-03 -2.04191318861641500D-01  1.24025357002568500D-01
95  4  1.10115655077209100D-01  1.63883481369059400D-01 -3.96707869437502100D+00  7.37779463274642900D-04 -4.55169120734799300D-02
95  5 -1.24848163981489900D-01  6.63390269559528700D-01  4.08454313237821300D-02  3.74465186043265500D-01 -6.77014860553377000D-02
95  6 -1.88746164500020800D-01  2.56447650555359500D-01 -3.48456455531248500D-02 -2.54569971443331700D-01  4.29483998557734400D-02
95  7 -4.55440763792325900D-02 -5.60758314367746700D-02  7.71514479767055600D-01 -4.89688531661359000D-02 -1.20893770202786000D-02
95  8  2.19529301653703700D-02 -6.18475508175739800D-01  1.40895119295608300D+00 -7.25422010999685600D-03 -1.84785547022094600D-01
95  9  2.87485207640935800D-01 -1.02699660618841000D-01  1.00939054226144200D-02 -2.26839037669374100D-01 -8.26110301447885000D-02
95 10  3.57131983169944700D-02 -3.30576833457271700D-02 -2.43123792739223400D+00  7.63622116673217800D-02  9.87744126902913900D-02
95 11 -4.29226302417027100D-03  1.44679917572976000D+00 -3.32839677160272900D-01  9.98797623123441800D-02 -1.23380933644424900D-01
95 12 -2.00932006396430400D-01  3.24312940040856700D-01  1.58819071423323200D-01 -1.07137601385711300D-01 -3.94470324540201700D-01
95 13 -2.32934460594592600D-01 -4.11544829204735700D-01  3.75252833317165900D+00  1.30719699247014000D-01  5.35841756429003600D-02
95 14  6.99875719158969000D-02  7.23513296315587700D-01 -6.57054086084283000D-01 -2.44987025992957200D-01  2.47378907774151900D-01
95 15 -3.10134959884910400D-02 -2.16365411785662000D-01 -2.59810862839298900D-01  1.68255084354583800D-01  1.43415771893695400D-01
95 16  9.71975938814370500D-02  1.30677744345393800D-01 -1.74586541264447200D+00  3.12162447774995200D-02 -1.15639122209478800D-01
95 17  8.70845346830244300D-03 -1.38876921822321000D+00  6.07426879571218800D-01  1.49638473184841500D-01 -1.24661969104642200D-01
95 18 -5.62270423455715100D-02  1.80889011450214300D-01 -2.88402052307460500D-01 -4.33978401955322700D-02 -4.43087115125551200D-03
95 19  3.51587255248385700D-02  9.17079895188661200D-02 -4.05913761799427300D-02 -1.03639119933037400D+00 -3.33964177013279600D-02
95 20 -1.03120667513166800D-01  5.82217211323331800D-02  8.26639114467433400D-02  3.19918096755487100D-01 -1.81538946596217100D-01
95 21 -5.24913009009200000D-01  4.19185409406170100D-01  5.63103726239420800D-01 -4.40295260152687500D-02  2.98650005259773100D-02
95 22  1.41645254892905800D-02  3.16256826569360300D-03 -3.24966564639020900D-01 -4.77438660830623900D-02 -2.70732439712306800D-02
95 23 -2.64265108846961600D-02  5.34997548559261100D-02  3.45177995835436800D-02  3.91039374393815900D-01  4.64259200366665300D-02
95 24  2.65730457558436500D-02  8.07103031700911500D-02  2.15227766346273000D-01  1.24842513322707300D+00  9.72155078727239600D-02
95 25 -1.96811668091615600D-02 -1.19947251183557600D-01 -6.54437270077649500D-01 -1.85165070936275200D-01  3.33797672388281300D-01
95 26 -5.30385379168016500D-01  2.76219198009945000D-01 -5.47092051872928800D-01 -9.52289928323969600D-02  3.70439185156083400D-02
95 27  5.81850743167881600D-02  8.24231203828840600D-02 -1.72961538207010600D-01  2.56884400088983200D-01  2.55375972342013200D-01
95 28 -9.12517450432624900D-02 -1.64124227298750500D-01 -6.85692336138748900D-02  9.71078384887446600D-02 -3.58614593968127900D-01
95 29  1.78371993402146800D-01  4.60076179664258600D-01  2.13884495182093400D-02  6.35444266511596700D-02  8.46052065107223600D-02
95 30  4.56544364083931600D-01  3.38053703826698700D-01 -1.00415388885353900D-02  3.09825079167409000D-01 -3.80007498184989400D-01
95 31 -2.02506176476956300D-01 -5.66357113088275200D-01  7.29557288212894200D-04 -1.22651502697515700D-01  2.77714729336273800D-01
95 32 -1.53919616595396200D-01 -3.70929660261344300D-01 -1.06850204919411300D-02 -2.24815372422134700D-02 -4.79459545778539000D-02
96  1  1.02525148797327400D-01  2.29011559153415400D-01  6.85994837447544400D-01 -2.18900409855969300D-02  1.19058119610044900D-04
96  2  6.64727237555251800D-02  2.78618528355440400D+00  2.22989461931621500D+00 -9.14561420537041700D-01 -6.63726155414988600D-03
96  3  3.60130813621066700D-02 -2.93758198079565800D-02 -1.45645062107581800D-01 -8.83133485119328600D-02 -6.16533956835400900D-02
96  4  1.24732425722776100D-01  2.64297469622894500D-01  1.56188316686529600D+00  2.79915715231314000D-01  1.49402159620458000D-01
96  5 -8.44622698634078100D-02  1.35765741365488500D+00 -2.64032455565821300D+00  1.02753679637903900D+00  7.42788286917113600D-02
96  6 -8.27429699789463300D-02  8.46414128723408300D-03  2.43526330567533000D-01  1.41951359695509100D-03  1.29695556051587000D-01
96  7  3.49021772307469000D-01  7.44263699603108800D-01 -3.39638565877593300D+00  3.66612307647662300D-01 -2.52303379706355500D-01
96  8  2.63851285629477300D-02  9.75949441662538200D-01 -1.64887856619163900D+00 -4.85660511584851600D-01  3.04380649492181200D-01
96  9 -1.14585182486925300D-01 -1.89795467005256700D-01 -4.70675002885605600D-01  2.03995545989297300D-01  1.58967013820092900D-03
96 10 -2.49056482533558300D-01 -4.86759684543387400D-01  3.10965847524222900D+00  9.16451323397161600D-02 -2.02485366156092800D-01
96 11  1.81952748669477000D-02 -1.75649737163017700D-01  1.24381227851181400D+00  2.83580392326843900D-01  2.03591826295147100D-03
96 12  1.09093747066102100D-01 -1.11129665329053500D-01 -1.41707145402654400D-01  1.80483131491256800D-01  1.25478505771860600D-01
96 13  7.50815406482298300D-02  1.86416850861154800D-01 -1.88256319855295300D+00 -2.38596001240524700D-01  1.96341338519545800D-02
96 14  5.69265087832828500D-02 -1.02685997595223200D+00 -1.40884226936060300D-01 -2.42994442664802800D-01 -8.94652350153238200D-02
96 15  2.07426901692696300D-01 -1.17961666677370600D-01  4.79954946964466200D-03 -6.32690685595155700D-04 -4.64215052564898500D-02
96 16 -2.76656471185701700D-01 -5.81452948798844200D-01  2.89685784155003200D+00  2.07595821113846200D-01  4.34624337026077000D-03
96 17 -1.31691099492853300D-02  2.43313433185954600D+00 -2.37780834833172500D-02  3.09563369783766100D-01  5.65487603499388100D-03
96 18 -1.20641633789318800D-01  1.14986757754324600D-01  1.66406125412592200D-01  1.84400240693427200D-01 -4.89867307351612900D-02
96 19  2.09045241943139900D-04 -2.74853612276278400D-02 -6.01739018363473700D-01 -2.32859564370739100D+00  1.63142522640815400D-01
96 20 -1.36373447731247000D-03 -1.51359517035993600D-01 -5.34063202003924700D-01  5.75367188382407000D-01  4.54693890623111100D-01
96 21 -3.46647024924205000D-01  8.12205761912156400D-01  5.31359842628859600D-02 -5.76778253016536600D-02  1.49472383308330700D-02
96 22  4.27305869708222100D-02 -1.49414296950348700D-02 -2.31458469701106200D-03  1.19654791789693900D-02  1.34772048687717100D-01
96 23 -1.93778591277245000D-01  5.90065425895298300D-02  1.39681201757003800D-01 -2.04171713579068800D-02 -2.01193589420170800D-01
96 24  2.58428900926702300D-01  4.77734808422041500D-01 -1.58926052589180900D+00  9.06950710496199800D-01  1.15126053801236700D-02
96 25 -1.03861099568807100D-01  6.16421883450957400D-02  4.67272695804481000D-01  8.62885753472749800D-01 -3.32055171135724700D-01
96 26 -6.78910098312933000D-01  2.01252523381456000D-01 -1.69453777140494600D-01 -1.53223436922353600D-01  2.59784346158452400D-02
96 27  1.27245002306508600D-01 -1.52958983816635600D-01 -1.08728437636571800D-01 -3.70985002334080400D-02  1.79423624826002200D-01
96 28 -9.84956296873080500D-02 -8.09279951386943600D-02 -1.55946325153291800D-01  3.16301822080054200D-01  1.51764699139844300D-01
96 29 -6.90220317925986000D-01 -7.62988928876976700D-01  5.56162234787026800D-01 -3.09202322765910800D-01 -3.74565154320301200D-02
96 30 -1.97418394877903600D-01 -5.04967681116088400D-02 -1.08480433809975300D-01 -2.64770053980176700D-01  2.44380492509951700D-02
96 31 -1.24738968815533100D-01 -1.57678920736879200D-01 -9.92259402825082200D-02  5.40174648418179700D-02  5.78448993530315500D-03
96 32  2.78692871772272000D-01  1.43613783360161600D+00  3.76233863151670800D-01 -1.14922716070051600D-01  1.41427271986669900D-01
97  1  1.13931202859040700D-01  1.65715901716704600D-01 -5.34234121127400500D+00 -9.70931460112805400D-02 -4.36015012584683600D-01
97  2  2.90790567818761600D-02  7.12862261541484200D-01  2.07255564583073000D+00 -4.38583121875657700D-01  1.80886279623012300D-01
97  3 -4.24237183970085500D-01  2.43350904347074400D-01  4.79706618703639900D-02 -1.17950488156865400D-01 -1.76929152764219200D-02
97  4 -9.81483019808385300D-02 -1.68903014894274200D-01  4.95357072977827500D+00  2.30815380038660900D-02  3.29846555736772400D-02
97  5 -1.23253672301517400D-01 -2.18420255282141800D+00 -1.97406858892691700D+00  5.15542894676319000D-01  1.02410322934781800D-01
97  6 -1.51999763282624900D-01  4.95894403478410500D-02  5.09839163676763400D-02  2.48067914355452500D-02  2.71424771714101200D-01
97  7  2.19378839665095300D-01  3.87062034370074900D-01 -4.17372099761888100D+00 -1.58798960439890600D-01  1.69012667296790200D-01
97  8 -1.03568338835511300D-01  3.17202304133883300D+00 -2.71712386973408900D+00  9.05703416453663800D-02 -3.37539668998655900D-01
97  9  7.15678285897467400D-02  2.65971840408910000D-01  7.96004186060473600D-02 -1.14420434398799600D-01  2.24036879918113900D-01
97 10 -3.03162446096768100D-01 -5.43574148126743700D-01  6.60663640377176000D+00  3.64928968117889800D-01 -1.85272478228717400D-01
97 11  1.29816082301294300D-01 -2.11875239586485000D+00  2.56929495291886300D+00 -2.54321623131429300D-01 -1.10025185994730900D-01
97 12  3.07803145490860700D-01 -1.97777959496131900D-01  2.99391388879882500D-01  2.45141297309733500D-02 -6.20084128441838100D-02
97 13  2.12506498702539100D-01  3.63031164640107900D-01 -6.35028354648004600D+00 -1.92222858323028900D-02 -3.76493454155610300D-01
97 14 -2.56620966864718900D-04 -2.85356424432554400D+00  2.43241662906080500D-01  1.78809299992675600D-01  2.25065681009216800D-01
97 15 -2.69365095539327000D-01  4.42994145301135000D-02 -1.70338694923261700D-01 -1.20467236941009000D-02  2.51935846382799700D-02
97 16 -3.77786600819369400D-02  4.80848022158790500D-02  4.24520239652775600D+00 -4.22770622065786900D-01  2.11716817483381000D-01
97 17  7.92536475282858600D-02  2.72445040945135800D+00 -1.49785503770047800D+00 -7.14265445826521400D-02  2.73355843946998200D-01
97 18  1.20136549200948700D-01 -3.93492393147949100D-01 -4.63280914419273500D-01 -6.21565835041990600D-03  4.17067662328930800D-02
97 19 -7.68652710553067400D-02 -1.24927374114821900D-01  5.68557646875160400D-01  9.14829818959237300D-01  3.91413540293124900D-02
97 20 -5.13758916493823300D-02 -1.16400465811359400D-02 -1.08129457826959100D-01 -9.12611443241565600D-01  7.54840589713023400D-02
97 21 -6.97345678271360500D-03 -5.01203309668681200D-01  2.37339829815058800D-01 -8.36699829879128700D-02  2.06155772313926700D-01
97 22 -1.22485789326011600D-01 -5.05613165576943200D-02 -7.01736921946530300D-02  9.83230091815466400D-02 -8.85078745809250900D-02
97 23  2.47974410880212100D-01 -1.59466536299284300D-01  1.76425080599497400D-01  6.86693631911919600D-02 -1.66943343944024900D-01
97 24 -1.53706413015349800D-01 -3.13029429105803200D-01  1.01645381551833700D+00 -8.53364950221066800D-01 -1.78159302435215900D-02
97 25 -1.59337908901720800D-01  1.17967380222370700D-01  1.71374730345569900D-01  5.19534082272257300D-01 -3.15377558649386000D-01
97 26  5.57610395436412100D-01 -7.33167630349947100D-02 -1.45698257978549000D-01  1.19998159852060500D-01 -9.91317789380230000D-02
97 27 -2.08663809140372600D-02  4.34295401166120600D-02 -8.67379144672146100D-02  1.21313353546003800D-01 -2.31795954188727000D-01
97 28  8.69065862801056400D-02  1.44889367908621300D-01 -2.39956678749514200D-01  2.41232558980824400D-01 -1.00184183685321900D-01
97 29 -3.50519531260790700D-01 -1.00824752042181800D+00 -1.67800549938458200D-01  1.90096923830631100D-01  1.53059183399840300D-01
97 30 -3.29120466702952700D-01  6.47112538368412300D-02  2.76095466769669600D-01 -3.23595844190699500D-01  3.12140670069144600D-02
97 31  4.92316801681896700D-02 -4.24589797222220500D-01  1.94614323427701000D-01 -2.00305614135034800D-01 -1.06475891255459400D-01
97 32 -4.80326242360674500D-01  7.46339077345317200D-01 -4.63535948663587000D-01  4.03669660367715400D-01 -9.98626397510259100D-02
98  1  1.28083349592431200D-01  2.19030913290937800D-01 -2.49788422987627000D-01 -4.12171043085807100D-02  4.94354350178100300D-02
98  2  4.23763813508014900D-02  6.30569426951766100D-01  1.26656681003257600D+00  1.49358769495055200D-01  1.75304093363739100D-01
98  3 -2.91260679101791400D-01  1.15956585738053200D-01 -1.09402961812875600D-01  2.08945195129107300D-01  5.82926769848677200D-02
98  4 -3.47716991188097400D-02  1.17449701990931100D-02  2.37129047612284100D+00  5.47608639672574800D-02 -1.04920954996474600D-01
98  5  1.07060371236179800D-01 -5.90116834353305300D-03 -1.36788434220956500D+00 -4.92661575257334000D-01  1.23773705718131000D-01
98  6  3.41109037156096800D-02 -1.57884609433741600D-01  2.68486469495909900D-01  5.75128527174621600D-02 -7.45954874378677400D-02
98  7  2.30185306816969000D-01  4.14919414142589200D-01 -2.68769978719183800D+00  1.52798194498521800D-01  8.18562569624505400D-02
98  8 -1.00574601563966700D-02 -7.07513069590841300D-01 -2.51637229751588800D+00  1.38197759926125700D-01 -2.26312828797433700D-01
98  9 -6.19610981728087100D-02  2.88273926970242600D-01  3.55471638874195000D-01 -1.63466264797646800D-01  1.65702525258112100D-01
98 10  3.35365014874570900D-02  1.26824567050124700D-01 -1.95577771044181800D-01  2.20105863665618700D-01 -5.91919582610396700D-01
98 11 -1.87861729424412700D-03 -8.83320226732390000D-01  1.45572545428563500D+00 -5.04229056118885200D-02 -4.42116909849342900D-01
98 12  7.19571114723062100D-01 -2.77454204873720400D-01  2.56152705939159700D-01  3.19235003810701800D-02 -1.08354944461182800D-01
98 13 -1.10753006341338300D-01 -2.18775423977108800D-01  3.87429787896873900D-01  2.29133216427062200D-01  3.76598976702754900D-01
98 14  1.05925563788066800D-01 -7.32159921829277500D-01  4.73089264175559700D-01 -1.42463166815864400D-01 -1.63613887041660700D-01
98 15  2.74809231567358200D-01 -1.11195344525696700D-01 -8.33948240688425400D-01  1.29348644806752700D-01  2.34661798119280400D-02
98 16 -7.97052300362600900D-02 -1.53238109842777600D-01  6.72489860267840000D-01 -1.07306392636763900D-01  2.07712227027048900D-01
98 17 -2.58602836903535300D-02  1.08136738191529600D+00  1.32573818339004500D+00  3.99072597863541800D-02  4.09942325296953000D-01
98 18 -3.90376115632528300D-01 -1.95662096644248900D-02 -4.90143764518750400D-01  6.58849528628964700D-02  3.06521144515679900D-02
98 19  2.73971467984788000D-02  3.70430067359287200D-02 -1.17079317314059600D-01 -1.66847086453786500D+00 -1.64766071325861000D-02
98 20 -1.52828387016031000D-01  1.90103296033464500D-01  9.73484485915121500D-02  4.36040069051965400D-01 -3.95332002486702000D-01
98 21 -3.18017591316017600D-02  7.83577776389586100D-01  2.32811184035788300D-01 -8.05324115169030900D-02  8.84215267159581300D-02
98 22 -7.88911519905496700D-03 -9.09473418041418200D-02  1.61868976834428600D-01  6.39218491534154600D-02  1.31787176492863600D-01
98 23 -2.44412788356051000D-01  1.12625611863187500D-01 -6.92307120874776800D-02 -2.52999627579479900D-01 -3.03930609309140200D-02
98 24 -3.58270751610076000D-02 -1.09313799514574600D-01 -3.82062721200814400D-01  1.00638151200938000D+00  6.96683786001259000D-02
98 25  2.81716208441611000D-02 -1.33898027996436900D-01  1.02855400259889400D-01  1.35822050235027400D-01  2.61523921038271000D-01
98 26 -5.12815412586678000D-01 -3.42583197661218800D-01  4.45184079250440300D-02  3.06550964629315500D-02 -4.79928252845967200D-02
98 27  1.73377288216663400D-02 -2.35275934520671700D-01 -1.12542323235066900D-02 -1.42252772213272100D-01 -1.13592677590665000D-01
98 28  1.68997971550528900D-01 -5.54052939598639300D-02  2.21215609748545000D-01 -5.18008148304726800D-02  1.50786289049869800D-01
98 29  2.13160515293432100D-01  2.02511063470589600D-01 -1.59934174630472200D-01  3.07310207726527200D-01  1.90945709939269000D-01
98 30 -3.25607975628910500D-01  4.59178766533333700D-01  7.68311340792970900D-02 -4.76500950034246200D-01 -3.49767722349894300D-02
98 31  4.43518894370054800D-01 -1.39609663006233800D-01  4.55369814647907400D-01  2.01098730464542600D-01  1.57763697809907800D-01
98 32 -4.06622339099812000D-01  2.09720135132810800D-01 -2.21260150981449500D-01  5.48590502723025800D-02  3.24596447224918100D-02
99  1  9.37341706321646900D-02  1.40060408540501600D-01 -9.57900421109445300D-01 -8.00541455921910500D-02 -1.97242377027365200D-01
99  2  6.92775396516029700D-02 -1.73762760315357100D+00 -8.24884167061059900D-01  1.16312114937702500D-02 -9.54552251071839900D-03
99  3 -1.39855727453860200D-01  1.49401249964578400D-01 -5.49079275472462400D-02  7.25265727837442200D-02  1.59467122535503300D-01
99  4  9.95278005917005100D-02  1.73492067448965900D-01  4.72641488882183000D-01  2.58293705546503800D-01 -3.11669766213892700D-01
99  5  4.90413621740692300D-02 -1.09905019388694200D+00  1.47771191973540200D+00 -2.69978485500378200D-01 -5.83894695318297000D-02
99  6  2.06022104169081600D-01 -1.47632634637251700D-01 -3.07457592776282200D-01 -9.53103645387740800D-02 -2.39970283151089500D-02
99  7 -1.30498382668997200D-01 -2.22652360714338300D-01  2.58276868239075200D+00 -3.32403902299488500D-02 -2.82752050231718200D-01
99  8 -1.18955841723197100D-03 -2.92630321858610900D-01  7.27907181815331800D-01  1.72513653763337900D-01  6.41442606316615200D-01
99  9 -5.24122634401753400D-01 -1.17319971914860800D-01 -1.60493571168395000D-01  7.59203565162471100D-02 -6.01443082781480300D-02
99 10  7.76183798724491600D-02  1.11695688858392300D-01 -2.52934104136841600D+00 -1.70439286806306600D-01  6.19863188176549400D-02
99 11 -2.41499472855545900D-02  2.63605535602436700D-01 -2.08993997566955100D+00  2.53705839339062500D-02  3.70098245715547400D-01
99 12 -4.87952135849327300D-01  1.17853890133780300D-01 -1.60807976924336200D-01 -1.80536279540726200D-01  2.25462783303337000D-01
99 13 -2.75875849913957100D-01 -5.35965319134149600D-01  2.91723105622072600D+00 -9.56772585146859200D-02  1.94981677409825900D-01
99 14  4.29613904652040700D-02  1.74038637053763500D+00  5.33551419996815000D-01 -7.15175007611083300D-02  2.76921858085536500D-01
99 15 -3.69200589236119600D-02 -2.40001799161926100D-01  3.49615274060145500D-01 -2.77773483738147000D-01  4.38785843303984100D-02
99 16  6.80153894312980300D-02  6.07430731713502700D-02 -2.61857176148748700D+00  2.06246241380746400D-01  1.22310046955627500D-01
99 17  3.41228202379827300D-03 -1.35920481030353600D+00 -3.73923669968872000D-01 -4.41877171619794900D-02 -1.08169153196856400D-01
99 18 -2.08872293940246700D-01  3.17041447137103300D-01  4.16325916189811200D-01  2.13701574130250900D-01  3.18268362164091700D-02
99 19 -2.94964197516359900D-02 -1.97446152064856100D-02  6.66336949899492900D-01  8.00266728481620700D-01 -1.81556915385237500D-01
99 20 -4.57534311128861000D-02  9.77870243129722200D-02  4.65807547550868000D-01 -5.46092281470335300D-01 -3.02620936274225800D-01
99 21 -5.98306206102178600D-02  9.27031178932408400D-02  2.82895256415806300D-01 -2.01771130725887600D-01  1.68421964977486000D-01
99 22  3.33491657484002000D-02 -2.07475785743905800D-01  1.87326151429103100D-02  9.16186540360871900D-03  1.69912022701701600D-01
99 23 -1.41172578889378300D-01 -2.87394438123243700D-02  1.02990349538067400D-01 -9.62540843167123000D-03  8.41597763161318300D-02
99 24  1.37377488602213500D-01  2.99531606387955800D-01 -2.90029794379307000D-01  5.79662622970913300D-02 -6.65211408653062100D-02
99 25 -2.75191266880210300D-01 -6.45332101382730100D-02  1.54317432429179900D-01  4.20945594414348000D-01  2.16842632128244500D-01
99 26  2.34453637369642600D-01 -6.05325496135487900D-01 -9.55818711895197500D-02  3.06632261366995800D-02  1.36282803543235000D-02
99 27 -4.42915064910235400D-02  5.04225948837761100D-02 -2.46128498589256300D-03  4.99527121740896500D-02 -1.22717632797220000D-01
99 28 -8.92341024455175400D-02  2.11951735242737600D-01 -1.62179415124982900D-01 -3.34948321414072300D-02 -1.42960685490606500D-01
99 29 -4.29776520547612300D-01 -1.87840554064598700D-01  1.23644921223601500D-02 -3.09673913577876800D-01 -1.54261880042478000D-01
99 30  2.92768279343153600D-01 -9.32535371372624800D-01  9.34902731158407100D-02  2.36503821217627700D-01  1.97690314733220000D-01
99 31 -1.12603247029071500D-01  2.76813353052336800D-01 -2.30911082438765300D-02 -7.85771610415039300D-02 -1.65867143780375300D-01
99 32  5.29280516454274500D-01 -4.66174964531801100D-01  4.20675814845480200D-01  9.29630235679464200D-02  1.47440538059834700D-01
 0  1  3.12789727285935600D-01  6.31904173623547900D-01 -1.68367937832503900D+00 -7.99784451954881200D-02 -1.70801326064074300D-02
 0  2  4.06943065294764200D-02 -6.22912312415085200D-01 -7.83342812773829200D-01 -1.38255726195758100D-01 -6.50998656579600400D-02
 0  3 -8.22499472206870600D-02  1.47349812878646100D-01  2.17195354367119600D-01 -9.06764550892611300D-02 -2.36985403486040400D-01
 0  4  1.87481257406841000D-01  3.56501991345566400D-01 -9.30557791794324100D-01  6.05193373513437700D-03  4.45393712361376300D-02
 0  5  9.10925878481156800D-03 -6.18323705575309400D-01  1.43871147599217200D+00 -1.10854287447982500D-02  7.36591668565058900D-02
 0  6 -5.11769459237704500D-02 -2.24822209327347400D-02 -1.44033150746083400D-01  1.38553143330246600D-01  1.28844958424818100D-01
 0  7  4.24577687517723900D-02  1.58022291754054300D-01  5.50377225447137700D-01  2.06043201828430100D-02 -1.46335557065625800D-01
 0  8 -3.19246443530788600D-03 -3.19307397976068900D-01  1.88256397653073600D+00  1.66224364796849200D-02  4.00826370984700800D-01
 0  9 -2.24440284031340600D-01 -1.76386086953360100D-01  7.96003295273717800D-03 -1.74763679544854700D-01  2.34164312558009200D-01
 0 10 -1.65789455266516800D-01 -3.57721953080363900D-01  5.11752443254169900D-01 -3.09890052871928500D-01  3.63332466698629400D-02
 0 11  1.62724943599174500D-02  4.90474686667925100D-01 -7.64716698351384300D-01 -1.51581893133430600D-01  3.10670491304038000D-01
 0 12 -3.38041645745496000D-01  2.73711544414590300D-02 -3.33775636368361100D-01  2.91796845246201700D-01 -4.26615993108212600D-01
 0 13 -7.45956221875503900D-02 -1.26685656842115700D-01  1.99235358070159000D+00 -1.76015056070836300D-01  2.32541496050083800D-01
 0 14  3.03235459569789200D-02  5.93579967526610800D-01  8.50316369834243500D-01  3.81739811253796600D-02 -1.33499203971797700D-01
 0 15  3.15050051811318100D-01 -1.81550847839520900D-01  5.72402015717773900D-01  4.49922871119832700D-01 -1.39542156820634600D-01
 0 16  8.02691143765962200D-02  1.24170295322330200D-01 -1.52174512488627000D+00  3.00329665756020500D-02  1.76778331931557300D-01
 0 17 -1.80514564108155600D-02 -1.66998403984533400D+00  1.06500559560494900D+00  4.64816200047625000D-02  1.25232530285742900D-01
 0 18 -2.81089956742171400D-01  1.55857426456427800D-01  2.07527992683868700D-01 -1.92005744565164900D-01 -1.93979295605897300D-01
 0 19 -7.62240838242955900D-02 -1.59210331089340900D-01  7.23263017386695500D-01  5.31349037191551700D-01 -2.46775600898205500D-02
 0 20 -1.71779094406927900D-02 -7.43333398314729600D-02 -1.42366423595778700D-02 -1.40709270220393800D-01  2.86324302891492900D-01
 0 21 -2.41029615810947300D-01 -4.97508666095805400D-01 -1.59122479782944100D-01  2.10282344782010100D-02 -3.38252498243841700D-02
 0 22  1.27970153461832600D-02 -7.51456310372058400D-02  2.95150878208110200D-03 -8.76167866364581900D-02 -1.88896818187311500D-02
 0 23  1.70357023086826900D-04  1.87193247956445800D-02  1.56032176776155200D-01 -1.60380593970155700D-02 -1.10279534953593100D-01
 0 24  2.52428428406420200D-02  5.13742294724411100D-02  1.18700674367972500D-02 -1.92431713752826200D-01 -1.12304326559196000D-01
 0 25  5.06851295099754800D-02  5.87315906451081500D-02  3.90192499968265300D-01 -2.26664138160914300D-01 -2.08472514546184600D-01
 0 26 -2.75595730659925800D-01  3.94946777129439700D-01  1.87997610217524100D-01  5.08950890496180300D-02  2.36965493383337300D-02
 0 27 -7.45916383879520100D-02  5.16407137678511100D-02  1.32288724708054500D-01 -1.26746271290622800D-02 -1.14747818231701100D-01
 0 28 -4.54587782816496300D-02  1.60206596513350700D-01 -1.84357729906225000D-01 -5.36091363214339100D-02  6.84831856483719100D-02
 0 29 -3.49382860123575000D-01  1.43189661050446700D+00 -1.36935653808205600D-01 -1.98776674786623900D-01  1.80392745483986300D-01
 0 30  2.93235124977243500D-01 -6.93351904842006400D-01 -3.55383110604577100D-02  9.89428705906177000D-02 -2.18319314893181600D-01
 0 31 -3.48235978008587700D-01  3.72296484371503800D-01 -1.64069028985053700D-01  6.80211276079264500D-02  1.83264881630156800D-01
 0 32 -5.45930004744063600D-02 -1.39124511678910100D+00  5.90464808756608400D-03  2.33403771045981300D-01  6.02094675658371800D-02
 1  1  1.21537564147411200D-02  8.91999011419440100D-02  1.18998832776374500D+00  1.56800888721811100D-01  1.72654467650717800D-01
 1  2  7.06783172311893900D-02  3.30808370082127700D-02 -3.74936874282511800D+00 -4.44476516286441700D-02  2.15334526082226400D-01
 1  3 -1.66633446326221200D-01 -4.87010797560059000D-02 -1.86899002479190200D-01 -1.04443764818723000D-01  2.04998478167510400D-02
 1  4  4.09952864697928300D-01  7.31879508842980100D-01 -2.22192145209131100D+00  3.89307383620877100D-01  2.40334323876959700D-01
 1  5 -6.71375197009847100D-02  2.14473939876553100D+00  6.12673947444640200D-01  7.27733486539312100D-03  3.73570622057919500D-03
 1  6 -1.99172186798932900D-01  1.95436480578354700D-01  2.05975702807793900D-01 -1.25998711111768400D-01 -6.69667434440407000D-04
 1  7 -2.64790225449424700D-01 -4.59847108018489500D-01  4.05216132399400500D+00  1.90959891739192600D-01  2.39417507562405000D-02
 1  8 -1.69492194898000400D-02 -1.73050204476369000D+00 -2.54200419222772800D-01 -7.20122199530684500D-02 -3.44959076962995900D-02
 1  9  2.77031838195174300D-01 -2.42535930498872800D-01  2.52251718017883500D-01  2.23691092847628000D-01 -9.94739274120876900D-03
 1 10 -6.08688800620589500D-02 -1.62736283312698800D-01 -1.15739766484966500D+00  1.56965325443902000D-01 -4.17656989714741200D-01
 1 11 -4.02231167649239400D-02 -2.09544406585299800D+00 -5.73288413921852900D-01  1.20909129302934500D-01 -5.57815190696828500D-01
 1 12  5.43140012874440600D-01  1.46751778223890000D-02  3.25244006421176500D-01 -5.90260253069236800D-03  3.10784726302036200D-01
 1 13  1.00912916830191700D-01  2.43613827661470000D-01  2.09713630843982600D+00  4.48178126149189000D-01  7.00491201962674500D-02
 1 14 -6.79103398737108000D-02 -1.17262192411408800D+00  1.37808756759010500D+00  8.52204603350418100D-04  7.02317704478051700D-02
 1 15  3.39281342786145300D-02 -1.04159904726421900D-01 -2.65251836120732000D-01 -4.59005372803715900D-02  1.04217609266265900D-01
 1 16  2.41988678199687100D-01  4.27078644048074700D-01 -4.08079119150156400D+00  3.47345290615207800D-01 -2.46817496945834400D-01
 1 17  2.63817975076085700D-02 -1.45838632026392800D+00  2.06235578980184000D+00 -5.08389827918106400D-02 -2.63224309356234500D-02
 1 18 -2.47189850256837300D-01  2.73512281192459500D-01 -6.01848396446322200D-02 -1.00642064839327300D-01  6.23649010264601100D-02
 1 19 -1.68355462349196100D-01 -3.55918802664497100D-01  1.54506539416134100D+00  1.90583846471450500D+00  1.75556832913040900D-01
 1 20  3.10343377528736400D-02 -2.55044179636275300D-02 -1.57965447710958400D-01 -3.72837157111744800D-01  1.57787839408425300D-02
 1 21  4.58616401968738300D-01 -8.23483693351289600D-01  6.12328333561117200D-03 -3.97414811364153300D-02 -4.89504652194852500D-02
 1 22  8.86919463558994800D-02 -6.42861180714846300D-02 -1.02084284196536300D-01 -8.39375425143646200D-02  1.37577197223951600D-01
 1 23 -7.09563769775745000D-02 -6.66208202463787300D-02 -1.47419251191942300D-01  1.36279274167034900D-01  1.06980071389414600D-01
 1 24  1.00622331671404100D-01  1.70714578209292200D-01 -8.36622487331345600D-01 -1.18642403195637000D+00  8.24354261957316000D-02
 1 25  1.22038661746973800D-02  5.79280876641101400D-02  3.41382902697565100D-01  3.52696084941774300D-01 -6.39181002277676200D-03
 1 26  4.74560541726986300D-01  1.23478073648995100D-01  1.70907341452311300D-02 -2.39144935572102900D-03  1.05197489101308700D-01
 1 27 -1.02806039745587000D-01  8.33128911156082700D-02  1.13582092633798100D-01  7.87242073059278700D-02 -1.25394282710271900D-01
 1 28 -1.10949649834679300D-01  2.36343932544951300D-01 -4.51282623111267200D-01 -1.76933911064248200D-01 -1.48942445837467800D-01
 1 29 -3.11961026767983900D-01  5.18275667958607000D-01  7.55679742635290700D-02 -5.22215454962202200D-02 -9.82610102165203700D-02
 1 30 -5.20291926692624100D-01 -1.81548832776940400D-01  3.01253655942179200D-01 -3.75600637270454000D-01  2.59601700241826500D-01
 1 31 -6.26683482268254000D-02 -7.08158304242187700D-01 -5.12424132804118900D-04 -8.79836251788024300D-02  7.40303380769348100D-02
 1 32  2.56670343498702500D-01 -9.88552272833496000D-01  1.94344654670771100D-01 -1.39008250309992500D-01 -6.90836860381402200D-02
 2  1  7.89270730879575400D-02  1.38320390759681800D-01  2.48062791677134100D+00 -8.06787878817085700D-03  1.91975904207126000D-01
 2  2  8.16828919833683500D-04  2.90241812490702400D+00 -2.15059092027740200D+00  2.41296354240237800D-01  1.04996392413524500D-01
 2  3 -1.11702947556515500D-01  6.70655514299255500D-03 -2.96519356809015300D-01 -1.37886963055567200D-02 -2.11962460339956900D-01
 2  4  3.30896682952615500D-02  3.78919012588749000D-02 -3.44897466662391900D+00 -1.50550975932342700D-01 -1.42507148956345200D-02
 2  5  1.84481016181648800D-01  4.53107132865057400D+00 -7.84954888776194500D-01 -2.02918356272019200D-01  4.27114798098471000D-02
 2  6 -8.64945073014551400D-02  4.37830274916086900D-02 -3.11682519396759600D-02  2.66495212989313400D-01  7.81442974501690300D-02
 2  7 -2.21261156694360900D-01 -3.47010356328343800D-01  6.40250150379390900D+00 -1.93209207462078600D-01 -1.99182081044630100D-01
 2  8 -1.09179704612661100D-02 -5.04762600110361200D+00 -9.16446989483308300D-01  1.71629594373837700D-01  1.33344456450859100D-01
 2  9  1.34463924061055100D-01 -2.67808380511912400D-01  5.01188838264014400D-02 -2.56708914459610600D-03  1.98486924067889300D-02
 2 10  1.29735554754797100D-01  1.70258980068051500D-01 -5.18852674359825300D+00  4.99461290539129500D-02 -1.70409008549366900D-01
 2 11 -6.46591087680377400D-02 -4.23538757391705900D+00 -3.50185952557476000D+00 -8.41111016986782200D-02 -3.50827009498764000D-01
 2 12  1.30909829513117600D-01  2.19917179985646400D-01 -1.03926398488909700D-02  5.74927486647435000D-03 -1.72814284746947700D-01
 2 13 -1.11309016055378800D-01 -1.86888019403653700D-01  3.50905117418168500D+00  1.16425548228772500D-01 -6.12056347970997000D-02
 2 14 -1.26391224562376400D-01  4.65605907733458800D-01  3.82805144175417200D+00  4.12744849572395000D-01  1.58254294684221000D-01
 2 15 -7.90380626025310700D-02 -7.92162320816904200D-02 -2.95902154236276600D-01  6.67371804753115900D-02  9.68682973134343100D-02
 2 16  2.02502536123049500D-01  4.15796551518774900D-01 -4.07371347562218400D+00  1.71468829438755800D-01 -9.10466194910676700D-03
 2 17  9.01938199100746200D-02  7.42341989807940400D-02  3.39657500122091000D+00 -3.68658624572351200D-01  1.41150769610462200D-01
 2 18  8.59608333400694600D-03 -1.49746852944469400D-01 -5.77574969125892200D-02 -3.46758759182228100D-01  1.09269917301720000D-01
 2 19  1.57605145041859500D-01  3.60085497748574200D-01 -4.60045685405771700D-02  3.78555385714268400D-01 -9.33734102155528000D-02
 2 20 -1.59433083627305400D-01  4.13092870758360300D-02 -1.01494854434553700D-01  4.08567996745389800D-01 -2.98128034714626400D-02
 2 21 -1.25974032295394800D-01 -2.71569804885207400D-01  2.63501399250963300D-02  1.21435067651431700D-01 -4.30003502768961600D-03
 2 22 -1.17135032623745300D-01  1.59967758209755800D-02  9.18578152754015000D-02 -6.33776337591876000D-02 -1.22103839040399300D-01
 2 23 -1.12353898259760800D-01  2.34457737300156900D-01 -6.48282835881832300D-03 -2.82801916170243100D-02 -5.96417567769290600D-02
 2 24  3.22232477866003600D-01  6.81947086195372600D-01 -1.91604896534197100D+00  1.15707909450473800D-01  1.30489836144334000D-01
 2 25 -1.05306817510335500D-01  1.92180043724208700D-02 -3.80286894045864300D-01  4.27871442549243400D-01 -1.68913474510301000D-01
 2 26 -1.02744371932295700D-01  3.82203871973444300D-02  7.25968646017840500D-02 -1.09103355779560600D-01 -1.38204781081966100D-01
 2 27  2.47308136861527100D-01  9.35879549359528100D-03  1.12957521591978500D-02 -9.21331709000382500D-02  3.93360901268453500D-01
 2 28 -3.69643478594455600D-02 -3.56396553409008500D-01  7.49828401404350600D-02  1.65155123143995700D-01  1.79741129296809400D-01
 2 29  1.52359766535299500D-01  1.06896815475088800D+00  4.02712582262372300D-02  4.95438787586030100D-02 -2.08905525360026700D-02
 2 30 -1.81197964201422400D-01 -1.49506414120766700D+00  3.18388986271732600D-01 -1.57195291047191500D-01 -1.05284373334260000D-01
 2 31  3.28759236223638500D-01  5.64679792112080200D-01  8.94311336190063000D-02 -1.87405247012439000D-01 -5.41912023426364500D-02
 2 32 -2.47181743453517000D-01  2.40228928198168600D-01  7.99797126292592600D-02 -2.29807402511149500D-01 -1.95909218025783100D-01
 3  1 -1.57785176061119100D-01 -2.58034598233575100D-01  5.10900739163930500D+00 -4.98243614152594000D-02  1.62061071297513200D-01
 3  2  2.84054751414480300D-02 -2.54784158579979700D+00 -9.86319906092876500D-01 -9.90626973031475400D-02 -2.69780399735708900D-01
 3  3  4.11503373455285100D-01 -1.41722973719575500D-01  2.96915218751723200D-01 -3.55984815875129600D-02  1.58181721315739900D-02
 3  4  1.49179036621893300D-03 -1.55265318775697300D-02 -3.09668123366675800D+00 -1.54038865827934500D-01 -1.72632227132548900D-01
 3  5  6.59505742957647300D-04  8.19294903819392900D-01  2.76847070803882000D+00  7.97691848479048400D-02  1.31535585967774200D-01
 3  6 -3.40857524647291300D-01  2.09321938679517800D-01 -4.87129541934072600D-01  2.88711806179000100D-03 -1.08575539829049700D-02
 3  7 -2.10121564664604800D-01 -3.78050946799775200D-01  4.50652478764091600D+00  3.24421344637750800D-01  1.86878954547923000D-01
 3  8 -5.82784511488254400D-03 -1.44557977475867400D+00  2.93640378662435200D+00 -4.59841751075952500D-02  1.13139921533751000D-01
 3  9  5.93645253073775600D-02 -1.72504446841129900D-01 -5.46889437380178600D-01 -4.33947015753586600D-02 -1.15660023201056500D-02
 3 10  2.46784021294713000D-01  4.40891747170723000D-01 -5.24258236275908700D+00  5.19519476152483300D-01 -2.63222556789654900D-01
 3 11 -2.86631515568273100D-02  2.17518546189415200D+00 -4.05462488871206800D+00  7.12384284155254400D-02  6.17588097420229500D-02
 3 12 -1.84827821621953600D-01  1.23069011879931500D-01  4.74707403055195100D-01 -2.82117461277342600D-02 -6.26048475548212500D-03
 3 13 -2.77243199770903200D-01 -5.31467324876563900D-01  3.39497801935902400D+00  3.82285644474639600D-01  1.16006855908559700D-01
 3 14  1.26866553005244900D-02  5.54566240995732500D+00 -6.83758590359028600D-01 -1.81861316658872400D-01  2.55939464185553400D-01
 3 15 -1.78415052140609600D-01 -7.75244120449440600D-02 -4.90800952227489500D-01  5.62367207237592900D-02 -5.77438457232192000D-02
 3 16  9.57434034824584100D-02  1.31405769049517400D-01 -2.95418697184311100D+00  1.12005990335509700D-02  1.49602432003151700D-01
 3 17 -2.56017226804361300D-02 -4.04198461013116000D+00 -1.96984892991619200D+00  1.59006150169999400D-01 -8.10739235838251600D-02
 3 18 -2.07076127643323300D-02  1.01781536348160500D-01 -2.81713892047045600D-02 -7.09802436340507700D-03 -9.57045709550316300D-02
 3 19  1.07409360208603100D-01  2.00553200360105200D-01 -1.05522234327332100D+00 -6.87981210474611600D-02  1.37167767876091700D-02
 3 20  1.12202592643233500D-01 -5.25037399042342700D-02  3.89845451127383700D-03  5.28889546916398400D-01  9.43979959456252400D-02
 3 21  1.10158250364037500D-01  7.08436293226811500D-02 -3.99519861380127100D-02  1.01914344555378100D-01 -1.30998232359420700D-01
 3 22  2.90838878040402700D-02  2.01940878225223100D-01 -4.36444707004487800D-02  1.09237162961684600D-01  1.17459059846434200D-01
 3 23 -6.17252344243552700D-02 -5.57338254220816800D-02 -1.58725161413174600D-02  5.31213867881544400D-02 -2.47055195092682500D-02
 3 24 -1.00796163647044900D-02 -6.67903337586122800D-03  1.12930146874151900D-01 -5.56873493500331400D-01 -8.22994863406808200D-02
 3 25  1.47520344113750100D-01 -1.85593539917380800D-02 -2.51206797033818200D-01 -4.16913952309333600D-01  1.77908914683930900D-02
 3 26  1.04142796491225900D-01  2.47988394312689100D-01 -3.43754646068750800D-02  4.12119668247918300D-02 -4.16316059927751700D-03
 3 27 -3.70488062255155500D-02  1.87078930601853500D-02  3.79954881854052100D-02 -2.61067791153336400D-02  3.76879516428598300D-01
 3 28 -2.12289388708113900D-01 -1.64590127720484300D-01  2.13808723445781300D-02 -9.89634126217064200D-03  3.31650418373889700D-02
 3 29 -2.29272599563523600D-01  7.85444669456367500D-01  3.06792742594605800D-01 -2.61222150694827300D-01  6.64490233467025400D-02
 3 30 -3.26746710543672400D-01 -1.61446662391036400D+00  6.31028665262710100D-02 -3.21962679375556200D-01 -3.34417231647219900D-03
 3 31  9.50802357356448100D-01  1.50871991584906600D+00  2.91625561630144600D-01  1.17570728352787000D-01  9.47805926508088300D-02
 3 32 -2.09151722520093100D-01 -6.90356320189494400D-01  3.01653294091761800D-02  3.31160737451132900D-01  1.67583383361847700D-02
 4  1  2.83991222315999200D-01  5.61967538548972900D-01 -2.03486236361145100D+00  8.14843456680703300D-02  2.45280261463636100D-02
 4  2 -3.33743414839287600D-03 -2.41254865068182000D-01  2.79218462816266100D-01 -7.51591979737917900D-01  4.96991047833971500D-02
 4  3 -1.03104708790871500D-01  5.34056040074737400D-02  4.41996023106504900D-01  5.98631361119645900D-02 -4.25184485903441000D-01
 4  4  4.61378441052515000D-02  1.05071313041061900D-01 -1.22248445505101200D+00 -5.95000216254275100D-02  3.14797638903281500D-02
 4  5  3.00165910745786200D-02 -1.10100431012799900D+00  1.82460156741074300D+00 -6.82970716205067700D-02  6.17076477726247200D-02
 4  6  3.97699242535649700D-02 -1.01477572026189100D-01 -5.52567144817275200D-02 -8.99376240708905400D-02  1.02443165016918200D-01
 4  7 -2.05630961849748400D-01 -4.37870320088578100D-01 -3.24583056101849000D-01  3.64959063064686800D-01  8.64542021140211500D-02
 4  8  5.28759449725221500D-03  1.53102837412849400D+00  1.99903579416027300D+00  1.14139249565583100D-01 -1.52871131081892500D-01
 4  9  2.10626819190555600D-01 -5.77556881086627500D-02 -2.66108901835857100D-02  4.72200314090382200D-02  1.02143235799468300D-01
 4 10 -1.91163280681568500D-01 -3.11624308411085100D-01  2.67029998097437200D+00  1.80324863310145000D-02  1.13268163960897200D-01
 4 11  5.90989970600420700D-02  1.91657664101832400D+00  4.65520834062369800D-01 -1.44068965201574900D-01  1.52089799347003500D-01
 4 12  7.42177596652922300D-03 -1.59511575313532500D-01  6.27924159006611800D-01  1.08116546051776700D-01  2.38079277250764200D-02
 4 13  4.86405956211792300D-02  6.21997369335032100D-02 -1.08480587054026700D+00  2.14905884247411500D-01 -1.77470000164045300D-01
 4 14 -5.43083439200036600D-02 -1.94034621397388500D-01 -1.71702812695601000D-01  1.02307105184744900D-01  1.32871781359759000D-01
 4 15 -2.79679861557064900D-01  1.46808080197306500D-01 -4.95882036275640500D-01  8.69522434908193700D-02 -1.05951362943148200D-01
 4 16  3.79904459311059900D-02  8.01053722505908900D-02  3.96058822303310700D-01  9.51187406939508200D-02 -2.12390103487519100D-01
 4 17  6.61903403446719600D-02  9.19364601413874000D-01 -6.14309499336492000D-01  1.69081616482838100D-01 -3.18663986600950400D-01
 4 18  2.80647531615947900D-01  3.80164549850031300D-02 -2.77550496685707000D-01  1.06174853436383200D-02  2.22283165845986300D-03
 4 19  9.09107092563043900D-02  2.08854482581129800D-01 -3.12574277629710200D-02 -8.11133546155937100D-02  5.80963430813712900D-02
 4 20 -1.89030649480676800D-02 -1.91977986865952400D-01 -4.16754970698860500D-01  3.14124726569450500D-02  6.38637153268456500D-01
 4 21 -2.43980617843938000D-01 -3.11521827356261700D-03  1.45309381839212200D-01  3.64812621708787000D-02  1.07066941713100800D-02
 4 22 -4.71879563421879100D-02 -1.52424682422210700D-01  1.96557574900912800D-01 -1.66421321223941200D-02 -1.41656729917074000D-01
 4 23 -6.15895688053124500D-02  2.03246298722388100D-01  5.71911146065106200D-01 -1.32370353526959700D-01 -4.30123528612084400D-01
 4 24 -5.82334955538973100D-02 -1.44597672846673600D-01  2.12245225948416700D-01  3.37862390544434200D-01  1.71539738332717900D-01
 4 25  3.92269160885200700D-02 -6.85482575848984900D-02 -1.09851999199612500D-01 -3.70690764086993900D-01  1.65510922166563000D-01
 4 26 -1.11488623670611500D-01  1.33805092882913100D-01 -9.23399291650958400D-02  1.34660758891583400D-01 -5.34119148902579300D-03
 4 27 -1.29319567402557700D-01  2.84510281607858100D-02 -2.10134638435282200D-02  9.84525697548103300D-02 -2.32708746852428200D-01
 4 28  3.46588987932881600D-02  1.98049848059140100D-01  8.76295164876646100D-02 -9.83896780679376400D-03 -1.88832156175486100D-01
 4 29  1.27125994087421300D-01 -3.87078581624093300D-01 -8.05887658048458500D-02 -1.42848764357512600D-01 -5.43021172275650900D-02
 4 30 -7.61229298141625200D-02  1.03935160220352700D-01  1.30381793603358900D-01  1.87393766792763300D-01  6.40934342800727300D-03
 4 31  2.13418905182307200D-01  6.05324566190995800D-01  4.88562286525825700D-01 -2.27929383578353200D-02 -4.05933322184025600D-02
 4 32  4.01941241443200900D-01  3.33970200942168200D-01  8.88512654387128100D-02 -2.23064902946961900D-01 -9.89501875365633000D-02
 5  1  7.19214213018449600D-02  4.30180842607810700D-02 -3.18913849973336100D+00  2.26012448817143100D-01  6.36220782107157100D-02
 5  2 -1.32869141081229000D-01  2.82168385807350900D+00  3.54953363690215800D+00  6.79352276722436600D-01 -4.05279630847529200D-01
 5  3  1.19164444382339600D-01  2.86115186465189700D-01  2.89172092973213800D-01  2.25812253231844900D-02  7.24349453874277400D-02
 5  4  1.56600251140675200D-03  7.06547305292402200D-02  3.31520766327736800D+00 -1.70229072751849400D-02 -1.55197391094027500D-01
 5  5  1.01522620179692900D-01 -2.69658392850518500D-01 -2.51631050933826400D+00 -7.30132199272708800D-01  3.72497256186972100D-01
 5  6 -1.78890362570115500D-01 -1.93606893616857900D-01 -1.71816769464707600D-01 -4.70200360263828100D-02  3.38970705388653700D-02
 5  7  9.94608715119397000D-03 -1.11384095469087700D-01 -5.95396978923315000D+00  2.44649390885995700D-01  1.57696323480427700D-01
 5  8  2.93316103702524600D-02  2.57967723117595500D+00 -1.59608766681192000D+00  2.62652134734936600D-01 -2.08650740458980000D-01
 5  9 -6.78134773297126600D-02  2.76464217788691700D-01 -1.20285865724491500D-01 -1.65137573567191000D-02  5.97889625434645700D-02
 5 10 -3.33048432121401400D-01 -4.61578976809560200D-01  7.65924448123613600D+00 -8.63841430339599700D-02 -5.21235047288269200D-02
 5 11 -2.32631613845264400D-02 -9.87458907423858100D-02  4.53946635967808200D+00 -1.79601088964961800D-01  5.11329705444415700D-01
 5 12  2.30901956032463000D-01 -7.42231661476879200D-01 -8.72345165023652700D-02 -1.03599386670699200D-02 -8.28976248146666400D-02
 5 13  9.20733046033877800D-02 -6.89340683536771500D-03 -6.35779513484636800D+00 -4.89975314144629700D-02  2.43859583888164600D-01
 5 14 -2.68867857877309200D-02 -4.20521874974366000D+00 -1.90375472386542000D+00  3.27157124980898400D-01 -2.96182208909311800D-01
 5 15 -2.80757498764921500D-01  5.76939707674237100D-01  1.91016342673932700D-01  6.14581286009952900D-02  1.29404231955688100D-01
 5 16 -2.54126677529740300D-01 -4.03760653551716300D-01  7.24923120395589100D+00  1.26853597294039600D-01 -1.84100882551648500D-01
 5 17 -4.79767881416578900D-02  4.03902518757664900D+00 -7.39546640115443100D-01 -3.45047033193367700D-01  1.35682290458160500D-01
 5 18  1.74232717427486300D-01 -3.09915007885647900D-01  3.08749249485602700D-01  1.20883140736157100D-02  1.66388857964970100D-01
 5 19  1.29143604760722600D-01  2.52326141402702000D-01 -1.24302130673593900D+00 -1.03102838316845400D+00  1.41802643131596700D-01
 5 20 -5.55040790650051200D-02  1.31275460303500900D-01 -8.72150900470415500D-01  3.62374118751880700D-01 -3.48242469695152700D-01
 5 21  3.55107404914518900D-02  1.96913295672226500D-01 -5.66759391958735400D-02  9.50852674414586900D-02  5.51182596366194800D-02
 5 22 -1.50203527078074600D-01 -2.14337486081025600D-02 -1.55124544096135500D-01 -3.55079743487571000D-02 -1.26497201264376800D-01
 5 23  1.07976609135395900D-01  1.85205921289844200D-02  4.58768344351006700D-01  2.19945532814204800D-01  8.96746565169113100D-02
 5 24  8.51389020823417900D-02  1.66854997135861000D-01 -3.27925376605060500D-01 -2.22529902897125200D-01 -7.51636797821728200D-02
 5 25 -1.48444790388171400D-01  5.94049829460809100D-02  2.80765896155206400D-01  7.74690061492997100D-01  2.57019339453565700D-02
 5 26 -1.51935906388402500D-01  3.37278134255145500D-01  2.80505682370849300D-01 -1.84928773115737300D-01  1.39569602116915600D-01
 5 27  4.53591709988218700D-02  1.33594258773738200D-01 -8.62548969973836900D-02  1.88313971313149500D-01  4.74091500122669900D-01
 5 28 -5.25023021208291800D-01  5.09315210856221600D-02 -3.66551582988115200D-01 -5.98173405748888600D-03 -3.57052064595834200D-01
 5 29 -7.81737759820522000D-02 -5.46384132883275500D-01  5.78996012172885200D-03 -2.84878954866331400D-03 -8.34323167134379400D-02
 5 30  5.66041247205921500D-02  9.10101951709300700D-01 -3.17443056374431800D-02 -2.91512624435043700D-01  9.80870388820105300D-03
 5 31 -9.75349364873706500D-02 -1.22706651967687800D+00  2.10632562677869900D-01  4.36526691731734400D-02 -3.16726838596201700D-02
 5 32  1.64702410376929200D-01  1.18597864327142600D+00  5.06628982029251300D-02 -5.86206821230087000D-03  9.03108006716512200D-02
 6  1 -2.70173731308419700D-01 -5.61647158962257600D-01 -3.13462696114518400D-01 -2.76282982377947500D-01 -4.02762197171783600D-01
 6  2 -5.94756962432550100D-02  1.11947496080689900D+00 -4.83547869428605600D-01 -1.30107677745108700D-03  1.73475633350047300D-01
 6  3 -2.29897598787659200D-01  5.64219654376111900D-02  2.26671309149701300D-03  4.10785922336939300D-02 -9.50873004733406200D-02
 6  4  1.34629811274016600D-01  1.61722119954061100D-01 -1.46814663988302700D+00  1.03316971994681500D-01  1.25418512937677200D-01
 6  5  1.13564735550945900D-01  6.67143609983783100D-02  6.61496701160956400D-01 -3.05066766250362900D-01  1.02268776252006300D-01
 6  6 -1.52106634184626800D-01  4.98378579326206400D-02 -1.81740458773876300D-01 -1.24557571026414400D-01 -1.74474347865478800D-01
 6  7 -1.45509620256393300D-02  3.62424253005063200D-02  2.90441291308225500D-01  2.71625715063662500D-01 -1.90182301781687800D-01
 6  8  1.01879929444263600D-02  3.55724012792827800D-01  1.52136972520568000D+00  7.61963529200400000D-02 -7.64938550289128200D-02
 6  9  2.88638399765046400D-01 -2.12144544736133300D-01 -2.06782760181115900D-01  4.64674267282200600D-03 -1.29736062957337300D-01
 6 10 -4.51468673058433200D-02 -8.45988683001628700D-02  9.56946172911818600D-01  6.15342222317306500D-02  1.47427603124633500D-01
 6 11  4.66856265784058200D-02  1.46847639091968000D-01  1.05870380619050400D+00 -6.45584656915169900D-02  9.20604227070688100D-02
 6 12 -1.58493308756741700D-01  6.64328860496735400D-02 -4.03382201807723800D-02 -1.63108833393563700D-01  2.09006429819089800D-01
 6 13 -2.34026367805810500D-02 -6.26706161288995100D-02  1.94871919294583800D-01  8.55055120159432700D-02  2.54039284681850900D-01
 6 14 -2.35744670262866500D-02 -9.12495101088572800D-01 -3.35530547413847400D-03  7.24824320645657300D-02 -3.13304606814943100D-01
 6 15  2.61133190128273400D-01  5.21714166866698600D-02 -1.41787708348999800D-01 -2.43296745909462500D-01  1.60954953397967500D-01
 6 16 -3.84422014492212800D-04 -1.33790013705689100D-02  6.30477519954048100D-02  1.39074230104816600D-01  2.52855756769115400D-01
 6 17  3.51096630246407500D-02 -2.72323372742523500D-01  4.03019026197652700D-01 -1.66650655565121200D-01  1.47662915365632100D-01
 6 18 -1.25067977040442400D-01 -2.25949383251906800D-02 -3.21425384513524800D-01  4.02667352291376400D-02  3.10062657125583900D-02
 6 19 -1.70025334918185200D-02  4.61372695798584800D-02  6.11581222747883100D-01  3.49554390792118600D-01  1.68798828335554300D-02
 6 20 -8.76825944611000500D-02 -3.77897992217387500D-02 -2.04483711468310400D-01 -6.47663784072738100D-01  1.70633958444307000D-01
 6 21 -1.49193251061024100D-01 -1.43584671516974600D-01 -1.25710005299802300D-01  1.30487890006109500D-01 -1.19755180210704500D-02
 6 22 -1.18512371985038800D-01  1.08625504321156800D-01  3.83052795459405300D-02  1.79131547334727900D-01 -3.55111573831906300D-01
 6 23  3.85699548972683800D-01 -3.05879751407769300D-02  8.14545834511611500D-02 -7.30233734852214500D-02 -2.98623234249047100D-01
 6 24 -2.32393283535966100D-02 -4.87076464803481100D-02  3.56135236194386400D-01 -9.93448630941219600D-01 -1.50291237514853900D-01
 6 25  1.36897512483165800D-02 -7.27290172667186400D-02  3.29841717692211400D-01 -3.73870519963752000D-02  2.01941085343815000D-01
 6 26  3.14245826311844800D-01  5.41791605785972400D-01  1.37322905057560500D-01  2.24906171479423400D-01  5.31049091038404200D-02
 6 27 -2.78011080583264100D-01  1.11053521324718900D-01 -2.02991549206353800D-01 -1.47549660193157100D-01 -3.19801584856841000D-01
 6 28 -8.13266106457658600D-02  4.01128195502607300D-01 -2.21406533361101900D-01 -1.28470354591989300D-02  1.33787944388689900D-01
 6 29 -4.64223391046729400D-01  9.04932221045262500D-01  1.40334973438631900D-01  2.11683890081791600D-03 -5.68570405466867700D-03
 6 30  2.85577962907434700D-01  7.99570958281446200D-01  8.95100397639671900D-02  2.99867896513106500D-01  1.44265943698621600D-01
 6 31  3.28036298247526400D-01 -9.19241452572358600D-01  4.65434178467155600D-02 -3.17035871099040600D-02 -5.91764939502941500D-02
 6 32 -5.13908434024491300D-01  2.33267423956421900D-01  7.35588310680280500D-02  5.05428311558216600D-02  1.10032270357085500D-01
 7  1  3.54870421477453700D-01  7.14631177383180500D-01 -2.75594243885974300D+00  5.00857553620259300D-02  1.26735687347007200D-01
 7  2  4.21346318610067000D-02 -1.43821159980707000D+00  1.37864840721343800D+00 -8.94048932878127900D-01 -4.03537545173955100D-01
 7  3  2.66800177899173600D-01  1.36737367274782400D-01 -5.55560992929268800D-03 -4.30829719400160100D-02  9.49689328008297300D-04
 7  4 -3.65429778265493100D-01 -6.13716356258289700D-01  3.56959524915175500D+00 -2.29121409856895400D-01 -1.74533785972408300D-01
 7  5  8.59013392579489400D-03 -1.03099732897295900D+00 -6.62255309234079400D-01  7.26701457110350600D-01  8.81858146707020100D-02
 7  6  2.43956048432882500D-01 -3.32141863103585100D-01 -9.33216135035708400D-02 -4.09554447895366200D-02  4.33092107168528300D-03
 7  7  1.46956964819219400D-01  2.15619552406722000D-01 -3.30930736262998000D+00 -1.37035651362686200D-03 -2.52553593540745300D-01
 7  8  2.37229732411723200D-03  5.23228855991383000D-01 -7.62658726676154400D-01 -2.77458278224759300D-01 -1.36283438377969500D-01
 7  9 -2.10742038008474100D-01  3.47025476386444000D-01  1.73849621507189800D-01 -6.20610864492216700D-02 -1.65325321632785300D-01
 7 10 -2.68214943988911400D-02  8.11668817424707100D-02  3.48622492996151200D+00 -3.72455202379938900D-02 -3.04767216442802700D-01
 7 11 -4.10884550816227900D-02 -9.90114494636502400D-01  1.86813794074425000D+00  3.42157241325184000D-01 -9.31781018844238800D-03
 7 12  3.99461556702454400D-01 -3.90143746514013700D-01 -4.69294398306282500D-02 -2.39469727774802700D-01  1.22818769471944400D-01
 7 13  1.87293484832694900D-01  2.95852239435858100D-01 -3.94666432707516000D+00 -3.94885136280685100D-02 -1.62697340977355100D-01
 7 14  4.56360966961657200D-02 -2.30287884398225600D+00 -5.02717456910417400D-01 -6.15634837389012800D-01 -1.22132856038450200D-01
 7 15 -1.62672988296538600D-01  2.84805844334990300D-01  1.26974967873397900D-01 -1.90718339805966900D-01 -1.58735532368270800D-01
 7 16  2.37951315527982600D-01  5.97568684578833100D-01  1.52343217772212100D+00 -7.00015566168228900D-02  7.94683692400637300D-02
 7 17 -5.51432398186891300D-02  6.59231774418424800D-01 -1.35209139734740100D+00  6.44911028591798400D-01  6.03023533609169300D-02
 7 18  1.48691538218638300D-01 -2.08993891579555300D-01 -2.36977531526707100D-01  2.17952107951237100D-01 -2.12371941203034800D-01
 7 19  7.16293913277673800D-02  1.23155232687608000D-01 -6.83478031264479600D-01  3.33743462721472400D-01 -8.15561012153305400D-02
 7 20  1.69770037273291400D-01 -1.36442922293717500D-01  3.31827897820733200D-01 -4.30358800729273900D-02  4.19273380428291400D-01
 7 21 -2.72483496084845500D-01 -2.78448738803253200D-01  3.28368456358650700D-02 -4.12528794651724200D-02 -1.84328443930930100D-01
 7 22  2.25581323396104200D-01 -1.13908956859900800D-01 -6.94000929863353000D-02  2.19502849752868900D-01  6.59383673107102600D-02
 7 23  1.30669438093837300D-01 -1.96607805404546100D-01  1.00237358791875100D-01  6.08767444193265600D-02 -3.33806898473246500D-01
 7 24  5.63442616595620300D-02  1.28926906499875100D-01 -4.08646048722973100D-01  8.46832777380943000D-01  2.73810390065232300D-02
 7 25  4.59825088377015400D-02 -4.20777877606236200D-02 -1.20858797783089300D-01 -1.23481657690498600D-01 -7.89590733397206700D-02
 7 26 -5.11965614693820600D-01  1.28064577992102500D-01 -1.84539165315054700D-01 -1.50274613176603600D-01  4.89604997506728100D-02
 7 27  1.01314113425931000D-01  8.09021407349516500D-02 -1.24683262517957700D-01 -7.74255276769214900D-02  4.55863275953775900D-01
 7 28 -1.58424360646123100D-01 -2.97438915307652700D-01  3.51744842028964400D-02  2.71602464347715900D-01  1.53270592722275600D-01
 7 29  4.07221100587155700D-01  1.39319109506078600D-01 -2.26360921599164900D-01  7.36720383978900000D-03  8.77795492777892200D-02
 7 30 -5.98850960295391400D-01  7.63353146115472700D-01  1.44053014303210100D-01 -3.92141616261650800D-01 -3.89608447940025000D-02
 7 31 -7.34413294063631700D-04 -9.61350780327131500D-01 -4.86210768210824000D-02 -3.25314503866574100D-02  4.12079869904484800D-02
 7 32 -2.14435438117736500D-01 -1.21735681530039400D-01 -3.49337878926514200D-01  1.72572826899274000D-01  5.18551824586849400D-02
 8  1  1.91887900201468000D-01  2.65981961704229300D-01 -3.52695058300727500D+00  1.83757474762927200D-01  2.12575857668419000D-01
 8  2  2.88013396487070800D-02  2.86441443467923700D-01  2.25716010626694800D+00 -8.84507382722545700D-01 -1.70133293105625400D-01
 8  3  1.40431697508631000D-03  1.68728976130539300D-01 -7.07790355370890600D-02  5.30398222254792800D-02 -1.22326200146595700D-01
 8  4 -1.15535545848431500D-01 -1.75780390288636100D-01  3.42519833845236800D+00  4.86324564089127300D-02 -1.41726220739572300D-01
 8  5 -1.39472897722065000D-03 -1.94849680563463400D+00 -1.81264742072797800D+00  4.19603767421595300D-01  6.62779589535347600D-02
 8  6 -4.90039816554865500D-02 -1.72739772980493500D-02 -2.60460563464588600D-01 -8.21330330539185600D-02 -3.98324089425609600D-02
 8  7  1.28973452591772100D-01  2.50743991291253300D-01 -2.88347866772456000D+00  1.48525809385604100D-01  2.20062431891472300D-01
 8  8  4.03897948215231400D-03  5.80868587419834600D-01 -2.74591972974477200D+00 -3.43433045719880300D-02  8.81465472170308700D-02
 8  9 -1.85370504989207000D-01  9.72239577721756400D-02 -2.34904851972804300D-01 -5.04894487913008500D-02 -1.98090956705209300D-01
 8 10 -1.94824981516528800D-01 -4.18967298570566200D-01  2.53019964330499600D+00 -1.13099515285851600D-01  1.72720164016250600D-01
 8 11  5.16825680982215600D-02 -1.09305716012548500D+00  1.83309439335997600D+00  3.85722918099793400D-02  4.16758737573086500D-01
 8 12 -4.69327971873016900D-01  5.25692342999285100D-02  1.87907026015352300D-01 -2.10362348067384200D-01  9.12450291266376100D-02
 8 13  2.35414049831394200D-01  4.90707271230802600D-01 -2.26803463714734200D+00 -5.29245338076396900D-02  1.06649698165763800D-01
 8 14  4.14546894716005600D-02 -2.43835792182649900D+00 -2.61438883667064600D-01 -3.30323106008064100D-01  3.46462131959433900D-01
 8 15 -2.53891555316997100D-01 -9.25705766424363700D-02  5.62449651244433000D-01 -1.89066632341290900D-01 -2.43392797253587000D-02
 8 16 -1.84547246131093200D-01 -3.24637756019257000D-01  3.26093655648670300D+00 -4.63183840153656800D-02 -1.01799728102024700D-01
 8 17  3.88776275794421700D-03  2.40996500540781100D+00  9.34779070343709300D-01  3.95732485370048100D-01  2.13127386823580500D-01
 8 18 -5.88064599858265000D-03 -2.07246740824998700D-01  3.96657065753796800D-01  2.24172829554350100D-01 -7.14997608871679600D-02
 8 19  5.36483224487689600D-02  8.32114818252804700D-02 -4.84030277717149000D-01 -7.48668879913897900D-01 -7.34166048296691500D-02
 8 20 -1.68399206815710000D-01 -8.09046558664711500D-02  1.00777001492346400D-01  4.91450225885430700D-01  3.60725368006097200D-01
 8 21  5.66243723935324400D-01  1.21917601483948800D-01  1.92251891828448900D-01  1.56801610176656100D-01  1.00079927172278500D-01
 8 22 -2.56881537348933300D-01  2.23797590381382800D-01  9.77763397995800700D-02  1.60639773478848800D-01 -1.37573729830510100D-01
 8 23 -1.22972328752208300D-01  2.60546058582719600D-01 -4.80884500910142500D-01 -1.22663638228186400D-01 -4.14736060629592500D-01
 8 24  6.52810386836424900D-03  4.86322562593320500D-02  5.31035198634228200D-01  7.53460837934430100D-01  1.06207018336337300D-01
 8 25  1.92756119153929400D-01  4.91565091952658200D-03 -4.03003971959448700D-01 -3.15642244755644400D-01 -5.41279013352956400D-02
 8 26  2.62820908116777300D-02 -2.31176981440107100D-01 -8.84905349032172300D-02  1.00929764346526000D-01 -1.91664571080133300D-01
 8 27  9.07348067336077600D-02  7.37500789230774400D-02 -1.01561056868052500D-01 -6.22410575063723000D-02 -1.02498694931921000D-01
 8 28  2.02678815623604300D-01 -1.00180120691683300D-01 -1.63792513203150500D-01  5.86999344586940400D-02  1.12559458749149600D-01
 8 29 -1.74345941554242400D-01 -5.78828419884007500D-01  1.19210634210606600D-01  2.07968584179807600D-01 -6.54096103245163500D-02
 8 30  6.42377763897297300D-01 -1.10173754093353000D-03  2.34960743160594200D-01  1.31538605437464100D-01  2.34477436380745400D-02
 8 31 -7.76668159517291700D-01 -3.89360028893699100D-01 -1.60433611689875800D-01 -2.29109698181666300D-01  2.27526540136618500D-02
 8 32 -1.11700067296852700D-01  5.66609083897297500D-01 -8.27554951488620300D-02 -3.68040038556062400D-02  2.57980080578859100D-02
 9  1  2.13227168598005700D-01  4.42067229796957300D-01  1.28590733162857900D+00 -2.37195273124294300D-01  1.62361573875754900D-01
 9  2 -1.54084402462639800D-01  1.67666168253757100D+00 -2.43478009392714200D+00  1.25024743521289800D-01  4.77552872901790000D-02
 9  3 -7.24862626050243500D-02  2.47309753148428700D-02  2.64099866539669800D-01  3.66213463019314600D-02 -5.21498043945743000D-02
 9  4 -4.85672352869266900D-03  7.06855406032881400D-03 -1.16373239409840600D+00  1.15259379808038300D-01  1.05580186023356700D-01
 9  5 -9.57709163781352200D-02  2.30076485290465400D+00  1.61959570772425300D-01  6.14936917720517900D-02  4.07849719687240200D-01
 9  6 -3.14305375922495700D-01 -9.35443437647430300D-02  1.55078056389620400D-01 -7.83778159617122000D-03 -8.23079840557917700D-02
 9  7 -7.12300204393200300D-02 -2.01110673545492700D-01  2.65758163845627300D-01 -4.07335783733791900D-01  2.53568040943149400D-01
 9  8 -8.36844280471109300D-02  9.49409384835425100D-02  8.98065593037206700D-01  1.12587852538628600D-01 -2.59720150953350100D-01
 9  9  1.08132075329302500D-03  2.58638830200059700D-01 -4.90342179704698400D-02 -8.95404034552857300D-02 -6.84102638712109200D-02
 9 10 -1.56248015050724200D-01 -4.22289572556513300D-01  5.00054272491177100D-02  4.44018265833812900D-01  5.67203537557060100D-02
 9 11  3.06980626846060700D-02  6.87075756717329400D-02 -7.42516293215308400D-01 -6.62533849449110200D-02  2.53079187852565700D-01
 9 12 -2.87594324937420500D-01  3.45151370848568000D-02  1.61300306322399400D-02 -2.35710016369326200D-01  1.50014066554349700D-01
 9 13 -5.00398360161017100D-01 -8.66574862995463700D-01  7.26237433399700700D+00 -2.41437519402132500D-02  3.91907488968476400D-02
 9 14 -9.23442382217215100D-02  5.47929266115587900D-01  3.78697745916955400D+00 -7.41673144124964500D-02  2.17897348846483200D-01
 9 15  2.06636527129406500D-01 -4.24533875975892400D-01 -5.70488862988613600D-02 -1.61338641209605300D-01 -9.96170356815292000D-02
 9 16  1.97793272260064200D-01  2.48575074320756400D-01 -6.01261183975131400D+00  7.63848952147606100D-02 -6.38622680700514400D-02
 9 17 -4.43581334937149700D-03 -1.01121793207306200D+00  4.57754537528957500D+00  1.05861670881139800D-01 -2.42255543814431200D-01
 9 18 -1.75056508240870900D-01  4.17312052055300900D-01 -1.57539828453050100D-02 -3.52963373044032000D-02 -7.82412188161167700D-02
 9 19  8.77128604724767000D-02  2.09424660689888400D-01  4.27907285719956500D-01  2.86093991685971300D-01  1.66633942017603000D-01
 9 20 -3.04597209392274800D-02  5.38566340974474000D-02 -4.79013427735683000D-01  1.22255110380672400D-01 -4.14001956549444100D-02
 9 21  2.88420318902639100D-02  1.63837914239414400D-01 -2.75974028837121700D-02  1.11074016764670400D-01  2.30733299191191700D-02
 9 22 -1.34147346683790100D-01  2.45493400927699800D-02  5.27409187460124200D-02  5.66491555200300700D-02 -7.72178508923291500D-03
 9 23 -3.12035256021926100D-01  3.19757041111158600D-01  1.63555489961765900D-01 -3.04129881746181000D-02 -1.19361176567511400D-01
 9 24  2.43415070029414600D-02 -1.49574349698705100D-02 -1.01032570662789700D+00 -9.38517995690661900D-01  2.68477965152952700D-02
 9 25 -3.91709373951773000D-02  3.70996135325099600D-02  3.59377149265883700D-01  6.37867339184533300D-01 -1.10985324657602600D-02
 9 26  2.59973588416808600D-02  3.69593880387518000D-01 -5.29028942128764500D-02 -9.79967263289287100D-02 -7.54436889944468800D-02
 9 27  1.73440415323376700D-01 -5.70251330699604800D-02 -6.68012446440662700D-02 -1.42508143052250700D-01  3.13392910153710300D-01
 9 28 -1.53891195708216900D-01 -1.59501714445493600D-01 -1.06239442250585600D-01 -6.00911788985976600D-02  1.31939125391417300D-01
 9 29  3.37011829583481500D-01  2.84517423687739300D-01 -2.84041933214907700D-01  9.90184924839612200D-02  7.57826324705444300D-02
 9 30  1.53791152243704300D-01  3.32330817533953900D-02 -5.58906675986674100D-02  1.70676596057247300D-01  5.29269168424480600D-02
 9 31 -5.34261214178524500D-01  7.88466836334918700D-01  6.37291368094409200D-02 -1.97038167210286300D-01 -5.63073999896969000D-03
 9 32  2.88409428084376200D-01 -9.35187311387330200D-01  1.05197906575734400D-01 -3.06377843620162800D-01 -1.40469209113892400D-01
10  1  3.47353876490482400D-03  1.28371423739080800D-02 -1.47532644399180600D+00 -3.69582056232021600D-02  6.33434185004597400D-02
10  2  7.02485155199884400D-02  1.69031300294508300D+00  4.24142738788271600D-01 -2.19265259565499800D-01  2.59033277703226000D-01
10  3 -2.22661957954021300D-01 -3.63713197492048100D-02 -3.13979005097747500D-01  6.50969102448654400D-02  1.38973090843170500D-01
10  4 -3.11562672528560500D-01 -6.38755082534171700D-01 -7.36546812148300600D-01 -4.60205235094019800D-02 -3.57106051123858900D-02
10  5 -3.82917201416442500D-02 -1.70027794409534600D+00 -2.76227054279627600D+00  3.34505206627093900D-01 -1.02069042890263100D-01
10  6  5.15801544461287600D-02  5.04888884441345300D-02 -1.98991700841353600D-01 -2.27762024625253800D-02 -1.06396962178730700D-04
10  7  1.72246517067035700D-02 -4.21117305350393700D-02 -3.74399572501489900D+00 -3.36206627427309000D-01  1.32415023286302100D-01
10  8  6.63750676935593200D-02  1.84745990852882500D+00 -2.95914271938602000D-01 -3.07938048400367000D-01 -2.33537899398315000D-01
10  9  4.20575466487121400D-02  1.91480352749602300D-01  4.14302038504640000D-02  1.58758910480703500D-01  1.36013429797414700D-02
10 10  9.21935509221888200D-02  2.29726891171865500D-01  1.88453127209993300D+00  6.50712059304314100D-02 -1.97063264787609500D-01
10 11  3.01324754272288900D-02  1.16348219177998000D+00  1.30890198253163400D+00  1.74348338568513800D-01  7.22364791381816000D-02
10 12  6.53128161756388300D-02 -1.37549295313821600D-01 -1.16075109957618900D-01  1.92539673326241300D-01  5.89486763450092300D-02
10 13  3.35874926127260300D-01  6.84324730530479300D-01 -2.32451953471658400D+00  1.17018479685011200D-01  5.59528895045504100D-01
10 14  1.58036453736517800D-01 -1.51637904250192000D-02 -1.49662747832423700D+00 -2.04905832407581300D-01 -2.19315347174118800D-01
10 15  1.82232763417605100D-01  3.70825837565150300D-02 -3.49514621128689000D-02  9.98684742862569300D-02  1.88591907939871300D-01
10 16 -7.44450242846040100D-02 -1.78754811518278300D-01  2.81944848276998100D+00  2.20200772621540600D-01  2.75211671184278100D-01
10 17 -2.43168429998195900D-03  1.52529600973888100D-01 -5.41523034108656100D-01  1.13547016805906000D-01  4.01638357754083600D-01
10 18 -5.21740990533414500D-01  1.20102632779330700D-01  2.15195427688706300D-01  1.03568096964344000D-01  2.03602093476874900D-01
10 19 -3.10931028235750900D-02 -4.72786324257811900D-02  3.15253774650221400D-01  3.40977846658877600D-01  1.41256796033500100D-01
10 20  5.75730086991449200D-02 -4.68700275097040000D-04 -2.72436619695704300D-01 -4.32251911292956300D-01 -4.91670747342136200D-02
10 21 -3.57770210598705400D-01 -3.02964606492888700D-01  7.10399900248036700D-02  1.92286038840975100D-01 -5.07807881133074300D-02
10 22 -1.41505250727667200D-01 -3.92208307184628500D-01  3.68399664552066000D-02  1.93814494702424600D-02 -2.74075240939883700D-01
10 23  1.69444844176764300D-01  1.04630396763121100D-01  3.80955377948387400D-01 -1.07752892082684600D-01  1.08457558520161900D-01
10 24 -2.99647466075001000D-01 -5.69418648956488600D-01  2.32366395692395400D+00  8.59733208613810000D-01  1.44936161977215400D-01
10 25  2.95009328206738100D-02  4.73019617198511100D-03 -1.18009310831289000D+00 -3.31567693748765900D-01 -7.36271010181931300D-02
10 26 -8.86621137320034600D-02  3.76493016680704900D-01 -3.94506458288066600D-02 -1.25789663422756700D-01 -3.57785940163559100D-02
10 27  1.61568257439112400D-01  1.50630837466426600D-01 -4.64259196633454100D-02  1.24400940173738600D-03  3.28436327531475800D-01
10 28 -1.98499727855552000D-01 -1.29936599675923500D-01 -1.35496236176910300D-01  8.49031118687244300D-02  4.69139690993377200D-02
10 29  3.94487082281716100D-01 -5.17360804001845500D-01 -3.65233758492025600D-01  1.37477444003851800D-01 -8.15467414821070300D-02
10 30 -5.83320383227435000D-02  3.63558503709865700D-01 -1.77567598734079500D-01 -2.29612880976216300D-01  4.86177340141314100D-02
10 31  1.36841073113507000D-01  2.57493695155336900D-01  9.33087045672007600D-02  2.57128856080898500D-01  1.72077593522852900D-01
10 32 -2.16421688192715400D-01  1.31082508111755100D-01  2.82064592184988400D-01  2.19414903300733200D-01 -9.05820449873060700D-02
11  1 -3.06413130586166000D-01 -5.13505124728966000D-01  3.40639997259715000D+00  1.24053856377283800D-01 -8.28245647716143300D-02
11  2  5.71824662101331500D-03  4.24759141270036700D-01 -1.12938955275484900D+00 -3.22737118656380100D-01  2.06801264713586700D-01
11  3  7.06546062281410000D-02 -2.77455870941727500D-01 -1.08853510065546800D-01 -1.06997506703482600D-02 -1.46161238873731500D-01
11  4  3.91874481569602600D-01  8.14235134958001300D-01 -7.67308677329004000D-01  4.15802547572323000D-01 -6.78411544166494200D-02
11  5  4.09676113719134900D-02  3.65518456704418800D+00 -1.04458081799663000D-01 -1.17063524274540000D-01  2.84565125545704500D-01
11  6 -2.59688786794048100D-01 -2.48763387516563400D-02  1.53354191845670300D-01 -1.45992203177623700D-03  8.15572237845458700D-02
11  7  2.61797032106367900D-02  6.62583539706626500D-02  1.70847487883752800D+00  4.10750182397044100D-02  4.85977370377183900D-02
11  8 -5.75361684031355800D-02 -1.95258337589537000D+00 -3.48896434615300800D-01  2.49387215831965300D-01  1.56708692718542700D-01
11  9 -1.90007736213849600D-01  3.32990434953081600D-02 -5.54404790939482800D-01 -1.72239170118467900D-01  4.87847242174669500D-02
11 10  3.43445271157148800D-01  6.77189611299474700D-01 -3.28576855689082000D+00  6.24070775867755800D-02 -5.79762362112508900D-02
11 11  8.08867940643791700D-02 -3.44161059356780900D-01 -6.92940207253335000D-01 -2.64747963249373300D-01  1.62244301445087800D-01
11 12 -1.54245979222823200D-01 -7.99832222226310100D-03 -3.18834454692253300D-01 -1.44299757452826700D-01 -6.07324730755985700D-02
11 13 -1.24473333035942600D-01 -2.13043742718616000D-01  1.60303341121468000D+00  9.56965175710370300D-02  1.05676429600797300D-01
11 14 -7.75520532061495100D-02  7.17420625600072400D-01  9.42880928594749100D-01  2.67465471869147000D-01 -3.73828693819822200D-01
11 15  4.34800123715831100D-01 -6.09714298960092400D-02  4.05826157186034800D-02 -6.66363319316254800D-02  1.23019744052173000D-01
11 16  1.42494724428269600D-01  2.35072823042196500D-01 -3.28020870354871200D+00 -2.04398767287741900D-01  2.10470185524115900D-01
11 17  5.06152891577456700D-02 -1.14978166617240200D-01 -1.45588664270135900D-01 -1.72573690220620200D-01  5.56385641087937000D-02
11 18 -1.52286724036732400D-01  9.66481599279397900D-02  6.50719749259380100D-02  5.75990478849078000D-02  6.99454861079964300D-02
11 19  6.01935064311747600D-02  1.05547674833284000D-01 -6.00121342810808300D-01  1.38391681365839500D+00 -7.13864700969086800D-02
11 20  5.30072426411977000D-02 -4.14993485100590700D-02  7.18214393124096400D-02  1.19641376445618200D-02  1.96664237525192300D-01
11 21  1.17305587285843500D-01 -7.88488766811053800D-01  1.31214357425566000D-01 -2.67656297969549400D-02 -1.29159928973093200D-01
11 22  1.55925558770047800D-01 -1.70141043490279300D-01 -1.42030517140944700D-02  1.43220253315037700D-01 -1.58063256058391900D-02
11 23  2.63174834890055600D-01 -2.47368509284217900D-01  1.41628939587802900D-01 -1.50446677890690300D-02 -3.27421695717801400D-01
11 24  2.60794720679890000D-01  4.79848260226802300D-01 -2.07584244998360800D+00 -1.44539517838050800D+00  2.48477549300241900D-01
11 25  1.37672665068614900D-01  2.30924617380598800D-02  2.64933609448676300D-01  7.47571042852542600D-01 -2.67753605367109800D-02
11 26  7.30370753865019300D-01  1.00265945791964500D-01  2.30705584148970300D-02 -4.71127222706495100D-02 -1.57724800651718100D-02
11 27  6.28852023358215900D-02 -3.23171243846272200D-02  6.40532507480629200D-02  1.06977172812959200D-01  9.64063182295308200D-02
11 28 -1.17574721254048900D-01  2.11684030245181000D-02 -2.78307280578468000D-01 -4.01672437058687100D-02 -1.19233766779625600D-01
11 29 -3.23324446341475900D-01  6.11615400878419400D-01  2.56521084824225600D-01  3.77655219494776200D-02  1.30305551483385700D-01
11 30  9.74383659928183800D-02  2.14255303340099900D-01 -2.62049127105164300D-01  5.61385937726988200D-02 -2.65262098385128200D-02
11 31  3.54637429346917100D-02  6.60249384744102000D-01 -5.69532050593652000D-02  3.00270676745671300D-01 -4.51009340406702500D-02
11 32  4.73224950391510600D-01  1.96482399214248300D-01  3.68156526375030900D-02  8.23134278995027300D-02  7.84322672874986500D-02
12  1  2.68965133167799600D-01  5.56594361507263400D-01 -3.22845432754758500D+00 -6.65918322669450300D-02 -5.48887588090271500D-02
12  2 -7.59289165623386700D-02 -7.28947116531472800D-01  1.48904949641529200D+00  5.12430918835494000D-01 -8.97404631886194300D-02
12  3 -5.68058829891607600D-02  1.46546346177781100D-01  8.49231228291956000D-02 -4.08885402766761300D-02  1.35590633909264300D-01
12  4  7.73663561157334100D-03  7.55612488125007300D-02  2.01974701274519100D+00  4.23941502863185200D-03 -1.60538916996027500D-02
12  5  3.78776336948610400D-02 -2.70057907421392100D+00 -5.21753807201871600D-01 -1.35352491854847400D-01 -2.04110224795766100D-01
12  6  3.63311570764648200D-01 -1.59201345968882400D-01 -1.66480986000288100D-02  3.06765634957870700D-02 -1.13461041592279200D-01
12  7 -1.65724530487567100D-01 -4.54132368363872100D-01 -8.05789367019344900D-01  1.05749823194136000D-01 -3.65305887403262500D-02
12  8 -7.52707871214924200D-03  1.11626446436199200D+00 -1.22332736914693400D+00  4.88853810861711100D-03 -1.07807998367282800D-01
12  9 -1.23830153592083400D-01  2.31638151959365700D-01  5.92816924133771600D-02 -1.81279403811451100D-01 -1.15678293088978100D-01
12 10 -2.11022150908015600D-01 -4.57193003940006200D-01  1.68405214882914200D+00  1.48938688899010900D-01  5.53755012335546200D-01
12 11 -3.27177446713069100D-02 -1.54928427021930500D-01 -1.83939860295144800D-01  7.87650426390122000D-02 -7.33838107913253600D-02
12 12  6.29783107891565800D-02  1.04055000021664100D-02  1.73509217151158000D-01 -2.54881678529669900D-01 -7.80492682292877900D-02
12 13  1.28468628477548700D-01  2.95132727562150900D-01 -1.12438897180073200D+00  5.21705816208466900D-02  2.28029429114963100D-01
12 14 -5.72147405345870100D-03  7.82220787406149700D-02  5.74709951155495900D-01 -2.15498187733971900D-02 -5.11774326846959300D-01
12 15  4.56217375659267700D-01  5.55569511876914300D-02 -4.14392944725329700D-01 -1.13038294663682900D-01  2.00574401126036300D-01
12 16 -3.84747985532350700D-02 -1.06569269195908100D-01  2.97615334576209900D-01  4.58042224549346000D-02  5.11857865530825100D-01
12 17 -3.42275497462810500D-02  5.33318793298125500D-01 -4.39199444754451800D-01 -1.78452162297206000D-01  2.24639576857962700D-01
12 18 -3.04473539915439700D-01  7.98339630574758800D-02 -3.38010067566082300D-01 -4.43286109629790100D-02  4.87335048298548400D-02
12 19 -1.33700409013664900D-01 -3.21519969781333000D-01  2.92997475160495000D-01 -1.12878218156419400D-03  1.28192807992134100D-01
12 20  1.59908644887308000D-02  4.40348842979014200D-02 -1.32953150970261100D-01 -1.24091047588281000D-01 -1.68273414052499700D-01
12 21  1.34766613623877300D-01 -2.29804544910747300D-01 -2.60274821132564600D-01 -6.46556996441010100D-02 -9.06274641714791300D-02
12 22  1.55283163815580400D-01 -5.47935262482932500D-02 -1.74537634370643000D-01  3.37279146994758400D-02  6.33082024430822700D-02
12 23  1.60968656691816100D-01 -2.24276859134897300D-01  1.75043432679188500D-01  1.38768423258156200D-01  1.11714767204876500D-01
12 24  2.73155669060985500D-02  8.65980634453581800D-02  5.00771957468068200D-01  1.13971896386926800D+00  1.20706349295548000D-02
12 25 -2.29622949865894500D-02  5.11599859949881600D-03 -8.21293655752648700D-02 -2.96977022975921400D-01 -3.65965454009140200D-03
12 26 -5.71308332003476200D-02 -4.66458744347914500D-01  1.11155521966366800D-01  4.07348723754763600D-02 -3.97068989699359300D-02
12 27 -1.02797340554005800D-03  6.15033877434037900D-02 -6.18421670584866600D-02 -6.66930495657617900D-02 -2.90648172992845300D-01
12 28  2.90022309739117500D-01  6.25863253727769000D-04 -3.65107018519144500D-02  1.67433622116101600D-02  8.53057203262322200D-02
12 29  1.42975538865393300D-01 -1.21280068204718000D+00 -3.35877961136978900D-03  1.30852878612661200D-01  1.66461566614487600D-01
12 30  2.95833128083997600D-01 -7.74832048094871700D-01  4.10930212275646600D-02  1.42943868713606500D-01 -1.25267777981596200D-01
12 31  4.71949230558158500D-01  3.91806635168112100D-01  1.49057272503310800D-01  2.49315370412683700D-01  6.06546283338049000D-02
12 32 -1.79145262179837800D-01  3.61948943557073400D-01 -1.57362219225339600D-01  3.45664290901489900D-02  4.06300305559013500D-02
13  1  4.91555507579572800D-03 -1.73718766699328300D-02  1.23421033430231800D+00  2.28717949770144900D-01  1.83164483586369300D-01
13  2  3.25938155879158500D-02  1.18910792875835700D-01 -1.38957007603874100D+00 -4.47404578802465600D-01 -9.93674995951082000D-02
13  3 -8.53124558042923600D-02  1.84679955399402300D-01 -1.92436484492343000D-01 -1.06848717134776000D-01 -2.12177816195528000D-01
13  4 -1.46474813702371200D-01 -3.02950954324261800D-01 -2.03695841845501800D-02 -1.31183883009631700D-02  1.05109616001729500D-01
13  5  8.37423168186807600D-02  1.90735483718376300D+00  2.99662671934006600D-01  6.07401811508423500D-01  3.82796063179088600D-02
13  6 -1.34830034853182000D-01  9.65504285352736800D-02  4.33164841092063300D-02  2.53414316422400300D-01  1.44583134831971200D-01
13  7 -3.13347015039267000D-01 -6.81909737922456200D-01  2.18178979350096800D+00  3.16147420245563700D-01  3.60261739138844100D-01
13  8 -1.90397880239236000D-03 -2.06794503144409300D+00 -6.92850767239768800D-01 -6.85432242118303900D-02 -4.93859243536213900D-01
13  9  4.26270587326101200D-01  6.75886562101120400D-02 -8.19983830542300700D-02  1.12927577727566400D-01 -9.87507810657270000D-02
13 10  2.64530699148559800D-01  5.64521366197007500D-01 -3.19856961799751900D+00  2.25491332710654700D-01  2.23545349392798400D-01
13 11  8.41850724308657200D-03 -8.26733177624425700D-01 -3.48859772847412800D-01 -1.00640713044785800D-01  9.35547361704193700D-02
13 12 -1.44167766710977700D-02 -7.91379594993217600D-02  4.10992477071887300D-01  1.29215277236187500D-01 -5.95564467170511500D-02
13 13  1.56406333368393700D-02  1.10018405340966800D-01  1.73173585836348500D+00 -1.74089977165234400D-01  7.41005394595587900D-02
13 14 -1.44678045992805900D-01  5.45089683185495100D-01  4.23743915679438800D-01  3.65021584582111400D-01 -1.26173469517590900D-01
13 15  3.23961967659884500D-01 -1.97788498142294900D-01  1.73619381876591800D-01 -2.74919509948556600D-02 -1.65765402689241700D-01
13 16 -1.44702268134624500D-01 -3.12904837400423200D-01 -5.43684336374011600D-01  8.99598140576084200D-02  3.88321617716196400D-01
13 17  3.47482623668379500D-02 -1.16396758568560800D+00  6.62294766805851300D-01 -1.46954708050330600D-01  3.46225435512211700D-01
13 18 -2.53257814176041900D-01 -9.29676213361691200D-02  2.32501682157548100D-01  1.32195051027192700D-03 -1.15871434297049800D-01
13 19  9.55677555304917100D-02  2.42127695399321000D-01  1.44460894231247400D-01  3.36327592456146200D-01 -3.59630520415771700D-02
13 20  7.80518918039117400D-02 -6.67460324781972000D-02  2.35682405192887500D-01 -1.88211049045949700D-01  2.75532475161826900D-01
13 21 -5.01372661546053200D-01  1.76290502261013700D-01  1.23150338301070700D-01  2.79921771415411200D-02  2.87555809954968800D-02
13 22 -5.67477581370396000D-02 -2.56397932711670700D-02  3.11693974096695100D-02 -9.22853014863729600D-02  1.39999320344444400D-01
13 23 -1.81156006423171500D-01  4.11566860787250300D-02  6.65790722803765600D-02  1.45387488335984100D-02 -1.93122149164196400D-01
13 24 -3.68924150476889900D-02 -1.18883137455190700D-01 -5.66536324091400300D-01 -3.31052674575277500D-01  3.80221981006674100D-02
13 25 -7.40314845248919700D-02  2.49285413474830700D-02 -5.86685092992195900D-02  2.16282588409588700D-01 -3.04834257817918000D-01
13 26  1.92675505197648200D-01  1.75089230817174800D-01 -2.08148675985027800D-01 -9.23819429979543100D-02 -1.07979277575416600D-02
13 27  1.03179870755496400D-01  2.35614758788946500D-02  8.61743387519694100D-02 -4.50153876274214700D-02  2.21589658974193100D-01
13 28  2.27508365864155400D-02 -2.44340495560608700D-01 -5.22212814799192000D-02  3.02461661359478300D-01  2.38895319464653900D-01
13 29  3.09431446988348600D-01  4.31387645657787300D-01  7.86349009291209400D-02  4.37771818724861400D-01 -1.32499447319474700D-01
13 30  2.37624676007130600D-01  1.52470545810786100D-01  1.59180694309156100D-01  6.58977055107330500D-02 -5.44701397133987000D-02
13 31 -1.61711758931760500D-01 -2.81804523167345400D-01 -3.51704032753693200D-01 -3.17125973186389400D-02 -2.23348486428639600D-01
13 32 -4.35876409475864800D-02 -1.18217695126986100D+00  1.63192109977991100D-02  1.63119977101676100D-01  2.27763042915823500D-01
14  1  8.33689716554402200D-02  9.01653000396110800D-02  1.22529032836101200D+00  7.47811230600449500D-03  4.37597139742067400D-01
14  2 -1.11471197897752200D-01  2.95089126769768300D-01 -2.40905611671106500D+00  5.94969916572693600D-02  8.73990071339329300D-02
14  3  1.89035729880815400D-02 -1.06302580122014400D-01  1.97438693847615100D-01  4.96445047587336500D-02 -6.27054698888469300D-02
14  4 -1.61879563782203900D-02 -5.49162181970230200D-02 -1.73287432891674300D+00 -1.97002668758538300D-01 -2.62974084482882800D-01
14  5 -4.20167402076045400D-02  1.16978737430083000D+00  9.69590634310754500D-02 -4.26569579721871700D-01  1.24302992954990400D-01
14  6 -1.09328272421306600D-01 -1.49747205336832500D-02 -3.09809826250967200D-01 -1.92646688689512800D-01 -1.56698193224295100D-02
14  7  1.64408171951576500D-01  3.79495968698840300D-01  9.26852840781253500D-01 -1.53246570042417400D-01 -5.69837233060377400D-02
14  8  5.90587081908784800D-03 -2.30284690789835500D-01 -5.52787235010430300D-01  1.71165050315729600D-01 -1.93673041030255100D-01
14  9  2.08226778011825000D-01 -1.45537369815694200D-02 -6.29740868309941500D-02 -1.05326399972340400D-01  6.71450408596831500D-02
14 10  1.25100814297644000D-01  1.85378789848563100D-01 -2.68975046186195300D-01 -3.70121172167515200D-02  1.15284595627568500D-01
14 11  1.00814788545272800D-02 -8.33718080043113300D-01 -7.62353064925037300D-01 -1.06938671506560000D-01 -4.50846289702055000D-01
14 12  3.46415384899502300D-01  1.04430904802551900D-01  1.01366387022372000D-01 -6.80703286530744100D-02 -2.32239380061346100D-02
14 13  2.90463906683581300D-01  7.11065886234657300D-01  5.75641874985508300D-01  2.32940560299429100D-01  2.34808246811240200D-01
14 14  1.91060364411755400D-02 -2.48915522271098100D-01  9.89460049878799500D-01 -2.32093385462806600D-02 -3.65551214775256600D-01
14 15  3.89067440061072000D-01 -2.35162252858162400D-02  9.87159189358661200D-02  6.02726503449450500D-02  5.63515998168109700D-03
14 16 -1.85901022252623100D-01 -4.74908090165180400D-01 -1.78051640341933900D+00 -2.48990781059248400D-01  3.36704474878153300D-01
14 17 -1.19784939338448500D-02 -1.83829420751364500D-01  1.01277839038367200D+00  1.27354834273979400D-01 -2.47855771715593200D-03
14 18 -1.70359264472593300D-01  1.72837822189748600D-01  2.23272714186107400D-01 -1.50269954544976300D-03  7.83616388129587800D-02
14 19  8.83764423307372400D-02  2.34576612102258200D-01  4.70738497165573000D-01  2.78789711637557200D-02 -4.26555309187491300D-02
14 20 -1.50522975513343600D-02 -4.36805083243146300D-02 -6.05899340944899000D-02  1.45810820771558000D-01  1.53990479821565200D-01
14 21 -1.31687152072987900D-01  3.19413669684970900D-01 -1.48216055843543600D-01 -1.26322056324921700D-01  1.70852496492589200D-01
14 22 -4.45304401676685800D-02 -1.26140158057958300D-02 -6.51271291263515200D-02  3.54117749618518700D-02  2.70495225788550500D-01
14 23 -6.15591414979080700D-01  3.45096189190528900D-01  2.52194818788182100D-02  5.64671871068031100D-02 -1.45322122226842700D-01
14 24 -6.19389622847047000D-02 -1.28235059463238700D-01  1.33337454663595500D-01  4.70902924528107400D-01 -1.37593254318303100D-01
14 25 -3.07334454971418300D-02 -5.50343191612638600D-02 -1.97690315589661700D-01  1.04090824103105600D-01  2.73345619225059200D-01
14 26 -7.49622042080613700D-01 -1.95169134196800000D-01  9.18602995771014700D-02  1.43325053188293700D-02  1.45681716645671600D-03
14 27 -1.57893224852857100D-02  1.28648200285496500D-01 -1.81167165539101400D-02  1.91506371067896600D-01  3.56782647376942300D-01
14 28 -2.39889621054758700D-01 -1.16893026322183700D-01  1.97218934344664500D-03 -1.51139276037879900D-01 -3.46917169209248800D-01
14 29 -2.97325489351094900D-01 -1.15813025801689000D-01  1.00547617222466400D-01  1.97329451239824600D-01  2.89667586763698500D-02
14 30 -3.55486108201439300D-01 -2.34498508407046300D-01  4.54761259266665100D-02 -1.89140968700605900D-01 -1.62048606057974200D-04
14 31  1.89078170919887600D-01 -8.65023034609577300D-02 -1.79458081135399800D-01  1.41662320202684500D-01  1.55541236893715000D-02
14 32  7.11084164596214600D-02  2.99983772854440400D-02  4.23438079168671100D-02 -8.03714969194251800D-02 -1.93661461844334900D-01
15  1 -3.61430196394493600D-01 -7.24307753484736400D-01 -5.08237974265016400D-02  2.09029382887880900D-01 -2.21266556466815300D-01
15  2 -8.54230019131749400D-02  1.90631176522439400D+00 -5.24468776780295600D-01  1.56990165944592400D-01 -8.78832037703619100D-02
15  3  1.46251540442212100D-01 -5.83683366718503900D-02 -4.61824222426938000D-01  3.89312004744835100D-02  9.23678831140392700D-04
15  4 -4.12489191767555400D-02 -8.20489397729348800D-02  3.91681901605284000D-01  1.09708375327832400D-01 -2.20308908325248100D-01
15  5 -7.97160209317466400D-02  1.45713002960853500D+00 -2.01278543277044800D+00  1.48037771233036000D-01 -3.30899693401293200D-01
15  6  3.10472157378248300D-01  2.04275360230449600D-02 -9.24409892786112200D-02 -1.46114843733750200D-02 -1.02533197926284400D-01
15  7  2.62909829126398200D-01  4.40228959193691600D-01 -4.85126627992113200D+00  5.25602266305553500D-02 -1.23343259837302700D-01
15  8  2.59061646537825700D-02  1.46765585578309900D+00 -3.17393642229781200D-01 -4.12026370791989700D-02  3.91763381505722100D-02
15  9 -1.82641833418453600D-01  1.43465495267880800D-01 -4.65125773661963500D-01 -1.48406811644708800D-02 -1.38886040050435400D-01
15 10 -2.18533978406773300D-01 -3.63443407011915200D-01  4.68785186285117100D+00  2.13793658210167900D-01  3.61970635374625300D-01
15 11  4.91920276213875300D-02  5.40426013694120000D-01  1.47629532390291700D+00 -1.11709370318717100D-01  7.53245206509105500D-02
15 12  4.04106339453364800D-02 -1.15735154596245900D-01  4.06977083284110400D-02  4.91072238980499000D-02 -9.19783071454851200D-02
15 13  1.50773292712204200D-01  2.13093046163074200D-01 -3.02971946194380400D+00 -3.14679813555378500D-02 -2.33457642909129800D-02
15 14  3.97512575920094000D-02 -1.69186212725621100D+00 -8.01489649372062700D-01  1.16478290356893000D-01 -7.63554698598092300D-02
15 15 -9.66474471864167800D-02  1.73002917046228000D-01 -3.34744398634043000D-01  3.47690590602262700D-02  7.21801269497782500D-02
15 16 -2.79784101374414600D-01 -4.76754008930351600D-01  3.88212918059323500D+00  1.05229371471578400D-01 -9.83191051537044500D-03
15 17  1.67560032461275100D-02  1.02323246814585300D+00  1.72148302839615200D-02 -1.03757358188385200D-01  1.82498606750928500D-01
15 18  4.69300793144203500D-02 -2.29428686065348400D-01 -1.76901820244663700D-01 -3.97978827478142500D-03  1.03777583913914900D-01
15 19 -1.28248368025270000D-01 -2.42406442833136800D-01  5.29953073613773500D-01  6.93022136165319500D-01 -4.76115929849565900D-02
15 20  3.09123138713258100D-02 -3.52965125329632700D-02 -2.37523711768018300D-02 -6.17359201613132000D-01  4.44231235008083800D-02
15 21 -1.25749066214681400D-01 -1.24845558324958300D-01 -9.02854088658996700D-02 -6.64488674154389400D-02  3.39899912293665900D-02
15 22  3.24588761860744000D-02 -3.09600550363250600D-01  6.04518586295711400D-02  3.32017955025589700D-02  4.84776759531563600D-02
15 23  2.57820935441242300D-01 -3.06298611394396600D-01  5.74828022111346400D-02 -6.89521740220129000D-02  4.79201427141670100D-02
15 24  1.07523992796858300D-01  2.15785209500979300D-01 -3.39571101149966000D-01 -5.33204982813014900D-01 -1.26860726429896700D-01
15 25  1.23264801880355100D-02  8.48621261621652700D-03  4.41991195063079800D-02  2.48492167103096000D-01  1.79444113198063000D-02
15 26  3.36341590241477400D-02  5.71752556055511300D-01 -8.36359774278423300D-02 -8.46705433169605000D-02  1.00904681837059100D-01
15 27 -1.62341385200987200D-02 -9.31847206908301000D-02 -9.27399836053792600D-02 -5.96106024019821100D-02  2.50074430381027600D-01
15 28 -3.92457156271006500D-01  1.42382725889979100D-01  1.19725765379581400D-01 -2.98267501159891700D-02  8.01512306229205900D-02
15 29 -3.08656860303999100D-01  4.58953152375149900D-01 -1.06914102074019700D-01 -1.34962478220731800D-02 -7.29911249033773800D-02
15 30  1.46217184139202400D-01 -1.92278486218520800D-01  1.34245217771620500D-01 -4.76447958148819600D-02 -5.54732701023582000D-02
15 31 -8.76960539756367800D-02 -6.83045964528641700D-02  1.51512223863573100D-01 -3.32703364497045600D-02 -2.04689452051559200D-02
15 32 -1.22813961924571800D-01 -6.78754979217417600D-01 -4.98071316731530700D-02  3.98799736310118700D-02 -8.95702547685534900D-02
16  1  3.98935187919322700D-02  8.16928575413765600D-02 -1.26481848091494500D+00  1.84489131344958800D-01  8.69955627463373100D-02
16  2  7.34492586453168600D-02 -1.81755700113873800D-01  2.35758416818351600D+00  4.55894172936779900D-01 -3.64369059223625600D-02
16  3 -2.03446794881491400D-02  5.67815854105129900D-02  2.58236598682166100D-01  3.41350322475666700D-02  9.87959817214128700D-03
16  4 -3.32868484613690700D-01 -6.28108691118882900D-01  2.80729788850886600D+00 -1.62949147566027000D-01  1.14671588973187700D-03
16  5  3.53628529029335800D-02 -1.03325861410141700D+00 -1.46418377027449600D+00 -8.24392120341779100D-01  1.72136448660071200D-01
16  6 -7.23807308157284500D-02 -9.97557178443437700D-02  3.44224645585740800D-02 -1.13286748799994700D-01  6.94703334550446000D-03
16  7  1.94946279425125000D-01  4.28191514262169800D-01 -1.33612884610661300D+00 -2.08610666021100900D-01 -2.49358621078308800D-01
16  8 -7.20661902231533900D-06 -3.82591200074253600D-01 -6.93711045862697300D-01  1.89641157769540500D-01  2.69420575425989200D-01
16  9 -2.47572968295573100D-01 -2.18476071304173200D-02  1.85074051689810600D-01  3.20567829999994300D-02  2.36168203259844000D-01
16 10 -6.57577971622349100D-02 -2.77919577581230300D-01 -5.96432109047536000D-01 -6.55743234413601800D-03  4.30727291984299200D-02
16 11 -7.80997362480663900D-02 -2.44857285706043200D-01 -7.91712667177811400D-01  1.64081092988465600D-01 -2.64491548219224700D-01
16 12  8.33560674979263700D-03  2.56155941469429800D-01 -2.15480937820315000D-01 -4.82341941366169500D-02  4.55059136993904700D-02
16 13  1.39641285675835400D-01  4.08261204961652000D-01 -4.56899231446698500D-01 -1.09128631693790100D-01 -2.05688690469364000D-01
16 14  9.57444373980917100D-02  3.82107841757824300D-02  1.18207324188814200D-01  5.50091119993719900D-02  1.74236345154300900D-01
16 15  7.91029555870005200D-02 -2.53339300741300700D-01 -2.52935395565334100D-01 -1.87620732163415500D-01  1.74324972551549400D-01
16 16 -1.22806726598672100D-01 -2.29900924248171900D-01  1.53187772193317600D+00 -8.92655394688678800D-02  2.56528531663991500D-01
16 17  2.54608768144458900D-02  1.22511453660162500D+00 -5.80342107690553600D-01 -4.23297370940682500D-01  2.72624967682983300D-01
16 18 -1.14257925377581600D-01 -1.58367042305400900D-01 -2.29108716101558900D-01  5.81642646298468600D-02 -3.75475869732493400D-03
16 19  1.22620523811554600D-01  2.33544465993004100D-01 -1.02316055831830900D+00 -8.52733913037474400D-01  1.48259678068992400D-01
16 20  5.25256912156516900D-02  8.44022099377907800D-02 -2.64071565819051400D-01  1.63318993877762500D-01 -2.82635359144957200D-01
16 21 -1.91659992940352100D-01  2.53011483913500200D-01  9.98244951012096800D-02  7.64708985257554300D-02 -1.13021234834919000D-01
16 22  3.65503363091638100D-02  3.46668945170795600D-02  9.46258323899233400D-02 -1.80400570429366400D-01 -2.05481677253714200D-01
16 23  2.53387632550613900D-01 -4.79059552968994800D-02  2.27818620822446200D-01 -5.58723838249709900D-02  1.99008627224946400D-01
16 24 -7.46066728905509000D-02 -1.45622111745931300D-01  3.30177402959431700D-01  5.34824809545684900D-01  9.76207684170456300D-02
16 25  1.00137482133605200D-01 -7.19217150303936000D-02 -3.56039841715384500D-01 -1.56765307448813100D-01  3.34617594289622400D-01
16 26 -1.25008150771980200D-01  5.48159376965802300D-01  1.27671921711206000D-01 -1.04571744372258500D-01  1.76964389684097400D-01
16 27 -7.23926453118390000D-02  1.38287199531464800D-03  1.02364233801020400D-01  9.50206250707035800D-02  2.67102939401717400D-01
16 28 -2.09570039530328600D-01 -5.75328998713889700D-02 -1.97142165209498100D-01 -2.72699277284392800D-01 -2.99591815949404300D-01
16 29 -3.83567339054627200D-02  4.39159202144561100D-01  4.27840582045764200D-02  7.28919885272407400D-02  3.31878108325735800D-02
16 30 -1.42294134650738200D-02 -1.55305959221482700D-01 -2.07752854290432600D-02 -4.38123331568162200D-02  3.80438984066382400D-02
16 31 -7.34698171422524200D-02  7.10178361338820900D-03 -5.93578946127146100D-02 -2.14842130365025900D-01 -2.15230642269034800D-01
16 32 -9.75178139167669200D-03  2.63415827944994800D-01 -2.29642834400398500D-01  6.11035801442334100D-02  3.24441072018397600D-01
17  1 -8.89157954817970700D-02 -1.81320300965362300D-01  1.06806126279338000D+00  8.53645923684136900D-03  1.05972925461965700D-01
17  2 -2.08956842670326900D-01 -1.27033734096829500D+00 -7.60594419174903700D-01  6.81542194281356500D-02 -1.29615497393998500D-01
17  3 -9.19099228566650600D-02  2.21525420250664300D-01  1.55143107284068000D-01  7.37479449677117800D-02 -2.36311405775596900D-02
17  4 -2.44892719755166800D-02  3.19511322624817800D-02  1.13630007423495300D+00 -1.15886309977374100D-01  6.27354083305483600D-02
17  5  1.11562586640627500D-01  1.12349256129571800D+00  6.12172227391494600D-01  2.28519135239513500D-01  3.47599718331888500D-01
17  6 -2.58939813629360600D-01 -8.86599047025284100D-02 -7.45676958206722000D-02  1.52530339724913100D-01  5.13896783704113300D-02
17  7  1.55712459510322200D-01  4.27976472282564000D-01  1.02718135981593400D+00 -7.09920871641376200D-02 -1.65195962744264800D-01
17  8  1.41003389752910600D-02 -1.19161422121708300D+00  6.69312175767348600D-02  2.74542929927285500D-02  3.63439957578405700D-01
17  9 -2.04382592312287700D-01 -1.59057365266118900D-01  9.44224586074996800D-02 -1.35027063021522700D-01 -1.79140132029851900D-01
17 10 -7.37961078815233500D-02 -2.47388131098160000D-01 -2.66868611838742400D+00 -1.60030496495042800D-01 -1.55518984022771100D-01
17 11  1.42554263947052500D-01  2.85374260027736100D-01 -7.38359739219817700D-01 -3.36412865451330600D-01 -1.40911977360025000D-01
17 12  7.72528983465572600D-02  6.36590790134685100D-02 -1.72875944203396200D-01 -1.35188202582811100D-01  3.52207253536781200D-02
17 13 -9.63198894431267100D-03  4.61932044124192700D-02  1.83776353773921500D-01 -2.49898026165277300D-01 -6.34168432797644600D-02
17 14 -5.16002828631452300D-02  1.72007099787941500D+00 -9.53692068846130800D-01  8.53195886455323400D-02  6.09639676714204600D-02
17 15  2.78928919235201700D-02 -8.88568595949407500D-02 -2.36431658481709400D-01  1.18645788947384200D-01  1.59563050248323600D-01
17 16 -9.17479327727163000D-02 -1.95276980953580200D-01 -1.75764329295058300D-02  2.42412107687681100D-01  7.81528649541373800D-02
17 17 -9.86528065785425700D-02 -1.55436747701314700D+00 -1.09620491884517600D+00  1.09584960243947200D-01  7.08159196790332400D-03
17 18  8.03999835752204200D-02 -8.74815755431227100D-02 -1.72055206405102300D-01  2.04407419546330900D-01  2.63646362945217300D-01
17 19 -9.42924885711218100D-03 -3.48158165963499800D-02  8.88174594293177100D-02  9.05955678929870400D-01 -9.36369917145052200D-02
17 20 -9.37504467455871200D-03 -4.33554476255226000D-02  2.76387007472969500D-01 -1.63901951209844900D-01  1.49141636711715800D-01
17 21  4.94739700453274100D-02 -1.61103181995974500D-01 -2.21587454257781200D-01  1.59052999922981400D-01 -8.56187630453705700D-02
17 22 -7.34342368776113400D-02  3.35070721941976200D-03 -2.19338270302427900D-01 -2.02869725297148600D-01 -1.17114374805906000D-01
17 23  1.89210203427740300D-01 -7.20958286218352600D-02  1.81681780831524100D-02  2.10882454693013000D-01  3.63092531759656800D-02
17 24 -9.74415254814393500D-02 -2.63333680060133800D-01 -3.35000200279882000D-01 -1.03002111127700700D+00  2.16046289206194800D-01
17 25 -5.80179400466224300D-02  7.19236667151385200D-02 -8.62331510386246300D-02  4.66034452325197900D-01 -3.00402257066347300D-01
17 26  5.56364374053287200D-01 -4.11197585815173800D-02  1.04744323115226500D-01  2.06480531214812200D-01 -2.49235851364131100D-01
17 27  4.27553201493186700D-02 -4.03138648829385300D-02 -8.04533502248371600D-02  8.45598636822535700D-02 -2.31517746058400300D-02
17 28  9.20962276600261100D-02 -6.89444530541861900D-02 -4.11652074994785200D-02  3.48246444764292700D-01  2.29991714076773000D-02
17 29 -2.99367575981214600D-02  2.38627357264489700D-01  9.96542100055504100D-02 -1.51381303644252800D-01  4.42650401490182500D-02
17 30  6.47936076080031200D-02 -6.01906389820366100D-02 -7.15398248753763500D-03  1.42124090783424600D-01  4.09280402577510600D-02
17 31  1.30690568590955400D-01  1.50510325353459600D-01 -1.30152751750469900D-01  1.32241241456519200D-01  2.98016120705990800D-01
17 32 -6.50979493503690800D-02 -5.57950501803551100D-01  6.27449188903520000D-02 -1.11071412217845400D-01 -5.76034008127079200D-02
18  1 -6.05687079327887000D-02 -8.04037044900016300D-02 -2.42258834142690000D+00  9.06708924373626500D-02 -3.42022136017722200D-01
18  2 -1.07253998820223800D-02 -5.24335770107958500D-01  2.74981926432890600D+00  3.06124291278242600D-03 -2.98293667544001800D-02
18  3  1.37328472706896400D-01 -1.07499105952495600D-01  1.21466864120095500D-01 -3.27983897993844000D-02 -2.91618987588757500D-02
18  4 -3.16434079977264400D-01 -5.58369290571944400D-01  1.89310329391898400D+00  1.89858227298029300D-01 -2.58128833563374800D-01
18  5  2.68043527101512800D-02 -4.03902242566528100D+00 -1.44265584255121900D+00  1.66516762188509700D-01  9.48932549342733200D-02
18  6 -1.05523031149399100D-01  1.06297762151251400D-02 -1.15277694382693000D-01  1.78312108426070100D-01  1.29732103210331000D-01
18  7  1.88511593147566700D-01  4.04433517674429000D-01 -2.07757461995860700D+00 -2.78587780140213200D-01 -1.74268615707479500D-01
18  8 -3.26834565288196000D-02  2.58965848364448700D+00 -1.54894358740123300D+00 -3.40986982660803400D-02  1.02138500736506700D-01
18  9 -1.03410485251970300D-02 -9.17974522113112800D-02  1.17227586288832900D-01 -4.86046857414839900D-02  1.61536833545160300D-01
18 10 -1.76580424969235900D-01 -3.70733924294217200D-01  3.04843434623198200D+00 -1.16263747842419600D-01 -1.42890702034784400D-01
18 11  7.65141904912607600D-02 -6.92381938718290500D-01  1.58781973851820700D+00 -7.81312765340078100D-02 -2.85548256433670800D-01
18 12  2.50033354343391600D-01  3.55149020902764700D-02 -9.70914041289817200D-02  1.46944106286442900D-01 -1.43871642069533300D-01
18 13 -6.48149956000193800D-02 -1.90631837688180200D-01 -2.66804049360476900D+00  4.06497629651241400D-01  1.85009471165039200D-01
18 14 -6.23395426972355900D-02 -1.38087977995717300D+00 -3.72064620550220800D-01  2.32778076901993800D-01 -2.95552325091003500D-01
18 15  1.25671075501341100D-01  1.69881249589663700D-01 -2.83943747939627900D-02 -8.32155930119298800D-02 -1.62167721481890500D-01
18 16 -3.26112999225792300D-01 -7.01024031506692000D-01  2.80070553168027200D+00  3.08598756528365800D-01 -1.40480975903901700D-02
18 17  4.61040634492411900D-02  7.93123568555539900D-01 -7.12844184477893700D-01 -1.25119162048248000D-01 -2.83197364370130900D-01
18 18  1.80083235452451800D-01  1.03114128917677600D-01  7.94158816413936000D-02 -7.69227945930026100D-02 -1.07364724194292600D-01
18 19 -3.99234869155765400D-03  2.99751183842312900D-03 -5.00781180383433700D-01 -1.18142351717398600D+00 -4.79586489237581300D-02
18 20  1.35297955948889100D-01  9.55473428745635100D-02  2.23745385378116300D-02 -2.40893427568184600D-01 -1.34070711661462300D-01
18 21 -9.19319755464634000D-02  4.59107898610913300D-01  8.28170231087509600D-02 -8.31295000291596000D-02 -3.92592307342317700D-02
18 22  1.22388730763392200D-01  9.11810042588091600D-02  6.28608490237629000D-02  2.29542390719219800D-02 -1.40993487678896400D-01
18 23  2.68572399900834400D-01 -1.27578912221936600D-01  6.81722997334041800D-02 -7.95020277218757600D-02 -1.18996494267151800D-01
18 24 -2.59619367605043300D-01 -5.01953480307593100D-01  2.05770791492527200D+00  1.77864284957923800D+00  2.07855307258055900D-01
18 25  1.84042195066242400D-01  7.45220499949702000D-02 -8.60427175895221600D-01 -6.32362387020219700D-01 -2.79842239832542800D-01
18 26 -3.75312358039153500D-01 -6.82739537719880800D-02  5.11541014760866700D-02  4.06361959585056800D-02 -1.60714312914692700D-01
18 27  1.20078116956186900D-01  2.72153969606141700D-02 -9.59891409773454800D-04 -3.16173815498610200D-02  2.25101780264509100D-01
18 28 -5.94643128882988100D-02 -1.65637467376210100D-01  3.84704581368460600D-02  1.62867871801924600D-01  1.22381018081260400D-01
18 29 -1.97676299772883800D-01 -1.55121169210920100D+00  6.86958687918469300D-02  9.93054582428541200D-02  1.11945341711648200D-01
18 30 -3.47236875095124100D-01  6.47515410750342000D-01  9.58641440219287500D-02 -6.35207699179038100D-03 -1.76308901963054300D-01
18 31  3.87034460238144400D-01 -5.24843613957693200D-01  2.18147925161629000D-01  2.43705241724691900D-01 -2.06974243894269700D-01
18 32  3.65639684465110000D-01 -1.94120317973185700D-01  1.92752053049815000D-01 -2.72030320472045300D-01  3.09484801319505100D-04
19  1  1.13756146762695400D-01  1.64974387685889200D-01 -3.33864052199272400D-01  1.88008757071330300D-02  2.37717272157162500D-01
19  2 -9.49082123070277300D-02  1.32746842183899200D+00 -1.41982185643954500D+00  1.89722634276798400D-01 -8.47529393974695700D-03
19  3 -2.78389757322794100D-01  2.86865051262540500D-01  3.10442355749635600D-01  1.05067897163040700D-01  1.18199847490655900D-01
19  4  2.16519996704872400D-01  4.74274963424014900D-01 -1.18756357530513400D+00 -1.28230874591806500D-01  7.63156066249603000D-02
19  5 -2.11305107911342800D-01  1.05729809833656800D+00 -3.72075482124607800D-01  4.83868318413502600D-01  2.03803165855016100D-01
19  6 -8.54009372567877400D-02 -1.18402228598228700D-01 -3.35861170307800700D-03  4.17530098284786500D-02 -3.99832445284648800D-02
19  7  7.25530900722071700D-02  9.12004544635183400D-02 -3.34498558556407900D-01 -5.18949881163049500D-02 -4.41591076364406900D-03
19  8  2.09707084706855000D-02  2.40805074392724100D-01  2.15686623185094000D-01 -3.88644600139528800D-01 -1.11816234089968000D-01
19  9 -5.36410538675485300D-02  1.65457287957516600D-01 -1.19052694654754300D-01  1.61334068112616900D-02  5.74421424273483800D-02
19 10  3.43612588892855500D-01  7.91444190873995100D-01 -9.94226832923243800D-02 -1.41967538025596100D-01  5.70095032767972000D-02
19 11 -5.13385849095648300D-02  4.25816678181582800D-01 -2.52036893542061500D-01  4.65134197585535500D-01 -2.11933887405852000D-01
19 12  2.16116162944449400D-01 -4.18227553859680900D-03 -1.05913454728220300D-03  7.29072348683521000D-03 -9.96622899420084200D-02
19 13 -7.48993698197375500D-02 -1.93636337409507900D-01  7.37081369895541300D-02  2.77910513944767500D-02 -1.23000515279391400D-01
19 14  1.97567131539506800D-01 -4.29950958934531500D-01 -3.64473812094040500D-01 -3.08083342942159800D-01 -1.91417095127178100D-01
19 15 -6.61797913134809100D-02  2.57596886440658800D-01  1.81315002219990600D-01 -7.08202615445059200D-02  1.88531080160968500D-01
19 16 -2.36756205268353300D-01 -4.84035856508879500D-01  1.41881420143686300D+00  1.85576969936077600D-01 -2.58575092568277700D-02
19 17 -3.51848911114649500D-02 -5.94804675595987900D-02 -7.02017127287602900D-02 -5.63917181137493800D-03  4.82186736676943300D-02
19 18  1.73879260076934200D-01 -2.22097933744627900D-01  7.25213753900722700D-02  1.55342060530470300D-01  1.31597477586291500D-01
19 19 -4.12718466294555300D-02 -6.87701678435530800D-02  8.37385439130170900D-01  7.44277825196982000D-01  1.93794020660454000D-02
19 20 -6.61298178249566500D-02  4.52768955797045700D-02 -3.79921306416315800D-01 -1.41226443367478800D-01 -1.52422348204481500D-01
19 21 -1.98205225225758400D-01 -3.57802699223685800D-01 -4.14863556001083900D-02 -7.80031830166229400D-02  1.08616693583731500D-01
19 22 -3.06135105671085500D-02  2.93163758456905700D-01  1.61187251468722600D-01 -1.22376653677922600D-01  1.71715021155394800D-01
19 23 -2.41928433491382900D-01  7.02134123359882000D-02  1.59402331151399500D-01 -2.03209239138521200D-01  2.36776603233626500D-01
19 24  8.38387845480330600D-02  1.72477470026345900D-01 -4.67370832450673800D-01 -2.56186400671744700D-01  2.67084047528149000D-01
19 25  5.65660164400319100D-02  2.14785277066015100D-02 -2.71281166612954500D-01  2.47252490375045000D-01 -7.24251647729786500D-02
19 26  1.83767742170468300D-01  8.93518022747736400D-02 -1.79137389929244900D-01  1.63950090549183400D-01 -1.03237439858368800D-01
19 27 -6.07126506908145900D-02  2.37254727851101000D-02 -8.75868963622853500D-02 -1.22713092647353400D-01 -1.97089964711271600D-01
19 28  1.17174777980346600D-01  7.99151867309250600D-02 -1.73978104614762300D-01  4.12905754145748400D-02  1.20528647227967700D-01
19 29 -1.25169884992838100D-01  7.21194288300137000D-02 -3.27759415800564100D-02 -1.41199197997845900D-01  9.41278990082506800D-02
19 30 -3.97586066059949900D-01  1.04392952498828100D-01  1.38842385814906900D-02 -2.35919795597542100D-01 -2.56846222970647500D-01
19 31 -1.98028109991128500D-01 -2.64837073084731700D-01  6.44949177617008400D-02 -5.46038179459475100D-02 -2.12652320449253600D-02
19 32  9.26617741987292300D-02 -3.88690799277924300D-01  2.06850501379496300D-01  1.10399783271038000D-01  3.25234359034100400D-02
20  1  9.18392419100294400D-02  9.29837442684323900D-02 -2.76734837401402600D-02  2.03244772167269300D-01 -3.20441856806346800D-02
20  2  2.36670210788295600D-02 -1.72315845198339100D+00 -1.99615122963765900D-01  2.26542447468217500D-01 -1.18723299603668600D-01
20  3 -1.04273115514189900D-01  2.22996415117859800D-01 -1.44165405537862300D-01 -1.14499365936340200D-01  6.18828247919005800D-02
20  4 -2.52634247990796100D-01 -5.61797414961423200D-01  7.90904515223568100D-01 -7.77182711116424200D-02  7.96889687690250200D-02
20  5 -8.51391438777178400D-02  5.00942580103467000D-01  2.24491051718272000D+00  2.48648730268084700D-01  1.70748346563703300D-01
20  6 -1.76607111504090900D-01  5.85876494038807300D-03 -6.35781863173747600D-02  6.42946422716446400D-02  8.29293831089752700D-02
20  7 -3.21318632573536900D-01 -5.41231657575373500D-01  3.85793608499164400D+00 -1.52793701532732900D-01 -8.45295409863808100D-02
20  8 -7.40241490466612000D-02 -1.17525247097883100D+00  1.18864680442326800D+00 -6.77841737379542400D-02  2.10789248244511300D-01
20  9  2.02091234638497000D-01 -4.12880482883008400D-01 -1.00027108066449400D-01  5.59471519029111400D-02  2.11329878930661900D-01
20 10  2.13902872078119400D-01  3.47793357709767300D-01 -4.43012750935956100D+00 -2.71357416191242300D-01  4.83497482611480100D-02
20 11  6.02422504384038400D-02  1.01926091512838800D+00 -1.60839364870890500D+00  4.25210714141667500D-02 -6.74377624655283400D-02
20 12 -1.31635162454067500D-01  1.99072924919596100D-01 -4.17273384777238900D-02  1.03751709141251100D-01  1.60848797646998600D-01
20 13 -5.40191692903615800D-02 -7.85154677142667900D-02  1.72235169174605400D+00  6.29848861401710300D-02  1.39314188973898500D-01
20 14 -2.57729586584263500D-02  2.06939104220406000D+00 -1.14361077413444700D+00 -3.01958628385985300D-02 -3.88498922024176400D-02
20 15 -1.49344717293255200D-01  1.88194609495671700D-01 -1.60979115142796900D-01 -3.30249006681412600D-02 -1.09777540376786600D-01
20 16  1.02405987315967900D-01  2.53311139505280600D-01 -1.71372818852340600D-01  1.14356079140312000D-01 -9.93368589954723800D-03
20 17  3.82115063018268800D-02 -1.11267651518982400D+00 -2.96011863364046600D-01 -9.23868731595851000D-02  3.73390423451460600D-01
20 18 -5.88907036729409100D-02 -3.14499719778519400D-01 -2.71566412878098900D-01 -7.84347742353276600D-02 -1.59415964649789900D-01
20 19  1.49877845204117200D-02  3.59169709993277700D-02  1.60830634008494100D-01 -8.14479728623614100D-02  9.68437573408616500D-02
20 20 -1.06110866699634800D-01 -1.14516143785699700D-01  1.06619833604904300D-01  1.12801409966876400D-01  6.69905010359771600D-02
20 21  3.41972739982675700D-01  7.44645609667714700D-02 -5.24995532475865800D-02 -2.45911362151266900D-01  2.42137447379922300D-01
20 22  3.77391477134339600D-03 -2.01658585640479600D-01 -6.08868728135840800D-02  7.09122713045657700D-02  1.19931756108369500D-01
20 23 -2.01365138747824500D-01  8.14333826394532700D-02  3.05338662328519000D-02  8.96673970067005200D-02  2.11202336825744300D-01
20 24  4.61684919491205900D-02  9.35164655966209400D-02 -6.94587836062763100D-01 -1.04163549323462600D+00 -8.93222459679595500D-02
20 25  1.75641709520430100D-03 -8.45339704575759500D-02  3.75073681355906100D-01  9.58599532653169700D-02  1.47330405480392700D-01
20 26  2.45324494100471000D-01 -1.14786833121747800D-01 -4.21454331461541200D-01  1.27941070421104900D-01 -1.11309501567034500D-01
20 27 -1.66315688540705500D-02  2.06039656574723800D-01 -6.33455658267198400D-02 -2.04919310734141500D-01  1.24983924395293300D-01
20 28  1.61246480309434900D-02 -1.41108572426236700D-01 -1.07816463099333700D-01  1.47500751458038100D-01  7.80634706125588700D-02
20 29 -4.07294489385004200D-01  3.98774100292311900D-01  4.17633493617678800D-02  1.21683553745370900D-01  1.42098291279664600D-01
20 30  2.26979324070935700D-01 -3.23033596613266400D-01 -5.21940255280635800D-02  2.72811667212607900D-01  4.21525585048532400D-02
20 31  4.30636084307335500D-02  6.21543901482831100D-01  1.33282453555039600D-01  2.74955046714852400D-01 -3.82269160918328700D-02
20 32 -5.20076707242984200D-01 -7.11466133218529900D-02 -1.87094661388056600D-01  5.11858676924741400D-02  3.42944951894411600D-02
21  1  1.92170988826213800D-01  3.40521142189952200D-01 -3.46483032303773400D+00 -3.19831511358090700D-01  2.86122212357448900D-01
21  2  5.33936244852891800D-02 -1.91208243134727700D+00  2.25201284028897100D+00  3.35556422533730600D-01 -8.32239566623899400D-02
21  3  1.20089763674212900D-01 -3.68658070118224000D-02  3.38203614190229000D-01 -2.85313647789648200D-02 -1.13743912186626100D-02
21  4 -1.03520762039556400D-01 -1.22102762168676500D-01  5.95946308153365200D+00  2.28875984923462900D-01  1.60936137011517100D-01
21  5 -4.61146986472614000D-03 -2.52172320511679600D+00  2.40631800706787900D-01 -3.23384020235501700D-01  4.63503438183421300D-01
21  6 -1.93027816454920900D-01 -2.70475621728501700D-01  1.59612117965477800D-02 -1.39137821597298800D-01 -1.15613257069800400D-01
21  7  3.46273332091418800D-01  6.74665035885661300D-01 -3.28490353193493600D+00  1.12514423780845000D-01  1.12657558559468300D-01
21  8  7.72881038592143100D-02  2.32380996398614500D+00 -1.15097093792863400D+00 -8.97085230157742800D-03 -1.19866017909628700D-01
21  9 -1.28551248347591600D-01  2.48417266257220100D-01 -1.41446456860096900D-01  3.31409464160976000D-01 -7.02730646142024100D-02
21 10 -1.91816831514100000D-02  3.69228490764055400D-02  3.32524955800754600D+00  1.60034966583394500D-01  2.20114616323573500D-01
21 11  4.54220852396937200D-03 -4.89533643119134600D-03  1.41556573887834000D+00 -7.04862577663798900D-02  3.79863714739370500D-02
21 12 -3.59397617508897000D-02 -2.04660972304955000D-03  4.99895698669267900D-02  2.98759091173190800D-01  1.51052184625488000D-01
21 13 -1.43401903416170300D-01 -3.29189044505298000D-01 -9.64449145400275800D-01  9.35222518817692800D-02  1.14217198064379400D-01
21 14 -2.50951975426011900D-02 -1.40063517701628100D+00  3.30329769783677200D-01  1.75996407520628400D-01 -2.09556808018878000D-01
21 15  2.25280641895840900D-01 -1.57238338769629000D-02 -1.20736962364721000D-01  1.82278975580060000D-01  2.33138544382424800D-02
21 16 -1.29652503861911200D-01 -2.54138672793170700D-01  6.11962802015828000D-01 -2.18885585684924900D-01  9.86846259449029300D-02
21 17  4.07760539867214000D-02  1.19342141186033700D+00 -2.47293819386176000D-01 -1.93130827668882800D-01  2.35519577433173500D-01
21 18 -1.05463654835346300D-01 -1.30055922597827800D-01 -3.35692260559768200D-01 -2.19754294073547000D-01  6.93633326537178400D-02
21 19  1.19806587528466500D-01  2.04268392573729900D-01 -9.75048857373815400D-01 -1.97752516521693900D-01 -2.70668515092217600D-01
21 20  7.86061102044894900D-02  6.68393287239744500D-03  6.52944209076663500D-01  2.75607287490349600D-01 -1.32688583517945000D-01
21 21 -7.06625925688398200D-02 -6.47960619701167100D-02  4.47454395506833700D-02 -8.26884258385853400D-02 -7.53397687411032900D-02
21 22  1.58028194579690300D-01 -2.01462750614489700D-02  2.90335608583119000D-02 -1.12663043659676500D-01 -8.63717880179386700D-02
21 23  1.10366881714289600D-01 -2.39950936963495600D-02 -1.75040876617873700D-01  6.45758550174906400D-02  2.49659263950982300D-01
21 24  1.33150006138570400D-01  2.65192913289450300D-01 -7.90102406556238200D-01 -1.54384761527679200D-01 -3.87451422534581800D-02
21 25  9.64850521130816700D-02 -6.70915296787532200D-02  8.54411285539755300D-01  1.90196151885754600D-01  2.86148231103487200D-01
21 26  1.57044192058422400D-01  1.03776460880348800D-02 -6.69041654556448600D-02  5.55633277864494200D-02 -1.36558249266973500D-01
21 27  8.09949214805247400D-02 -1.54853413567401700D-02 -3.07038725325872800D-02  1.04770397879450000D-02 -1.61806381959939600D-01
21 28  2.44885991757617400D-01 -8.30796097976777100D-02 -3.75441679058769300D-01 -1.64728413354613200D-01 -8.90657857420949400D-02
21 29 -5.76547749088398900D-03 -1.03582955946364200D+00  9.34005052832077700D-02 -4.48998467640672500D-03 -3.47021900528306400D-01
21 30 -2.27629341567249000D-02  4.10960611805825400D-01  1.23304383686008800D-01  8.80528559434878800D-03  1.94630340195609400D-01
21 31  5.26719201774694000D-02 -4.13054580610385400D-01  3.07474257124938100D-01  2.07152444552844000D-01  1.22534643506558700D-01
21 32 -3.25388377022163700D-01  3.54817891070148700D-01 -2.94213724885563700D-01  2.46725079747127600D-02 -1.26724922192328500D-01
22  1  4.86410191654518800D-02  5.80413789845700100D-02 -3.81687707192126200D-01  3.01890751359159100D-02  3.27503509819595500D-01
22  2  1.43787327747584800D-01  9.92606320462642000D-01 -3.45095153313804800D-02 -9.86585737224867800D-02 -1.69262278743227200D-02
22  3  5.57273489031857600D-02 -3.88011210288631900D-02  8.29335064878182300D-02 -3.16678504274573400D-02  1.27255860605959700D-01
22  4  1.12128825652115100D-01  2.41250869624153300D-01 -1.08811588097867300D+00  1.47529335703552200D-01  1.23553114627635300D-01
22  5  1.54556920898576300D-02 -8.96288925185329000D-01 -1.38476220647714300D+00 -1.80521914802505200D-01  1.17906669273923600D-01
22  6 -1.11965225735576800D-03 -1.16787017016568300D-01 -1.48075854379538200D-01 -1.76445484051270300D-01  2.88296081012591200D-02
22  7  2.00822640099789200D-01  4.52958239611841100D-01 -7.10376094253129500D-01 -1.41744732934041200D-01  1.62912500504637600D-01
22  8 -4.01463679792528800D-02 -6.43909023510164700D-02 -6.76354775448497100D-01  2.45088543500578100D-01  1.52634931173660200D-01
22  9 -9.86171632275748700D-02 -5.40177679460857900D-02  9.33460459910473600D-02 -5.86567101108753000D-02  4.31571863261522400D-02
22 10  1.88671720263142700D-01  3.75641008522250300D-01 -1.41456306876276000D+00 -6.56266795361085700D-02 -1.76211493773094000D-03
22 11  4.72403064640044100D-02  9.78909916441663800D-02 -6.43630401095693500D-01 -2.33558223086038000D-01  1.50195458697262800D-02
22 12  1.84705021956665800D-02 -3.34900480653932500D-02 -2.73960627206586800D-01 -8.16603793749956400D-02 -1.86004203286712000D-02
22 13 -3.30368226654746500D-01 -7.35073423207605300D-01  1.18650625005344900D+00 -1.62133896896476200D-01 -2.60150675432712700D-01
22 14 -1.25768992290731700D-01  6.21028437068599700D-01 -4.98026321417995400D-01  2.72689717585781400D-01 -6.19388394633446900D-02
22 15  4.23485482445521100D-02  1.95902912187925900D-02  5.20010586994378600D-02 -4.42907083971106700D-02 -7.84760940409070800D-02
22 16 -1.93787189466147200D-01 -3.56287688094673800D-01  1.33393101551449300D+00  1.94229136617939300D-01 -7.34672772081913600D-02
22 17  6.45562429627235400D-02 -1.69955261350498200D-01  8.01356324830087600D-02 -7.36392591762347300D-02 -6.10474862293999400D-02
22 18  3.92305151803487200D-01 -3.31257665574087200D-01  1.43311433117907800D-01 -1.80110684517958400D-03 -2.87775947226061300D-03
22 19  5.70408593908643200D-02  1.46595395401887100D-01 -1.21489418617972400D-01 -2.49501902385043000D-02  3.23690464980869500D-01
22 20 -2.02598936749758800D-02 -1.48618165659523100D-01 -5.63549313831249600D-01  2.44792652232705500D-01  1.39315195188335200D-01
22 21 -3.59595048529646700D-02 -2.60304992192609200D-01  7.03360854494987400D-03 -4.85889022102469700D-02 -8.29053794418621700D-02
22 22  1.31494281652108400D-01  4.60868779326281000D-03 -1.69019785520691800D-02  1.92189849655927500D-01  6.11799365334182100D-02
22 23  6.19279829624830600D-03 -6.73727348296667700D-02 -2.74997006759426000D-02 -3.60759290115838000D-02  9.17309502999266000D-02
22 24 -1.83630162266156400D-01 -3.86736866011869500D-01  1.17073766418127100D+00  7.92193778519774900D-01  4.53673024742863800D-02
22 25 -3.25765300614267100D-02 -7.21814425273598300D-02 -3.39875937602234200D-01 -1.54421787794971500D-02  2.25427621305626900D-01
22 26 -3.01330483237990300D-01 -1.31267837809014800D-01 -7.01642176768775300D-02 -4.18173222634214400D-02  2.03580742019319400D-02
22 27  2.14592480614893300D-02 -2.36206941362919100D-01 -2.12395247793171300D-01  3.36022245516171200D-02  6.78509693399604200D-02
22 28 -1.44041952411160400D-01  7.61909830712000400D-02  1.14628471106733400D-02  4.22834418182302000D-02 -1.04722003441137300D-01
22 29  1.17190257856210900D-01 -1.88022967944679300D-01 -1.40791498489719300D-01 -1.19057077841221900D-02  2.57088921048576300D-02
22 30  2.53271750874816800D-01 -6.05086594277070100D-01 -8.59930886950674300D-02 -2.00127874779995200D-01 -2.68828289216970000D-02
22 31 -2.98756619393052100D-02 -2.10272158211704900D-01 -3.29283998449960800D-01  7.43878524087191300D-02 -1.41617031973639800D-01
22 32 -7.88400830315760700D-02 -1.04790622607432600D-01  8.56022912583810100D-02 -9.50255671708864400D-02 -1.24350093998483600D-02
23  1 -1.04756138359596200D-01 -2.01764650517716900D-01 -4.09292306847953400D-01 -9.78133271539502100D-03  2.15900024262397700D-01
23  2  1.07776277890307300D-01  1.44363765117698100D+00 -1.66445607163573200D+00  2.99799183165369000D-02 -3.08079874494833700D-01
23  3  2.02469549378111700D-01  1.05610325116720300D-01  3.14135216166943200D-02 -1.54096028355729500D-02  1.54699211675419400D-02
23  4  1.18718017857291800D-01  2.94604688084977100D-01 -2.85447244765175800D+00  1.07597220505778500D-01 -3.78956174587895400D-01
23  5  3.44051817283854900D-02 -4.33452796994998100D-01  1.31803680157052400D+00 -7.43316066222738900D-03 -1.72571505265617900D-01
23  6  2.72358962120680500D-01 -9.97874568550619100D-02  5.96513998965467300D-02 -3.91305315517822600D-02  2.61285977212646000D-02
23  7 -7.29349819943662500D-02 -1.48032096018777800D-01  1.40942392636144700D+00 -2.14883966765743300D-02 -1.48346830700371800D-01
23  8  5.28278259904947600D-02  1.96059740282482700D-01  9.74742643395138300D-01 -1.05879315422265500D-01  3.90301338518860800D-01
23  9 -4.17812300551191900D-01  2.75109620323324800D-02  3.44995275370621700D-02  1.54061113842512700D-01  9.15992927702730000D-02
23 10 -2.25924331903994200D-01 -5.07384261172903600D-01  1.24877558633839500D+00 -3.96657884209428500D-02 -3.29380452185477700D-01
23 11  4.83986512004729300D-02  4.00602837539035100D-01 -3.50757508490464500D-01  7.51172894622859800D-02 -1.18110561774501000D-01
23 12  6.60954759249800100D-02  5.20150858495224900D-02 -1.68294952307476500D-01  1.77993158406293600D-01 -1.46774338572659700D-02
23 13  4.89616667931639700D-02  1.82281212326989700D-01  2.01017350832436400D+00  7.85124973056012700D-02 -9.17160852699982500D-02
23 14 -8.40074753028476500D-04 -8.95728319182266700D-01  5.87950222609919800D-01  1.05542380271020100D-01  1.36000513505014500D-02
23 15 -1.30434638787610600D-01  1.16834587437108000D-01  9.05265733210590500D-02  3.31552661699855100D-02  7.13985434910954000D-02
23 16  2.89486519053679100D-01  6.18768572991653600D-01 -1.18933138599288100D+00 -1.09232479729061200D-01  1.59472905086223100D-01
23 17  4.68668561146870200D-02  2.01131755812106900D-02  1.94099364709535400D+00 -1.50234759218076200D-01 -1.59652928919039000D-03
23 18  3.65053635024155200D-02 -3.49088342132262600D-02 -3.67293426485406800D-02 -4.29211224723111500D-02  4.39675896380603600D-02
23 19 -2.75512180509739800D-02 -1.17895122886476900D-02  6.07933319969659600D-01  4.73342699730544300D-01 -7.57180104650815300D-02
23 20  6.67633264548237000D-02 -1.09069918850466300D-01 -2.20944798557779200D-01 -2.32539647659981600D-01  1.29681767222261500D-01
23 21  6.18408062248316400D-02  2.13781482934524700D-01 -8.64027442327434700D-02  1.55275371811010400D-01 -2.35733231445563600D-01
23 22  8.04578596345531900D-02  2.46301601069052200D-02  4.80675255921652300D-02 -1.19422134880910000D-01  2.88033107323586400D-02
23 23  7.62586838800055100D-02 -1.05061994612363900D-01  2.14061065709527300D-01 -8.83227624469036500D-02  2.00763890045140600D-01
23 24 -1.30473490228689100D-01 -2.59864084125245400D-01  8.14996499915958100D-01 -2.07774207021142600D-01  1.78027682911980600D-02
23 25  2.78331400335850100D-03 -7.87348231751397300D-02 -1.41287350192615100D-01 -4.16617590701115600D-01  1.30016662562852700D-01
23 26  3.78233802078721500D-01 -3.01024072584981000D-01 -6.81735692324084600D-02 -1.02084086895725000D-02  1.73835488838243400D-04
23 27  1.00345732007341800D-02 -4.17540326844424000D-02 -1.52861333821989400D-01 -6.59972773538715900D-02 -8.03287684759206200D-02
23 28  6.12786128576474200D-02  1.90501556182733200D-02  3.74448443766616200D-01  1.15143656680448100D-01  3.31485628410897000D-02
23 29 -1.63690391342209500D-01 -8.52747620660018900D-03  8.60540445360129100D-02 -1.00313328101743900D-01 -9.50177410528785900D-02
23 30 -2.56556201685821500D-01 -4.17168873520357000D-01 -3.03830277804703600D-01 -4.56781865883976200D-02 -1.16728012773056800D-01
23 31 -6.00165663069490300D-01 -9.70932495022392200D-02 -1.45514400259009200D-01 -1.43361839698459000D-01  3.74985577074412800D-03
23 32 -3.74455839427868800D-01 -3.64767048664474600D-02 -2.29779586362133800D-01  7.38041614711031500D-02  4.19655986080760300D-02
24  1  1.91871979827781400D-01  4.12302321927297900D-01 -6.79522305081225500D-01 -1.84074549042269700D-02 -8.62153958595542300D-02
24  2  1.20948387973899100D-01  1.77317811104848300D-01 -2.85237655664722900D+00 -1.00971012359034900D-02  4.67649907446626700D-01
24  3 -2.35613631202558400D-01 -2.32036276244068700D-01  1.84003319804067400D-02  3.24396610206324000D-02  2.81677077757629700D-01
24  4  5.67242869719467100D-02  5.96786523937182200D-02 -2.43961222787888600D+00 -6.34492881305094300D-02 -4.18192535535026800D-01
24  5  1.38301988492535300D-01  1.47932999499601500D+00  2.41847767478414700D+00  4.49934947788379800D-01 -7.05684689986994100D-02
24  6 -2.21713633831022900D-01  2.92282102829723800D-01  2.64821600078660200D-01  2.38334481820191200D-01  4.61050372150481800D-02
24  7 -8.01939619304685100D-03  3.13981176354545700D-02  1.80478643075736800D+00  4.50851238694619300D-02  2.91703748326404700D-01
24  8 -1.11977208571059000D-02 -9.71743733854548800D-02  1.20499021941562100D+00 -7.30987819478601800D-02  2.25310577573347000D-01
24  9 -2.28566625695136200D-01  3.25604812179111100D-03  4.97660575833504100D-02 -4.05175940151240500D-02 -1.58716113778744600D-01
24 10 -1.71520905467727800D-01 -3.42926472323868000D-01  6.53478450349261200D-01 -1.02290543581120400D-01 -5.30188121757837800D-02
24 11 -1.15582144527455100D-01  2.21278334631601300D-01  1.14691159062538800D-01 -1.43223946510636700D-02  1.58257031531534500D-01
24 12 -1.82050459794775100D-01  2.37934282632424000D-02  1.62273316491535100D-02 -7.18362132898490900D-02 -1.09991121774336500D-01
24 13  7.92470669652367100D-02  1.66332441715779600D-01 -1.62637644021435800D-02 -7.80075258969975200D-03  1.01801008433856400D-01
24 14 -3.49197425579077300D-02 -4.01293593505088700D-01 -3.59070294065793100D-02  2.11229591528122400D-01 -7.79874264593010500D-02
24 15 -1.84833502311221600D-01  2.62820928770522000D-01 -1.72346997109803200D-01  6.58753468873629500D-02  5.40950583262961300D-02
24 16  2.31063972528225600D-02 -6.21980945886375500D-03 -1.11443542805985700D+00 -2.83939015580736100D-01 -2.74462481924971100D-01
24 17 -5.82431595208538700D-02  1.16863974546324100D-02  5.83259834424004600D-01 -1.09528293851602200D-01 -1.74117517097778000D-01
24 18  5.13780439375792200D-02  1.22739473160198700D-01 -2.22749807778423800D-01  2.11955761793867400D-01  1.50501788194600800D-01
24 19  3.92491429819030000D-02  1.63070174619595600D-01  1.14625315758350600D+00  1.26751470219789700D+00  1.15743168587977800D-01
24 20 -1.81145092200886600D-01  3.52770355232713000D-03 -1.94013183999123100D-01 -1.63864268557853900D-01 -1.86063602342904900D-01
24 21 -1.50083404783150400D-01 -7.13216923544803900D-01  3.94247225049438300D-02 -8.59412290264383000D-03  8.40996577176403300D-02
24 22 -7.55055348149964600D-02 -8.18011798604262900D-02 -7.81564142398945600D-02  1.64063996974202400D-02 -6.16809593384866800D-02
24 23 -1.35173534743602400D-01  1.96854494082089100D-01  8.13916917784651400D-02 -2.43714431561708900D-02  2.94055965119587800D-01
24 24  1.10578908849680800D-02  4.91323979576339800D-02 -4.65997936952359100D-01 -9.20096301149936100D-01  6.11155880679270000D-05
24 25  8.56722478524608700D-02  4.46282045145996200D-02  5.11821208470546000D-02 -3.56871860373364800D-01 -3.36593394249335000D-01
24 26  1.68340599297617100D-01  1.83376580092411400D-01 -4.82857146706883200D-02 -1.17396395669543600D-01  2.33410094202434500D-01
24 27 -1.16013698532891100D-01  3.43251902301818300D-02 -8.78055177479538500D-02 -1.53335211694996900D-01  1.72890533885726400D-01
24 28 -1.62956681807780900D-02 -1.56594865704948300D-01  1.12343472930766300D-01  3.70228473838545300D-01  3.39279093075183600D-01
24 29 -2.16582654637947500D-02  2.61959860800600000D-01 -1.30472292911640500D-01 -1.08469340283349000D-01  5.85484634368203200D-02
24 30 -5.31385767841207300D-02  1.76754161384017100D-01  2.06180190010222000D-01  1.36863489815715200D-01  1.38432646484964500D-02
24 31  1.29221642121765200D-01 -1.69361812107833000D-01  2.01671170333273300D-01 -1.91117128500415200D-03 -7.64642833821296400D-02
24 32  3.92882110159746900D-02 -7.18660184264641300D-02 -2.86119606554514300D-02 -2.36884507204114900D-01  2.66961986168463900D-01
25  1  1.87190916654257100D-01  3.51616019916706800D-01 -2.74460305714659300D+00 -4.11516670778678800D-01  1.69289187156717300D-01
25  2  2.39578159978309900D-02 -5.18727515543441900D-01  1.12106620783756700D+00 -4.99913929595322700D-01  1.80543862435599100D-01
25  3 -4.08673831741982000D-01  2.28129969306383000D-01 -8.99913781005624400D-02  4.64581941197582700D-02 -1.99977952927862800D-01
25  4 -2.32671268095553700D-01 -4.14358937654726600D-01  1.96131377621587800D+00  3.22996693532040500D-02  3.87776245076921900D-02
25  5  7.33538339094609300D-02 -2.25939614365205700D+00  4.65787785936009800D-02 -4.36304687463964600D-02  2.03981798301359500D-01
25  6  3.35186545690864200D-02 -2.37500452870446400D-01  7.63966458033329500D-02 -3.38961853795793800D-02  9.05777928708942400D-02
25  7 -1.23299036436211500D-01 -3.43429084567227600D-01 -1.23322350483785500D+00  6.87470457885269000D-02 -5.04151369200039900D-02
25  8 -1.57659530677098700D-02  1.88062043034558900D+00  5.16492195766421500D-01  1.42037317158616300D-01  1.73530236321105200D-01
25  9 -2.33621244404117600D-01  6.00910080830120200D-02 -7.62292686185160900D-02 -1.08415891407161400D-01 -1.01859950516818800D-03
25 10  1.00394676756548100D-01  2.65460189423736400D-01  1.28425279377877400D+00  1.89133435291883200D-01  1.85401317468354600D-01
25 11 -2.96332081894865000D-02  1.05313738646525400D+00  3.81826808609051000D-01 -1.43888946239333000D-01  6.58616939749600400D-02
25 12 -5.35722913699021700D-02 -1.22894026050588500D-02 -1.41297384099073700D-01 -6.93847138567916700D-02 -1.02606449028357400D-01
25 13  9.34001901983756700D-02  1.29216748166706700D-01 -1.61796959068111100D+00 -2.43706018259181100D-02  3.37019969111255600D-01
25 14 -1.40751467282695200D-01 -1.84188745166509300D-01 -1.95488647019524500D+00  2.20798234506694600D-01 -8.10950006823407700D-02
25 15 -1.46780663511923600D-01  2.27875664194264700D-01 -1.19162370933466300D-01  6.18905485348072200D-02 -1.57029447142601100D-01
25 16 -1.09966424618632400D-01 -1.78645366955232800D-01  3.16138442553283800D+00 -1.43994979967135000D-01 -4.34586227726957200D-02
25 17  2.49973104454796600D-02  7.52294904168361100D-01 -9.71451039339328400D-01  1.63154609058711400D-01  1.71656527064875800D-01
25 18 -1.64619081335707200D-01 -7.03744572916859500D-03 -3.12613838046055900D-01  1.75241577437917500D-02  4.22297006580366200D-02
25 19 -6.13555269234499800D-02 -1.74720032473213700D-01  3.71123299848548900D-01 -1.73351749714124600D-01 -3.21385619583841800D-02
25 20 -8.13774189613904000D-02 -1.41712463053998900D-01  2.10141495660293200D-01 -4.75650427258714800D-03  4.04224861672631200D-01
25 21  1.38420399865178300D-01  6.66568358059768400D-02  6.56311514355730600D-02  6.60243116506076700D-02 -2.67084202869977700D-02
25 22 -3.93158913636091100D-02  8.46838733837026000D-02  7.20981363072490300D-02 -1.64822771379990700D-02  4.74931323668047200D-02
25 23 -5.27519976422409600D-02  5.25886527543761500D-03 -3.04896063700882700D-01 -3.93720922439763800D-02 -2.09103249527133400D-01
25 24  2.75276537583513100D-02  1.05787225824971300D-01  3.09329546764733600D-01 -4.30387146682449000D-03 -6.54383313326017700D-02
25 25  1.89521613610048600D-02 -7.48683406253588100D-02  1.21159381531609400D-01 -8.46905430166398200D-02  1.02306544356280900D-01
25 26  3.43840380890569700D-01  5.06212314346105700D-02 -2.34536114847682900D-02  1.21580620428949200D-01 -4.56740354745349500D-02
25 27 -7.59065849544142800D-02 -9.44454549027446300D-02  2.08257167078859600D-02  2.11122025335675600D-01 -7.31994272506198200D-03
25 28  2.55962549593583300D-03  4.76031722912620000D-03  1.27512889236029000D-01  8.01608546210637700D-02 -1.61543618742465300D-01
25 29 -3.95835230300190000D-01 -2.51815839212902500D-01 -1.60033181746080600D-01 -7.86759896035917100D-02  9.45679776140581400D-02
25 30 -9.05567695570439600D-02  1.85215452926103900D-01 -1.19548569075410900D-01 -1.59343024538350800D-01 -9.93722085965674500D-02
25 31  2.08284739210337500D-01 -4.59850426401724600D-01  1.07819627434610900D-01  3.65347237315464400D-02 -1.23391440036812200D-01
25 32 -2.63259971861781600D-01  1.85388440966711100D-01 -8.39438832393154000D-02 -8.79581385870437000D-02 -1.01114809571802600D-01
26  1  1.40869286335921900D-01  3.36948433607699800D-01 -5.14032696302231500D-02  9.05293275117962400D-02 -6.76115857169241500D-03
26  2 -1.98610307814425500D-02 -2.33477749723405400D+00  3.88976296903928700D-01  1.26250156896387000D-01  4.52717492571648400D-02
26  3 -4.22816135979432900D-02 -2.99013565922099800D-03 -5.85940063949971000D-02  2.00224574433183400D-02 -2.50142391972010600D-04
26  4 -2.56519917707175900D-01 -5.21022248988086500D-01  4.11672243806350800D-01 -8.95462508996867900D-02  1.35773683773689200D-01
26  5 -7.19194773063274700D-02 -1.01309776342768000D+00  7.77367040166408200D-01 -4.74619818776084600D-01 -1.24637895090696400D-01
26  6 -2.30998318684309900D-01  3.55636213775006200D-01  2.72291997636721300D-02 -3.09707475057976400D-01 -2.24366986644828100D-01
26  7  5.82697898632449200D-02  2.36356489910547000D-01  5.36257593123028000D-01  9.55995134050241200D-02  4.42174979966765500D-02
26  8  1.63983229758365600D-02 -5.40312289425433700D-01  3.89567739872541200D-01  2.66698126265535400D-01  4.76057752036792600D-02
26  9  1.91180613106113000D-01 -2.38786388309792200D-01 -5.17858293389262400D-03 -7.44348980652929500D-02 -1.73981571798066100D-01
26 10 -1.98747307445811200D-02 -8.23971104743894700D-02 -7.69169914240728600D-01 -2.75021884621720800D-01  2.52715505215999000D-02
26 11  6.58734996331831700D-02  2.57753474065672200D-01 -3.44358131684001900D-01 -3.32737620620943700D-01  3.35342530042510800D-02
26 12  9.14531972836397900D-02 -1.24987450287891300D-01 -4.52789390885797900D-02 -7.50697862715983000D-02 -8.52561599909867600D-02
26 13  1.36153996889262000D-01  2.25300588037904900D-01 -1.57025343215365600D+00 -4.38236945219741000D-02  1.21303818388401100D-01
26 14 -8.37905677670583400D-02  4.35656694971739200D-01 -9.41868944948038400D-01  3.70646440417974400D-01 -6.41216532387772600D-02
26 15 -2.16025875147557100D-01  2.80147528386335000D-01 -1.98638292540235000D-01 -8.95375112217507600D-02  4.04561779551862000D-02
26 16  1.76716059029442000D-01  3.48819894812773500D-01 -6.46672897313680800D-01  2.91638717556713600D-03 -1.41113807808892300D-01
26 17  6.55464302970124900D-02 -5.65303106118670300D-01 -1.84014445500201300D+00 -1.82337940756609800D-01  1.52512132089487600D-01
26 18 -2.09242961672005200D-01  5.67308295825187500D-02  4.08037127882576000D-03 -1.16600372931752700D-01  7.72511006113443900D-02
26 19  1.85438339706234100D-02  2.43063942991279200D-02 -2.03793026706436500D-01 -1.24304306446872600D-02 -2.82132472774355100D-02
26 20  2.35306212263905800D-02  6.10851529711040500D-02  5.04273345244123000D-01  4.31251548838536300D-02 -4.46033722702778400D-02
26 21 -2.54376405937149800D-01 -6.65738234296699000D-02 -1.38425149089356000D-01 -4.16982714480439900D-02 -1.59687356596682800D-01
26 22  2.01385628044726500D-01  1.57119393782008300D-01 -9.11477945275864800D-03 -2.93562715925746000D-02  2.90380071758178600D-01
26 23  1.65794963063675900D-02 -3.06959568064546300D-01 -1.73478012599853900D-01 -1.27005334088340900D-01 -1.42518563905955600D-01
26 24 -1.69536638465973500D-01 -3.48296392526534300D-01  7.68199549005718900D-01  5.33235112434427800D-01  3.86199561238893900D-02
26 25 -4.81216691787317200D-03 -1.55063518844097100D-02 -3.44564898931823400D-01 -2.87407393569431700D-01  2.83959865548808000D-01
26 26 -2.51646529061267400D-01 -2.33113321198055100D-01  2.22429103625058100D-01 -1.58262420932944300D-01 -3.71880722552815800D-02
26 27  1.95450493188225900D-01  3.68855158178460800D-02 -1.26711501187167000D-01  5.17080917078858600D-02  2.21313770330261800D-01
26 28  2.66609127476505300D-01 -4.87922897806766900D-01  1.04250906399471500D-01 -3.65430586278114400D-01 -9.21629920550023400D-02
26 29 -1.62303094514245300D-01  3.39857812830991200D-01 -1.87452386847152000D-02 -1.84947705838252000D-03 -1.45264854766381400D-01
26 30 -1.40599621883378100D-01  2.80399024506606100D-02  4.10573360524843100D-02  4.86073105932929400D-02 -1.42181027016324200D-02
26 31 -3.10697724438562800D-02  3.68556322966134900D-01  1.99594452581400300D-01 -7.17159232375314100D-02 -1.52038975134619600D-01
26 32  7.91144245001118400D-02  1.37214994469914500D-01  1.64393487574988700D-01  2.50184098110345000D-01 -1.67104626358885200D-01
27  1  2.56926775251514400D-01  4.77012133462970100D-01 -2.76742393294870400D-01 -1.02893746025318000D-01 -3.39367193316331400D-03
27  2  1.26167009432693000D-01 -1.46647796550855100D+00 -8.69903025790087000D-01 -4.11889363265318100D-01 -2.38452428654334400D-01
27  3  1.34738074196594500D-01  1.03714354457740800D-01  1.90913466533225900D-01 -6.19210001070675300D-02 -1.54730348705821500D-01
27  4  3.45557026293860600D-02  1.51269952005285300D-01  2.75856984936005500D+00 -1.64697612475986900D-01  9.96755468491235300D-02
27  5  4.75459863368709300D-02  5.10149980158757500D-01  2.12295184813655600D-01 -1.33971782279367300D-01 -2.07208016345475900D-01
27  6  3.15398240984587500D-01 -1.08190224639111900D-01  1.53455534485949400D-02 -1.01615241472329700D-01 -1.25397025707147500D-01
27  7  1.10865386339539400D-02 -1.40948614060673600D-02 -3.03370939277035900D-01 -3.21771778802077200D-01 -2.23404108146525600D-01
27  8 -7.41357259077275400D-03  5.64658802156010800D-01 -9.63093255033090100D-01  2.05095830328449900D-01  1.68757575978809300D-01
27  9 -2.09057255630493500D-01  4.02996796516838000D-02  2.33241090440080000D-01 -4.65356531984136800D-02 -2.53010478085873500D-01
27 10  1.69871240393240800D-03 -6.19856329516346800D-03 -6.71085099622293200D-01 -8.04708490632425600D-02 -3.55473529886006700D-01
27 11  3.97219045391167000D-02  2.95364863339010800D-01  7.76272196094738600D-01 -2.70329143184540800D-01 -4.78691341653641000D-01
27 12  2.94270663198250500D-01  1.84420678455391200D-01 -3.10247556532498600D-01 -8.51283896053945800D-02 -5.63810604908439000D-02
27 13 -7.43034265368043800D-02 -1.45603085059525600D-01 -1.31775466363435000D+00 -7.03705719630729100D-02 -1.12662036005630300D-02
27 14 -1.52392255883009300D-01  7.36840370921721500D-01 -1.49186828504673100D+00  1.93009485146417100D-01 -1.66236483801746800D-01
27 15 -7.63513475583482100D-03  1.73871618557581500D-01 -1.91697991825077500D-01 -1.06524469717435700D-02 -7.01763959703131700D-02
27 16 -1.80437862668610700D-01 -4.32070570980355500D-01  8.96410051023007500D-01  4.36677898921498000D-03 -2.63747492364831400D-02
27 17  4.32352622311652600D-02 -7.50250627672395800D-01 -1.42554304828278400D+00 -3.70745558538024800D-02 -1.52881952184744600D-01
27 18  2.83479892791261000D-01 -1.30597940606516200D-01 -2.43425147492345400D-01 -9.37106482825530400D-02 -1.35852773899340900D-01
27 19 -1.18048727468407700D-01 -2.62356901557491600D-01  6.20421152668212100D-01  6.46431890657146200D-01 -3.81937570622101400D-02
27 20  1.55679671075594500D-02  5.34443188512916900D-03  3.10988143803912900D-01 -1.67151086577900700D-01  8.57927629181780100D-02
27 21 -1.51108365906561000D-02  1.90519797035604300D-03  2.40608040514220800D-01 -8.50527773126034800D-03  2.57015323056418700D-01
27 22 -2.48510045325158200D-01 -4.82478200781104700D-02  7.28485867481713400D-02  1.05246700822398900D-01  9.90351445784838400D-02
27 23 -3.84259386684083300D-01  2.85224242105599100D-01 -8.36401879506634700D-02 -1.99762469898017900D-02 -2.40094665544432300D-01
27 24  9.18861894101556400D-02  1.63005246518482800D-01 -7.53753613293737900D-01 -8.60262122892174000D-01  9.88744736029695600D-03
27 25  6.13164395457207700D-02  6.56052480388906000D-02  3.14614273379027600D-01  1.40298112014299100D-01 -3.54210519022128800D-02
27 26  4.86732339120274000D-01  2.57002933273839700D-01  1.44184421689385300D-01 -2.45966508767493700D-01  3.26433132842917300D-01
27 27 -8.04666240754235700D-02  2.29032857856152200D-01  6.52213671935662600D-02  3.02685549221857100D-02 -5.55654725666627300D-03
27 28 -1.21327326311399400D-01  1.26883873568065600D-01 -2.59610856986989700D-01 -2.78388973727710800D-01  7.44327424548472500D-02
27 29 -8.25513583158684200D-02 -4.81701164539292200D-01 -1.21033127190647900D-01 -4.02606964885523900D-02 -9.92833755702837400D-02
27 30  4.08642322661056100D-02  8.37193137634137900D-02 -1.89769693043590900D-01 -1.55296489525599000D-01  2.86807318253500200D-02
27 31  1.78870576422146200D-01  6.18663870636452200D-02  4.06571703191584400D-02  2.02872577867215400D-01  6.38133752250528300D-02
27 32 -7.35001197283565600D-02  2.01584085303639000D-02  7.25591121187595000D-02  3.02992386030441700D-02  8.83788161421687100D-02
28  1  6.26869863198948500D-02  7.78926640639226500D-02 -1.16206995878951400D+00 -5.83181438112544400D-02  2.22753052770544700D-01
28  2  1.31896686117374500D-01 -1.20374600079405800D+00 -4.86451248471545700D-01 -2.90335010827567900D-01  9.55329708611277500D-02
28  3 -2.19351607684830500D-01  1.23818636823702300D-01 -2.97541620947202900D-02 -5.92048885154859400D-02  1.22629653445351700D-02
28  4 -1.54132142710210900D-01 -2.81409461322597000D-01 -6.28609913834016100D-01 -9.58946899347007900D-02 -2.67478095618079600D-03
28  5 -7.55619616117130900D-02 -5.77042212553772900D-01  2.20841690360702400D+00  2.80481760566399600D-01  3.75519231998587800D-01
28  6 -4.60269831583433700D-01  8.47505995848466800D-02  1.26993633481945500D-02  4.87995765959447300D-02 -1.69780547400835000D-02
28  7 -1.34573338319936500D-02  3.68452504559688100D-02  7.68068719961878800D-01  8.73383823874870900D-03  2.35913187765909500D-01
28  8 -5.26791999541518000D-02  1.34076999158115000D+00  1.55530172762423800D+00 -4.17130686883280300D-02 -2.58938128760832300D-01
28  9  2.91817065696194900D-01 -3.28789369353623800D-02  2.21846674117161500D-01 -1.01113983150641100D-01  3.13358250418298200D-02
28 10 -1.91876007873226600D-01 -4.08873678754736900D-01  1.90600792479712400D+00 -1.68370278406089700D-01  1.01230646842781000D-01
28 11 -4.46310603306412200D-02  1.22938275298933400D+00  4.33272040086535100D-01  1.09870251886894100D-01 -5.04360858731579800D-02
28 12  3.80148047651141000D-01 -3.29711961777982100D-01 -5.63705106487595100D-02 -4.34030217010909800D-02 -5.97434540619701800D-02
28 13  6.82113960128260700D-02  1.41369965720460800D-01 -1.34979054952993600D+00 -1.85707046143418500D-01 -9.84125092838973700D-02
28 14  1.02708506401792500D-01 -7.73728901775196900D-03 -1.18950418223339000D+00 -2.29894837818500800D-01 -1.54664457014071500D-01
28 15  6.46845813992295800D-02  8.99798756148411600D-02 -4.79859221253779000D-02 -7.90673148860164200D-03  4.49783561224085900D-02
28 16 -2.11046759749418000D-01 -4.59545345018717600D-01  1.14568210783478000D+00  1.63704301412746600D-01 -1.06812621740758300D-01
28 17  7.39456782725775000D-02  7.81900782767618900D-02 -1.31071472031968000D+00  1.00030443529023300D-01 -3.16891618012769500D-02
28 18  3.36632554760869400D-02 -1.97409367480952300D-03  1.73959499549835200D-01 -1.48557145438757100D-01 -7.48476721082298700D-02
28 19 -1.99389214244893600D-02 -7.20502577219309200D-02  3.72641214769572800D-01  5.21353077683382200D-01 -1.81013746459738600D-01
28 20 -2.27760375877697900D-01 -4.59176252707538400D-02  3.45506118517692100D-01  8.40666116888901400D-02  1.03547345862212100D-01
28 21 -1.76346266365368900D-02 -5.95327612952814400D-02  3.80368309153590300D-02 -3.51682659792492000D-02 -1.74838347270880900D-01
28 22  2.10006613250131200D-01 -2.02130715306450400D-01  4.26334339282153200D-02  2.08344499903619500D-01 -6.14263727769853900D-02
28 23  2.29460605842934600D-02  3.84803121926926800D-02  1.35789896138322700D-02 -1.24219240054588500D-01 -9.70298236919111700D-02
28 24 -1.25505860100304000D-02  1.61655261621073800D-03 -5.19373901553321600D-02 -4.39618046997040000D-01  1.59955417612045300D-01
28 25 -2.80920933095045200D-02  1.46516726167488400D-02 -2.41774809265810400D-01 -1.64721431835280700D-01 -4.99112681337100000D-02
28 26  3.53777746111800600D-01  2.17189619468775900D-01 -1.29018698726924500D-01 -3.51809686213873400D-02  7.03268528681427100D-02
28 27 -3.51458842467556800D-02 -3.60457393708655500D-02  9.57344141960985600D-02 -1.91334835967533300D-01  3.11884467605354100D-01
28 28 -2.93475566345354300D-01 -1.84089012600000100D-02  2.45082569636027000D-01 -1.30139540979057300D-01  1.97371679343456700D-01
28 29 -6.15424098991554900D-02 -1.39377915913805800D-01  1.63372474337794500D-01 -6.86225542929260300D-02  1.31091866708138900D-01
28 30 -8.95159245064469600D-02 -2.13523052035295400D-02 -1.16321973491861600D-01 -4.96008030710872300D-02  4.08257409958251300D-02
28 31  1.25485790999599100D-01 -4.46571631234387300D-01  4.06099557146936300D-02 -9.46180626793965300D-02  1.53942762921485000D-03
28 32  2.61202107419646600D-01  2.51408159398270000D-01  6.22983236268428900D-02  8.24679102220802500D-03 -1.85250633145310700D-01
29  1  1.56804253623090600D-01  3.10487330828447800D-01 -1.13946199661760800D+00  1.44500633984783100D-01 -8.52971611666731400D-02
29  2  6.19176305796225300D-02  7.48879822262402700D-01  1.37881441491739400D+00 -2.11649312140725700D-01  1.76344074842386700D-01
29  3 -5.61971901458143100D-02 -1.20146884696571600D-01  4.16775306007447500D-02  2.84368732937791800D-02 -7.94571596510168200D-03
29  4  7.56244565261539200D-02  1.65459686442749700D-01  2.46899098230501700D+00  4.34614347715763300D-01  1.22238302951277200D-01
29  5  8.24523171471789700D-02 -4.41333919372942100D-01 -1.93462316833884300D+00  8.58511926693578300D-02  6.01823413711019700D-02
29  6  7.88426204215772800D-02 -1.39024961792680200D-01  1.63418669947655700D-01  3.47298100783014100D-02 -1.48319641546131400D-02
29  7  9.23177545623535700D-02  9.32131152225685900D-02 -3.31931638915654200D+00 -3.00424226539710100D-01  1.49142553669609800D-01
29  8  1.18018303209891600D-02  2.28265819746034700D-01 -1.44008934305337400D+00  1.04054222944611100D-02 -7.04024845458411900D-03
29  9  8.01832408785744500D-02 -7.31429924239909000D-02  2.84665203419550000D-01  4.06140648847878000D-02 -7.59745218569840400D-02
29 10 -1.55637378362964400D-01 -3.70483805377608100D-01  4.16030263368731900D-01 -2.72662606005538800D-02  1.38745938336631900D-01
29 11  3.59175652181362000D-02  2.98281771378891100D-01  5.56483488748172700D-01 -1.08832730544989500D-01 -2.46721625506004200D-01
29 12  1.31994269183286200D-01  1.14727356322716900D-01  1.14902229050290700D-01  1.60777604430372300D-02  7.61024365495313200D-02
29 13 -3.16126826927280700D-02 -5.29858294418279100D-02 -8.83516996306921400D-01 -5.97353639143183700D-02 -1.87750052110104300D-01
29 14 -1.84768659271519300D-02  7.10830734630282500D-02 -6.20304086066163600D-01 -4.11962014499567500D-02  2.15312534597929200D-02
29 15 -2.40837709991733400D-01  2.19306456531941100D-01 -2.61809288551010400D-01  1.20477289650081900D-01  4.40748977479862600D-02
29 16  1.16934168827358600D-02  3.91936436442904000D-02  1.82675679085628000D+00  2.06140155958609000D-01 -2.81095198169747100D-02
29 17 -4.45190438474227300D-03  6.07198003750735700D-01 -6.82937679301639700D-01  9.95688772225158700D-02 -2.01969635171616900D-02
29 18  1.43936120674615100D-01 -1.23739157157452500D-01  1.33522721313597500D-01  1.24061317312359300D-02  5.27274942285927100D-02
29 19  4.57810634075930900D-02  8.29824677787952700D-02 -4.76493338776968200D-01  4.27427072464327300D-02 -1.26305240741146100D-01
29 20  1.36492041782008300D-01 -5.10978613410428100D-02  1.18364041495034900D-02 -1.52149003840880600D-01  9.83824636248146300D-02
29 21 -8.66878713767722400D-02 -1.06628632321559300D-01  4.80481272546138700D-02  4.54877137485728300D-02  8.06105219419607100D-02
29 22 -1.26098235690532700D-01  1.63547012804495400D-01  1.04140745930053700D-02  7.68776186923834100D-02 -1.27630495169822800D-01
29 23 -1.29059022230746700D-01  2.56689517400570200D-01  2.48030211060382200D-01 -2.40862215632382100D-02 -2.12342461224424200D-02
29 24  1.46219680149439500D-01  3.19713495928753500D-01 -4.93697394758951000D-01  4.98369316799322800D-02  1.85435947668720300D-02
29 25 -2.62091833547131700D-02 -2.56530086819271000D-02  4.72652881760659000D-01  5.65171814533443700D-01 -2.50219172112647500D-02
29 26 -2.22454893789487600D-01 -1.65116898754675400D-01 -4.39439735414907300D-03 -7.73998643534046200D-03  2.18236242557867000D-02
29 27 -1.40836378204462000D-02 -5.49867894754892900D-02 -1.76158063155799700D-02 -5.32890849030324800D-02  8.33856686628253000D-02
29 28 -1.95959337464066600D-01  1.12573668801241400D-01 -2.64565926369572400D-01  8.69194149161295300D-02  1.44097394928164600D-01
29 29  2.49107009396853800D-01  3.23274541946490100D-01 -2.55477601703381300D-01  3.10672188127429500D-01 -5.28524248429081000D-02
29 30  1.90269843674695800D-02  3.16331348814651200D-01 -1.19870542179463500D-01 -5.69039144378642700D-02  1.14751390429964900D-01
29 31  1.39039598661089100D-01 -2.27401876970885500D-01  4.60661314283106500D-02  3.84370575175290400D-02  2.13527607026293800D-01
29 32  2.18211885548172700D-01  1.48042292033168500D-01 -9.47375084330146500D-03  3.85014656490855400D-02 -2.77143790948466100D-02
30  1  2.06141975499924500D-01  4.46639824350621000D-01  2.97281389957327900D-01 -1.09831708577932800D-01  1.36933645127985200D-01
30  2 -1.13782842875008400D-02 -7.68638634508273400D-01 -8.20298690297668100D-01  1.89771512855769900D-01  3.71342066198056800D-02
30  3  2.07499567465249700D-02 -5.78841633663309100D-02 -3.73851936067870900D-01  3.27390333688964500D-02  1.01771545493850300D-01
30  4 -2.31925594930983900D-01 -4.47489199821227100D-01 -1.95905544863387500D-01 -2.55258427233668100D-02 -3.76363483847071100D-02
30  5 -5.34954685608566000D-02  3.03014645080716300D-01  1.09428677445073100D+00  2.50853312382710300D-02  2.01944485436737400D-01
30  6 -1.66430357905863400D-01 -3.55141275308738700D-02  1.30099796709002800D-01 -5.56402832130394200D-02 -8.28833547254817400D-02
30  7 -1.87955949912158900D-01 -3.44171046136050200D-01  1.46197902095829100D+00  7.01097006206819100D-02  6.15496115655976500D-02
30  8  7.04608570290238100D-02  1.87858272208106800D-01  8.60670884312665600D-02 -9.60781488105897100D-02  4.23941615617393900D-02
30  9  9.07307636777901400D-02 -1.33124925239528800D-01  1.13714102295833300D-01  5.26458769517706400D-02 -1.60195352015291600D-01
30 10  1.02524679196598600D-02 -2.35472014347681700D-03 -9.24950866656060200D-01 -2.05363288237875900D-01 -4.68566315586020600D-02
30 11  1.47809192947036100D-01  3.44155671940712100D-01  1.98882943127747500D-01 -1.92120056406609800D-01  1.21560180708760100D-01
30 12 -3.23595309217034700D-02 -8.92006497870559100D-02  2.43699041528489900D-01  1.70693441278574300D-01 -1.01844377523303600D-01
30 13 -1.65077096554731300D-01 -3.43127611061188300D-01  1.28722275114358500D+00 -1.02526093827919300D-01 -1.39093464234633600D-01
30 14  5.31762288662005100D-02  6.93512446464180200D-01  1.58303088881968000D-01  3.07972895402646800D-01 -6.23226282158886900D-02
30 15  1.44684713662889800D-01 -8.23620854470023000D-02  4.25869862029466100D-02 -9.67004287264943400D-02  1.49014620958629400D-01
30 16  2.51223946886727900D-01  5.80541646504523000D-01 -1.47369469434550200D+00 -9.96955640742548000D-02  1.48623599406649200D-01
30 17  3.86478298500408700D-02 -9.05890612933214300D-01  1.19788943444380600D-01 -3.09687761868989200D-01 -1.27716609319282800D-01
30 18  1.83097336872941600D-01 -5.53807275536590500D-02 -2.46021238899448300D-01  1.03823117194089100D-01  1.75615312767630600D-01
30 19  1.59925585143913700D-02  1.62541678282443100D-02  9.94973405764621900D-02  2.41049615275236700D-01  1.03757958535601900D-01
30 20  1.04896526389939000D-01  5.37299791166403800D-02  4.76855252960863100D-02 -1.00026715638547100D-01 -2.12646621874409500D-01
30 21  4.41977757369266200D-01  3.94521723692146200D-01  9.90158615335991600D-02  7.40932745769434000D-02 -7.76332108717502900D-02
30 22  3.53993629480626100D-03  3.45708795332935800D-02  6.76983199690242400D-02 -6.03096560155048800D-02 -2.81189293194769500D-02
30 23 -1.80974890723461600D-01  2.09093820042938100D-01 -2.37830318048360000D-01 -4.80325616450198700D-02  1.79832281162686600D-01
30 24  1.63480473958623200D-02  6.47747937705848200D-02 -3.55438371104214600D-01 -1.96004179081333200D-01  1.48374900769569200D-01
30 25  2.46577470817182100D-01  1.13706083287735300D-01 -1.38253925324999400D-01 -2.58565181069053200D-01 -1.37935672580272800D-01
30 26 -1.37998831858113400D-01 -3.52433581716475600D-01  9.83812992861087500D-02  4.57109301344652000D-03  2.63506588498310600D-02
30 27 -3.09217518632774500D-02 -8.49927794752806100D-02 -2.56494701923794200D-02  1.41200056748803800D-01  1.56319560403180100D-01
30 28 -3.64627253436070900D-02 -1.19856835059573000D-01  2.95090226459558900D-01 -1.27028719354873400D-01 -1.05171526805270600D-01
30 29 -2.61170750436771800D-01 -3.82666872412657500D-01  8.01915502874066100D-03 -7.17536164832800100D-02 -1.36757721217476500D-01
30 30  2.89134911969935200D-01  1.03182341885548500D-01  2.04832336970358000D-01 -1.60496426678703600D-01 -7.66947714001730600D-02
30 31  5.44805468639718000D-02  3.49578677034611700D-02 -1.21744006116783100D-01  8.26824134583616100D-02 -1.15012138970661500D-01
30 32 -2.89616134810827300D-01 -2.69508911846974400D-02 -2.95318077346597400D-01  1.43534261188542400D-01  4.37149299984478500D-02
31  1 -1.63000138752482700D-01 -3.16432156001269100D-01 -1.41083800847552900D-01 -1.97121884829215600D-01 -2.25974308152596900D-01
31  2 -9.38272223562368300D-02 -4.84888668770762400D-01  4.50169463505608900D-01 -1.29768001584037100D-01 -2.02761020789804200D-01
31  3  6.26937962862629500D-02  1.40067224503541500D-01 -3.41523645743300500D-01  1.02085436541487900D-01 -1.73614773487519400D-01
31  4 -2.32645921575464800D-01 -4.30888353560862200D-01  2.25914476176218500D+00  1.70133594603138600D-01  6.55643136422169600D-02
31  5 -1.40178137115050900D-03 -4.41160175886263500D-01 -8.08585624879744300D-01 -2.62274769775285300D-01  8.95428084864806400D-02
31  6  1.17006476095291800D-01 -2.06549284581773100D-01 -2.63095716632015900D-01 -8.95275947504301100D-02 -7.74480571103404300D-02
31  7  9.50305338805956500D-02  1.65122417989050100D-01 -1.32916318644947300D+00 -9.85471820382700400D-02 -4.30872500285426600D-02
31  8  2.82375088846807500D-02  9.75104776120155200D-02 -6.21817996316732300D-01  8.27671498343509100D-02 -2.24386408126698400D-01
31  9 -3.28347564639372600D-02  2.57221164590635100D-01 -8.94801620143057800D-02  7.66328882413429000D-03 -6.50660548985682300D-02
31 10  2.04637285180165600D-01  3.58836777046900800D-01 -1.12248610161544300D+00  7.76338238885722300D-02  7.70230534926525800D-02
31 11 -5.72163943045330800D-02  6.30781974827184500D-01 -6.48870466417950800D-01 -4.22936739614873400D-02 -1.50152958670261700D-01
31 12 -8.91198126392750200D-05  1.50242078482900300D-01  1.68846251724550600D-01 -2.13959836466741000D-03 -2.89439039911799700D-02
31 13  4.36148996038223900D-02  1.38467368989259600D-01  6.43356294538688100D-01  1.02732135263899800D-01 -2.13178860110459200D-01
31 14 -1.80113618386623600D-03  1.00698148814456500D+00 -6.06234549804086600D-01  1.09454594418181400D-02  3.11920158396347900D-02
31 15 -2.03051537077558000D-01  1.71859521237922900D-01  2.10213615868921600D-01  1.06076006750932300D-01 -4.34280559212242000D-02
31 16  9.79778899838501900D-02  1.46543945380947300D-01  3.52931977831479000D-01  2.53996731328890300D-01 -2.74021394130538000D-01
31 17 -5.09401708888117400D-02 -8.26778408557942000D-01 -1.35465497740304100D-01  7.66573851023638500D-02 -5.14484315272673100D-02
31 18  1.89828924881828100D-02  3.24655390390853800D-02 -1.33856138525391700D-02  8.39641621878286600D-02  9.68789851846864900D-03
31 19 -3.19726207348750900D-02 -5.38672194594312200D-03  1.82720983704404600D-01 -2.85286851564344900D-01  7.57042160840797500D-02
31 20 -2.90213156409709900D-02  3.86845643715257500D-02  3.39841216589995000D-01 -8.39057631962373700D-02  7.81449261326247900D-02
31 21 -2.95774239028905900D-01 -3.42938201600020000D-01  5.09036659397901100D-02  1.19744789144618400D-01 -1.12036883494555100D-01
31 22 -7.70790565006334100D-03 -1.79084799389380500D-01  1.24171478655405100D-01 -1.38183833435673200D-02 -1.12293926737033600D-01
31 23  3.64265450948752600D-01 -2.51971524211718900D-01  1.58808532336689800D-02 -8.56743554239211000D-02 -2.36986465023593200D-01
31 24  5.96008699698295900D-03 -1.63032329539469300D-03 -4.09259629310337900D-02  1.88213942861635900D-02  5.28986287690653400D-02
31 25 -1.57694575486761000D-01 -1.57039205018508800D-02  1.39718854296903900D-02  4.62571423954174400D-01  1.08532501791720700D-01
31 26 -3.78950822948101500D-02  5.52266091687620200D-02  1.47882748233439400D-01  5.41328274837955700D-02 -9.17020981929055200D-02
31 27  3.75692707091098800D-02 -1.62092284728584400D-02  5.68443035247835500D-02  9.71503518201715400D-02 -6.34120218600811400D-03
31 28 -1.28021825457488900D-01  1.34363027643497100D-01  6.31385729867787300D-02 -1.75767556769981100D-01 -8.04727035162572900D-02
31 29  7.75667700759057900D-02 -4.52882282227020000D-02  1.74430409640104700D-01  8.47403882805433100D-02 -8.82243627448802800D-02
31 30 -1.32539010048485600D-02 -3.47843714891788700D-01  2.11618253204348300D-01 -1.05851469226516900D-01  3.47926562119082700D-02
31 31 -1.40382567543974200D-01  2.41783910821591600D-01 -8.39714090102171200D-02  6.99954881036418000D-02  3.02916570015688700D-02
31 32  5.63714122975506200D-02 -4.21028906540876500D-01 -2.13533638191785300D-01  7.44157275798356900D-02  1.03466013899942600D-01
32  1  9.41805531237117900D-02  2.22944542253507600D-01 -6.63895397388957100D-01  1.18029727916650200D-01  3.42882316391113300D-01
32  2  1.78234214714332200D-02  2.06252603506817200D+00 -3.18073800315638900D-02 -3.77635609114004100D-01 -1.15511882535812000D-01
32  3  1.68559325866365900D-01 -5.30474433305532300D-02 -1.57728207051801500D-01  4.57235353741984700D-02 -1.44952904371189700D-01
32  4  2.55116471355075000D-02  4.82384702827088200D-02 -4.85513586964859600D-01  1.93174410954990300D-01  1.56401516477050400D-01
32  5  1.74251420179088100D-01  6.26934689580781600D-01 -3.36479492220816700D-01  1.66548125965537400D-01  1.09740986793456000D-01
32  6 -2.67695961341348200D-01  1.57954974547892600D-01  3.54909771449463500D-02  1.26033271532258300D-01 -2.33213244082082700D-02
32  7 -4.49920468747420200D-02 -7.17740738810410000D-02  1.52144486553573600D+00 -9.61455235417601200D-02  1.64978882596875100D-01
32  8  6.66867904709752000D-02 -1.59142164234786400D-01 -9.43864542222847300D-01 -1.71289558444280100D-01 -3.81076263416160000D-03
32  9  1.92334932181335400D-01 -1.88524169547173900D-01 -5.40086206167093100D-02 -1.63557888639354300D-01 -2.47818690840286800D-01
32 10 -4.90140853157487200D-02 -1.04117756882451400D-01 -7.89131342028945200D-02 -5.03233696682953000D-03  2.10827336048803100D-01
32 11 -3.42767160835937400D-01 -1.64902570868134500D+00  3.41927958244965200D-01  4.60322386873097600D-01 -1.08134009283646500D-01
32 12 -6.69552382164067300D-02  1.75089247500053000D-01 -1.26339173897112900D-01 -2.66327554580281200D-01 -1.51553189861122400D-01
32 13 -1.48952918092927200D-01 -4.14171270441379400D-01 -2.26243628595836000D-01  3.03306379634838600D-01  6.06046481679701300D-02
32 14  2.60666270926085100D-01 -7.87488638326089000D-01  1.52410742094032400D+00 -5.49898589609559500D-01 -1.52785086538637200D-02
32 15  2.10579895369277600D-02 -5.77948088306322000D-03 -8.65616361880511100D-02  4.51139305377191900D-03  7.57351845940118800D-02
32 16 -6.71064092801177300D-02 -7.27617539567496100D-02  8.62518435103639500D-01  1.21755810714778800D-01  7.72780983083420400D-02
32 17 -6.45045973608791400D-02  6.45465098862173100D-01  1.67000420185329200D+00  3.87128897168191800D-01  1.35844716538618800D-01
32 18  1.10895808139959200D-01 -2.46740524678579300D-01  8.08683905617156600D-02  6.30165141021458000D-02  3.38361879353457600D-02
32 19 -6.73151859967073600D-02 -1.79561001075401400D-01  1.25207656693323600D-01 -2.29083506817656200D-01 -8.76452599490125200D-03
32 20  7.46781329448688900D-02 -8.51569101283512300D-02 -2.26115447891012500D-01  2.54239610921520600D-01  3.01694930806849200D-01
32 21 -7.98023775553034800D-02  1.83333084476898900D-01 -9.22925520479583900D-02 -1.02600240956065000D-02 -3.39199636802479800D-02
32 22  4.41799877758539600D-02 -1.43806423213780000D-01  3.45621320472211300D-03 -1.79973189935396300D-01 -2.13414136874437400D-02
32 23  2.14230674301875000D-02 -8.16537427442353900D-05  2.24903927539020100D-01  1.08525012895831600D-01 -5.28314148935258900D-02
32 24 -4.47311541122553100D-02 -1.20198582834048400D-01  2.37521110354997500D-02 -3.75545778365624500D-01  7.54416725027829600D-03
32 25  1.15721710946842900D-02 -5.77669834050827700D-02  2.11695549533953600D-01  2.56569411934488100D-01 -7.82133010591205700D-02
32 26 -7.39902620059893600D-03 -1.36235422438022300D-01  8.28135298753167600D-02 -1.12683043968190600D-01  1.79193448538949300D-01
32 27 -6.65104045707584400D-02 -1.27214744368584500D-01  7.44544988814512700D-02  4.11734312385241600D-02 -2.93614772081696700D-02
32 28 -1.45652410893999300D-02  4.39267182975696000D-02  1.11591761890697500D-01  1.89607315137598500D-01  5.47566187624849300D-02
32 29 -2.36080587760658600D-01 -3.41659610767020200D-01  2.90845967688112100D-02  7.41103080654116200D-02  1.03215424004960500D-01
32 30  1.15839046828450700D-01  4.17032247768270400D-01 -1.73348954489855800D-02  2.68960833998781000D-01  8.83693321233941000D-02
32 31  2.45116043718858300D-01  4.35885141000888500D-01  2.64912103743657200D-01  9.87835668007122800D-02 -1.20404816184612200D-01
32 32 -2.92602101722265900D-01 -1.74052217475575800D-01 -1.01448916137095800D-01  1.09512760376519400D-01 -4.94402718357914200D-02
33  1 -9.08824911634716600D-02 -9.94442439117248400D-02  2.83140822768361300D+00  9.65746779857873400D-02 -1.29761295710273500D-01
33  2  1.86980612167986600D-01 -2.06137464219161100D-01 -6.09778811318598900D-03  6.92938172640141100D-02  2.68037001830184100D-01
33  3 -1.37056937619026300D-01 -1.30980064211157500D-01  1.40419306683020200D-01 -1.05355413251389100D-02  2.32208285241133800D-01
33  4 -1.27727905455921900D-01 -2.13994431811155200D-01  8.70101994036749600D-01 -5.82170944263849100D-02 -8.59586332912356700D-03
33  5  5.98484307906041800D-02  1.20667799883766700D+00 -9.76039177484960400D-01 -5.47546442587548000D-02 -1.18200121314909000D-01
33  6  1.71295199651913100D-01 -5.30950783370040900D-02  3.71007402734338500D-01 -6.79045421611438500D-03  2.29828696831617100D-02
33  7 -8.38974294272945100D-02 -1.77003648394411100D-01  4.23076597465385800D-01  2.62008749717674500D-01 -3.26290028713556000D-01
33  8 -2.08020143914778000D-02 -4.19440208493012500D-01 -7.21150698450073500D-01  3.03615393439559400D-01  2.46515357000899300D-01
33  9 -2.24422324525819800D-01 -2.20930324750799800D-02 -7.84901979189694400D-02 -4.16072427089849900D-02 -4.81974173714102300D-02
33 10  8.43228797775343900D-03  9.74898161588705200D-03 -5.57889548133697100D-01  4.64550661607525300D-02  1.07525122497553500D-01
33 11  2.14318594972756700D-02 -4.81575964241784300D-01 -2.85562027823712900D-01 -3.51494389265321200D-01  6.84038837004989900D-03
33 12  9.98190573608107200D-02 -1.06659445730860400D-01 -5.72439619888908300D-02 -2.23919190250567400D-02  1.80149540139489300D-03
33 13 -1.32097990311133300D-02  5.30455665761400900D-03  8.87690009701393400D-01  7.03008014244692200D-02  2.42221343326734400D-01
33 14  9.37551024685728100D-02  2.64569881292957600D-01  6.93620344398893000D-01 -1.14939277504376900D-01 -9.27857648699750800D-02
33 15  1.10265628636699500D-01 -1.74798637667242400D-02  1.34417284565116500D-01  1.76457433131015000D-01 -5.71177609342458300D-02
33 16  6.28444614233654600D-02  7.17816258239130600D-02 -1.43522830263334700D+00 -2.72113813122648900D-01  1.34442712666581600D-01
33 17  3.17422930288584300D-02 -1.12489109566045900D+00  3.68462118224280800D-01  1.44453074530957800D-01  7.73333988662670400D-02
33 18 -5.03240470534814700D-02 -2.70093518127854800D-02 -1.39170695473686000D-01 -9.86250406888260200D-02 -1.80791409868563100D-02
33 19  1.98658027431645000D-01  4.36808007925834900D-01 -8.46585558418883900D-01 -3.68384982758745100D-01 -3.48866182653540200D-02
33 20  4.80687586264309700D-02 -3.71247427099014200D-02  1.46423279604360600D-01  2.78597963590491900D-01 -1.44579963177874400D-01
33 21 -2.58090075311789200D-01  2.16160378664537400D-02  2.30074684020432900D-02 -1.50106905111539000D-02  2.29539095442821400D-02
33 22 -7.94321903312867300D-03  1.16499582186270300D-01 -4.20925328182088600D-02  6.77454797936271500D-02  4.62654671913659800D-02
33 23 -6.97769308064547000D-03 -3.92877741107213500D-02  8.35436913406715500D-03 -1.88855143120589300D-04  3.39258106327138500D-01
33 24  1.00089581270333400D-02 -1.79630030042494200D-03 -5.11179270898624200D-01 -1.33873539381322000D-01  2.88199898287432100D-01
33 25 -4.89009318632919000D-02 -3.20374040442642100D-02 -1.87170348801837100D-01  3.11249225881541300D-01  1.92909484919501900D-02
33 26  5.41107221522145700D-02  2.16244445864971800D-01 -6.67538436348553100D-03 -2.28569362910868100D-02  7.01697999611765900D-02
33 27 -4.73128636700895500D-02  1.11006832885144300D-01 -1.33572575041146100D-01 -1.08467955029769300D-01 -4.69487536847404300D-02
33 28  2.60041388795886100D-02  2.09446148051517500D-02  8.74367964977834900D-02  1.27263268849958100D-01  1.68078476916620300D-01
33 29 -2.68365030080989600D-01 -3.57578816087077800D-01  3.01905928459950600D-01 -1.40627937535946800D-01 -1.62405403866495400D-01
33 30  1.83123883782547500D-01 -3.00008827234494100D-01 -4.66321966015366800D-02 -8.48978073403409700D-02  3.13334883534408200D-01
33 31  5.67196276060783500D-02  2.35603148970645100D-01 -1.51496587058849700D-01 -2.15687194606452600D-01  1.10911534510613600D-01
33 32 -5.27583533638218300D-02 -1.00897492253193900D+00 -2.24160509136943900D-01  1.92581322858848900D-01 -2.22619064920201900D-01
34  1  4.42486117666630700D-02  7.30278120637531300D-02 -4.82812392188336400D-01 -4.56846346913265400D-02 -2.25480206791845600D-01
34  2  6.22408933396784600D-02  5.11107951958052100D-01  3.73465700836053900D-01 -2.06158663341523400D-02 -3.00856065166198300D-01
34  3  2.05318588901702500D-01  9.55374762644955100D-02 -2.07597513030131200D-01  3.94869328320148800D-02  7.74845421348476500D-02
34  4  1.81982420270742000D-01  3.75057484609489200D-01 -1.69631297408297900D+00 -2.10911205234475500D-01 -6.27211944391548300D-02
34  5 -1.27245342365116800D-01  2.16364256333996300D-01  5.87251292469963400D-02 -1.72500081784858600D-01  1.67875507849207100D-02
34  6 -6.08225197255040900D-02  4.40349689405834200D-02 -1.68931490691289200D-02 -1.04696108120809000D-01  1.44959154501241500D-02
34  7 -7.89536785118950100D-02 -1.25619210597370000D-01  1.99950272641299100D-01  1.81305580216188600D-01 -4.76644590182265600D-02
34  8 -9.27677320780638500D-03 -1.86596073143973400D-01  7.09289835476761200D-01  1.73563773674894200D-01 -5.57242428158326400D-02
34  9  9.33566793789131600D-02 -3.76324365630808600D-02 -6.92901926604237400D-03 -1.40168629840510400D-01  6.90242478891012900D-02
34 10 -2.54833123372544200D-02 -6.49042663194682700D-02 -7.70289897127930900D-01  6.39084175591424800D-03 -1.77932011615730800D-01
34 11 -2.12616131276509700D-01  1.06230862589411900D+00 -2.11137217335596500D-01  9.07276465087044200D-02  1.05170188636022700D-01
34 12 -1.51980642003834900D-01  4.68104533678128000D-02  1.18616894123955300D-01 -8.60742600627499900D-02 -1.52575330231082500D-01
34 13 -1.79072046267414400D-01 -2.88434606308899900D-01  1.71057850813345100D+00 -1.52955187777352900D-01 -1.95248271711478900D-01
34 14  3.30987183010068400D-01  9.99716870265737400D-01 -8.15793860051156200D-02 -4.18361810099585200D-01 -3.48436761856435600D-04
34 15 -5.20149553505722900D-02  5.23633921124279400D-02 -4.66730009806702500D-02  1.34478820487153300D-01  1.05771493215555100D-02
34 16 -4.60850157428424200D-02 -9.13621391704964600D-02  4.08000591886198100D-01  1.68361180052934400D-01  6.11535892431600200D-02
34 17 -3.75009682370989400D-04 -1.80635069540260700D-01  4.65400862862644600D-01  2.56230558840693500D-01 -2.31284096372770000D-02
34 18  1.77092712850883900D-01 -1.53964303213606800D-01 -2.61261431086402100D-04 -2.91152664908451300D-02  4.34400963644452000D-03
34 19  2.52565696336082800D-02  7.76820301880775900D-02 -2.95479133875825900D-01  3.99204519818745600D-01  5.03790949497182500D-02
34 20  1.02887455343226400D-01 -7.99458566517274500D-03  2.41418884828904300D-02 -2.71827545735440400D-01 -4.71127859498662200D-03
34 21  2.41562097952930600D-02 -2.76407243699526000D-01 -9.83678334316016900D-02  2.23926348351807300D-01 -1.73656959387273500D-01
34 22 -5.02693889645336600D-02  8.37463639759518500D-02  3.83607738020362400D-02 -5.32471378753886200D-02 -5.60058189108351800D-02
34 23  1.04201767266509300D-01 -4.81959483556739700D-02 -1.95292188013200100D-01 -8.91574660377212300D-02  1.22451359689553200D-01
34 24 -1.19200105366709700D-04  1.99491741600321800D-02  2.05429840205813700D-01  1.39018744222088100D-01 -4.88208413115726600D-02
34 25  1.27435269877623000D-02 -2.46481059533050100D-02 -2.33400524490459100D-01 -1.52178936090403100D-01  1.35523355002745700D-01
34 26  1.38621454690180300D-01 -3.43776911273349100D-02  7.35101680605389500D-02  4.87607695203563200D-02 -1.02881306270061800D-01
34 27  5.41205367497054100D-02  9.27359457745250600D-02  1.49358317436472400D-01  7.84390843586119900D-02  1.05799495666121000D-01
34 28 -5.11527372434488800D-02 -5.46467584226720900D-02 -1.61680819010209000D-02 -2.41549820147194600D-01 -1.58215838247000300D-01
34 29  9.18435722474378900D-04 -4.62938463852264000D-02 -8.77997905866179800D-02  1.30602958237834400D-01 -4.43972329319158400D-02
34 30  3.39005956108219900D-02 -1.44039684994991700D-02 -6.51232460932126300D-02 -3.49372981732793300D-02  2.53983356515780500D-01
34 31 -7.24826293447031200D-02  1.27798792800352000D-01 -5.77817808133323700D-02  1.42531733248329700D-01 -1.68302948806282500D-01
34 32 -1.10721212014121500D-01 -2.26470535185248300D-01  1.06792742039042700D-01 -3.10292796587215200D-01 -2.27990908888565300D-01
35  1 -1.47234882280047100D-01 -2.56311779281418500D-01 -2.33384065138364300D-01 -1.33615645220152100D-01 -3.75540494044267300D-01
35  2  6.09452666918946000D-02  1.66072687470802000D+00 -8.94972167182295200D-01 -9.07340978524613000D-02  2.79941379574796700D-01
35  3 -1.11521990419403000D-01 -1.68419389155394400D-01  1.35554807000563000D-01  1.75976197345887900D-02 -4.35048596779598100D-02
35  4 -9.60148342149855400D-02 -1.72392607353189300D-01 -3.51549279515254700D-01  1.06664398783576900D-01  3.12803701229893000D-02
35  5  8.95265139282195700D-02  7.15125563025815600D-01 -6.60162159969322600D-01 -1.53649603898283700D-01 -4.72094595458884300D-01
35  6  3.47483450138589200D-01  1.24611145320295000D-01  4.70353599132812100D-02 -5.47913956601024300D-03 -4.28121849611174700D-03
35  7 -1.41300920745704500D-01 -3.11576054977749300D-01 -2.16192986990916800D-01 -1.02699305103508600D-02  6.80986526168142300D-02
35  8 -1.13455230367368900D-02 -1.67098766386203500D-01 -4.46733252720285200D-01  5.39777793171404500D-02  1.42130978686973300D-01
35  9 -6.70556248156602100D-02 -7.50753538713122000D-02 -4.37383820329939900D-02 -8.79366809578865400D-02  9.98785082209321200D-03
35 10  4.33311963905681600D-02  1.65645148307532400D-01  7.85660799320200400D-01 -1.52315059023564900D-01 -2.16680474271020200D-01
35 11 -9.14370385203430900D-02 -2.28051320396294100D-01  9.46676393334841300D-02  6.14676740304238900D-02  2.03940405397305500D-01
35 12  1.19103604760901400D-01 -3.23044010158206200D-01  2.42958496919381900D-02 -1.39967843024143900D-01  1.43943893890551500D-02
35 13 -4.34920312448274400D-02 -1.01016381742181900D-01  9.65415290347137900D-01 -1.12843402590318900D-01 -6.76005248795422100D-02
35 14 -2.91509188325151800D-03 -9.03578351994541200D-01  6.93212790848314900D-01 -7.14308231142585800D-02  4.51243115486425600D-02
35 15 -2.18879701634016800D-02 -2.32363413852415500D-02  2.33848384555560600D-01  2.45519387688619500D-02  6.45484541261622400D-02
35 16 -2.85687532433935000D-02 -9.60896915837347200D-02 -1.01346923905741200D-01 -4.04676672517241500D-03 -1.73207808797900700D-01
35 17 -5.03627458491627900D-04  3.35718821541939300D-01  1.33502292936987300D+00  1.19840198637384900D-01  5.67666513789058200D-02
35 18 -1.42871637632878300D-01  8.61049862539719100D-02 -2.33658302186579200D-01 -6.58069053200142400D-02  7.54029156824068700D-02
35 19 -3.28854270242876400D-02 -2.37820632658804100D-02  6.02391995566933700D-01  6.31178286996033400D-01  5.10116135412094200D-02
35 20 -3.02597598386750400D-02 -2.82786606733285600D-02 -4.13895259918814900D-01 -5.92425776483171300D-01  1.30535690460678300D-01
35 21  1.89364243341967400D-01  1.15004532516104400D-01 -1.79147192838589800D-01 -2.00053741544969600D-01  2.33621620955068200D-01
35 22 -3.35678794100984400D-02  9.05254224150256700D-02 -9.43765652175627000D-02 -2.79763066766315300D-01  2.61483699875877300D-02
35 23  1.60910145988231400D-01 -1.87058515975819000D-01 -5.06842557017731800D-02 -3.04398191972777100D-03  5.27354298454176900D-02
35 24  7.12808332720205200D-02  1.63544752950605200D-01 -7.70902656689620600D-03 -6.57329137865220200D-01  1.29974527479598800D-01
35 25  9.24247194679408700D-02 -5.82947250669930300D-02 -4.46695532563373300D-02 -2.39753712544286700D-01  7.66644548018336200D-02
35 26  3.24832534811856100D-01  1.32620507051950600D-01  1.11104285789407100D-01 -7.77449762604266600D-02 -9.61260697834582200D-02
35 27  1.73871046043885400D-01  3.93526807616755200D-02  4.12163119655313700D-04 -4.51022057241552700D-02 -3.56101921300536600D-02
35 28  1.11639554103043000D-01 -7.60293619729893500D-02  1.66842343912987600D-01  2.57147488551726800D-02  3.30088225584243600D-02
35 29 -5.30048899171625800D-02  7.30331694204923600D-02 -9.56624238541727900D-03  9.84095124213319200D-02  1.15486356138504300D-01
35 30 -2.69065133567303700D-01 -1.19342369244162700D-01  2.08768174938956200D-02 -3.50242719146217000D-01  6.17461649814596500D-02
35 31 -1.96786989127816300D-01 -4.58631445852087200D-01 -2.27610666709627900D-02  9.16785223867267600D-02  2.29199387253685800D-02
35 32 -5.28086771306204600D-02  2.68742007745991400D-02 -1.74369422649137400D-01 -7.24637907433515200D-02 -1.39671244287649100D-01
36  1 -1.82947014375219400D-01 -3.77575849758434800D-01  2.14390603438069100D+00  2.96750174985630800D-03 -9.33949797643514000D-03
36  2  1.08394683575230800D-01 -1.34910655974304200D+00 -1.24315638026677600D+00 -2.23441780567484300D-01  1.20080535894159600D-01
36  3 -6.64962007218537200D-03 -1.13430915821975500D-01 -4.91839447715566500D-02  7.24059919455313000D-02  6.12078424352873200D-02
36  4  4.89558859483060000D-02  7.14928588327352600D-02 -6.94051186446032600D-02  1.14090311488933200D-01  9.73597848346905700D-03
36  5 -1.07346812217196200D-01  4.05823118147121000D-01  1.44502412148160500D-01  2.06578445510445200D-01 -1.32284776313342100D-02
36  6  7.07717054653469300D-02 -5.75432278340124700D-02 -5.47792914373931400D-02 -1.55387945954404300D-01 -8.26919072933186700D-02
36  7  9.22602027731260500D-02  2.32985892013284000D-01 -4.69145390525433900D-01 -7.53028017361689900D-03 -7.34674731569682600D-02
36  8 -1.25695240322716200D-02  5.27115690336542900D-01  3.14620726245177100D-01 -1.20543901463443800D-01 -1.34695147370610900D-02
36  9  8.01664525302572000D-02 -6.66969377931955800D-02  1.78205386362634600D-02 -3.77356490336691500D-02 -1.30069330678921900D-01
36 10 -1.11060870952452100D-01 -2.59007650163672700D-01 -2.16038898186020400D-02  6.24209561807844200D-02  3.35225077709430000D-02
36 11 -2.55908348834428100D-01  5.89570594521386600D-01  8.25718783121561100D-02  2.26585563832622800D-01  3.76177586792339700D-02
36 12  7.38697924404995000D-02 -1.11487551119732600D-01  1.40043674331311900D-01 -1.23854240462901300D-01 -1.89533785624835600D-01
36 13  5.61983742315041900D-02  1.64630110935808600D-01  1.46967055622365400D+00 -7.12171491939169700D-02  2.83809842536415700D-01
36 14 -9.63481546425697800D-03  8.48776673307490500D-01  5.92427955143642100D-02  1.00882857074362000D-01 -5.50990930518982200D-02
36 15  1.18238210496053500D-01 -6.31391174441559400D-02  3.70579929906583000D-02  1.21463012618253700D-01  4.46459270979007000D-02
36 16  2.71529526127168600D-01  4.97449080069909500D-01 -2.96132434166512900D+00 -1.21142937638767500D-01  8.39836746681317200D-02
36 17 -7.15711349451149500D-03 -1.65050166833094500D+00  1.85035152843987900D-01 -2.05076119578740200D-02  2.24654518621815200D-01
36 18 -3.70974264282024100D-01  1.46319745660208600D-01 -1.15412391245035800D-01  2.24341725618695500D-02  1.61631945304157400D-01
36 19 -4.16258576833302000D-02 -1.21390895548165900D-01  1.22075527987861600D-01  5.41741848131869900D-01 -4.76590623757102800D-03
36 20 -4.40518587748649900D-02 -5.84449254478356900D-02  2.14855431926102000D-01 -2.10695355283672100D-02  2.57448511165110600D-02
36 21  1.70919327315816800D-01 -6.17972963944610900D-02  1.20304734465142800D-01 -1.54553727516503400D-01  2.08166368860656500D-01
36 22 -5.36126413441531300D-02  1.34730649246346500D-01  2.73316007062192700D-01  5.71677831525555000D-02 -8.10398595395666800D-03
36 23 -7.80451232804159300D-02  8.61491092343722000D-02 -7.40591528981963100D-02 -2.06452489821982600D-01  1.85205221920790300D-01
36 24 -4.13189618442281200D-02 -1.36030349942235300D-01 -7.98553259983949700D-02 -1.95144879137431400D-01 -2.36624703464569700D-02
36 25 -1.63453439563630400D-01  2.33194840235276000D-02  1.24021827598888600D-01  3.17010976001094800D-01 -4.47427081792004200D-02
36 26 -1.19788012673922200D-02  8.16061515018504900D-02  1.35044068292951500D-01  2.12715596642437200D-01 -1.89083483670814300D-01
36 27 -2.36321129716229200D-02 -1.43524073718553600D-02 -1.07318115107460900D-01  1.54677961906512000D-01  1.22682332053824400D-01
36 28 -1.94962359641239200D-02 -1.03186096089700400D-01 -2.53738811422224200D-01 -7.04400567455758200D-02  7.18131118790079600D-02
36 29  1.63722715461537000D-02 -2.53776444429735200D-01  1.26673867542843600D-01 -2.24803487226401900D-01  1.29753218803508400D-01
36 30  3.52690530225618800D-02  9.98475823754671900D-02 -1.03990366066607200D-02  2.96593054106411200D-01 -5.88509927761148100D-02
36 31 -4.96456314921584800D-02  1.72515984519747700D-01 -1.23663185968032700D-01  3.67692351784466500D-02 -1.45922431717756200D-01
36 32 -8.35307453852025300D-02 -4.88843012757128800D-01 -1.56317454757343200D-01  1.93272745077845900D-01  6.60995933475023300D-02
37  1  6.06063513390897700D-02  9.60416868301163200D-02 -1.36534717555252800D+00 -6.31743924227334800D-02  2.09783113628812300D-01
37  2 -2.39189639241616900D-03 -1.31704105317730100D+00  1.43316356666873800D+00 -6.67467776691791400D-02 -1.96519130333430300D-01
37  3 -6.81741183853092500D-02  2.64693248718739900D-01 -2.06767485826919800D-01 -4.98880685987897900D-02 -3.29853755441870400D-03
37  4  4.36908684401007300D-02  1.34014722501670300D-01  4.11187504156633700D+00  8.89651548723406900D-02  1.87206565707003600D-01
37  5 -9.39969726895692600D-02 -6.04109560062901400D-01 -2.72752772965542300D-02 -2.83228204926771700D-02  1.31845351941041400D-01
37  6  1.54015114780434500D-01 -2.85860466721476300D-01  5.03945217110616800D-02 -1.52423813740030200D-01 -1.62010483523447800D-01
37  7  5.88163259462327300D-02  3.71693197627449800D-02 -4.32384942442941000D+00 -1.43575198495829000D-01  2.20389904962058300D-01
37  8 -7.49158109975291100D-03  2.20024503797240900D+00 -2.47055617127348200D-01 -1.38798307886013200D-01  7.74183424680682500D-02
37  9 -1.20690136794065800D-01  4.32717943259961000D-02  2.02067011153519700D-01 -2.08059667114859000D-02 -4.23779973868850900D-02
37 10 -3.70147050966837800D-01 -6.72983469149790500D-01  4.04973082672711100D+00 -8.06741717107304200D-02 -1.87537500333101400D-01
37 11 -8.13408071706235900D-02  1.82820816676773000D+00  2.15958990948799800D+00  1.16912804781171000D-01  1.93438348829251800D-01
37 12 -1.17503846992924300D-01 -7.59345018363281500D-02  8.34881727218713000D-03  7.82678941554985200D-02 -4.86088894882721500D-02
37 13  1.95597618010982900D-01  3.41880581468254000D-01 -4.03313788796851100D+00  2.96109655985318900D-01 -4.55959709763338900D-03
37 14 -8.40352940129751400D-03 -7.65632142667743200D-01 -2.27760068118334100D+00  8.63490985419877500D-02  3.33583667164369700D-02
37 15 -1.14096546375317200D-01  8.07381796588810400D-02  3.23474581727165800D-02  9.54931545546992000D-02  9.95551145230507300D-02
37 16 -5.76409972942248000D-02 -2.48741756403363100D-02  3.38552143379771700D+00  9.54877282934818400D-02  4.12776231150855000D-02
37 17 -1.27939124455197100D-04  7.66079799244415000D-01 -2.52936364584342100D+00 -7.94531405553753500D-02  1.48827343619031600D-01
37 18  1.19382676590804900D-01 -2.68210020209835300D-01  1.79744824303310000D-01 -6.38872954743720000D-02  6.81861351997198700D-02
37 19  1.06054258532139900D-01  2.24886185688676200D-01 -5.71364261361004600D-01 -1.76652337616578100D-01 -6.44732926198480900D-02
37 20  1.03175538069031500D-01  3.63488054165722100D-02  4.40646721843808800D-01 -1.80344910448432100D-02  6.10594127428590800D-04
37 21 -2.56148367110385600D-01  1.42129385906539400D-01 -8.95692796964290200D-03  7.44130037280234000D-03 -2.61209329937302200D-02
37 22  1.86796326209301900D-02  2.56336642116589000D-02 -1.37101908968371400D-01  1.13230587412055600D-01  6.06635388622887400D-02
37 23  5.62278366436145600D-02 -1.16891375505901600D-01 -2.58191601130829500D-01  4.34700974229113900D-02 -1.90785524221897800D-01
37 24  2.29758861898780100D-01  4.70568055739868900D-01 -1.26346054542281400D+00 -4.43550898407795900D-01  1.11307132318759200D-02
37 25 -7.48330296651212500D-02  2.97128635145448000D-02  6.67602445436366800D-01  5.62456954847598700D-01  1.34219761295134300D-01
37 26  1.73429535503454400D-01  1.00668386787641500D-01 -7.61388583832079600D-02 -2.39944684901767400D-02 -6.57848698394175600D-03
37 27  3.05729554741181500D-02 -1.86403711539740500D-01 -7.62805091243972800D-02 -1.60940550007424000D-01 -1.39072798465101900D-01
37 28  2.58893074217851400D-02  1.13183491043316700D-01 -2.54147725988359400D-01 -2.66289710116535000D-01 -4.79568964251425200D-02
37 29  1.90113175857381600D-01 -5.59102086710338000D-01 -2.10000974151651300D-01  1.05522500384813100D-01  1.31094891147911200D-01
37 30 -1.17722734511606700D-01  5.13901621484982900D-01  1.17387649766229900D-01  1.86767128646002200D-01 -1.99655534685687800D-02
37 31  2.92063685307370500D-01 -3.68866971778362800D-01 -1.16336613117907000D-01  6.69391044856059700D-02  3.24738260310782100D-02
37 32  2.48376772458812100D-01  1.05616226494786700D-01 -1.92297527769368300D-02  5.83929352424403200D-02 -1.10175460469193300D-02
38  1  6.93120200324045400D-02  1.22627286741134200D-01 -7.28303669508492000D-01 -4.00374932579855400D-02 -2.61037393615226300D-03
38  2  6.24383297775903700D-02  6.53211072441685900D-01 -5.25284132316335500D-01  2.30206814061622600D-01 -2.38874813171139300D-01
38  3  1.79766977094806300D-01  5.91078360763325000D-02 -2.80648418848506500D-01  1.66016355346435000D-02  1.84223356167878500D-01
38  4  2.68917645242256800D-01  5.49377499563928800D-01 -1.79655442342256000D+00  1.66120056334062100D-01  1.04417131320224800D-01
38  5 -4.85735605405105800D-03  3.27392157434337400D-01  1.04939850612238800D+00 -1.61337294969575800D-01 -1.24274934798478900D-01
38  6 -1.29786578093410500D-01  2.54061512891890100D-01 -1.10431514362237300D-01  1.39389789697102100D-02  1.29456741061622100D-01
38  7 -7.81357423637221500D-03  5.17714181801307200D-02  7.26332982145142100D-01  2.89510465150014100D-01  1.53208813481239200D-02
38  8 -4.71988930630925200D-02  4.15566309807537100D-01  1.01791295655418600D+00  1.92500675775283300D-01 -1.80821708574998300D-01
38  9  1.91815871953005900D-01 -1.09941633780074400D-02  1.22567576206060100D-02  7.56467361874979400D-02  2.45472108091494900D-01
38 10 -6.90164895355162000D-02 -1.55502971371602500D-01  7.36258423850260500D-01  5.64532896611779200D-02  2.21092670361055200D-01
38 11  1.08825463161415000D-01  6.55663074937810600D-01  2.53196665702985700D-01 -1.54598412275646700D-01  6.96170764383039500D-02
38 12  5.27123293275432400D-03 -7.48883093710571700D-02 -1.46747281248878200D-01  1.70321237252071800D-02  8.75004470201286200D-02
38 13  1.53373587514958000D-02  1.62245438236463400D-02  3.97572590656233200D-01  5.86385219536602100D-02  4.65171101607264200D-02
38 14 -1.64684516532484800D-01 -1.64390935714891400D-01  4.48351256463055300D-02  1.71687518508520700D-01  2.11631721149675500D-02
38 15 -3.97282159271955700D-02  1.85650438122275400D-02  7.74793682105603300D-02  2.01641078478851900D-02 -1.18256397768194500D-01
38 16  5.19272800293584700D-02  1.23949767359493800D-01  4.71781155377494400D-01  1.20034867353308600D-01  6.98833692459837200D-02
38 17  3.64227429257634800D-03 -1.02226202289749300D-01  6.71252566070621200D-01 -7.46647214992488500D-02  2.01108185116452600D-01
38 18 -1.99820650908355200D-01 -1.28753420809759600D-03 -7.44299482928073400D-02 -1.36047301970588700D-03 -5.89488813985898700D-02
38 19 -5.56575562162558500D-02 -1.24321078725468500D-01  2.31765500411452200D-01  5.08562690201552000D-01 -7.43295919456956100D-02
38 20 -3.00321712288218800D-02  2.10350968377788300D-02  5.20924696631034800D-02 -7.89789009070764000D-02 -1.93545162134249800D-01
38 21 -6.19957854341994000D-02 -9.58311133342113300D-02 -1.52581237061057200D-03  1.21631578726329700D-01 -2.05066648330643600D-02
38 22 -1.01124913893264900D-01  2.03482763566876100D-02  3.06072517365490800D-02  1.13139788395558600D-01 -1.15885003541274400D-01
38 23  3.99596187677408100D-02  7.59253847735338600D-02  8.01417910356616900D-02 -1.18484789311372100D-01  1.60571324600920600D-01
38 24  1.06337742589342600D-01  2.23327670134888500D-01 -2.62449925875645700D-01 -3.47333873566888200D-01  1.59282431295476800D-01
38 25 -4.26352175297131700D-02 -8.24730034903371100D-02  1.10594775375092000D-01  5.92198518468035800D-02  1.09273572200188300D-01
38 26 -7.27508032505626000D-02 -9.88733792035026300D-02 -1.35181168599237100D-02 -8.78498708241406600D-02  1.24691722329990200D-01
38 27 -3.68418515058497300D-02 -2.44942393134762800D-01  4.40725549235302200D-02  7.33416866874631700D-02 -8.38514756772725100D-02
38 28  5.64600168165133200D-02  2.73914588607591600D-02 -8.19995423248014000D-02  9.04174206092018500D-02  2.08506444238596200D-02
38 29 -1.13665755909170100D-01 -4.11306705124450700D-01 -7.82725824114018800D-02  4.80157808322456900D-02 -5.20790678052006400D-02
38 30  6.18701917765294900D-02  3.37405198004415300D-01 -1.42624988376410600D-01  1.52659088196406000D-02 -7.39970379121679100D-02
38 31 -3.36533872961706600D-02  7.11525538763511400D-02  7.67485698399234900D-02 -5.41848254692924000D-02  7.72325531501636400D-02
38 32 -8.26171355266853100D-02 -4.48000699220057500D-01 -1.54373732998250400D-01 -1.68065092836450800D-02  6.94716439369878200D-02
39  1 -2.65296148797244400D-01 -4.95757451958066600D-01  5.33246740265868500D-01  4.75058560242790200D-02 -1.65208316339072600D-02
39  2  6.89824857677188700D-02  2.98782856656526300D+00 -4.23099336245385500D-01 -1.31167232601645100D-01  6.27187106197806100D-02
39  3  2.01963706628885800D-01 -2.64682417248666400D-01 -8.42411542037445200D-02 -4.93299607291290400D-02 -1.28793155253988100D-02
39  4  3.83368206019557100D-03  2.45935446444973300D-02 -2.95429345241220100D+00 -1.62665026171685400D-01 -8.88574393521441000D-02
39  5  2.98972728425913200D-02  1.15123002416445800D+00 -1.27361719805694500D+00 -1.71561033655086800D-01 -1.41618942237383900D-01
39  6 -7.12937088935508800D-02  2.12912651130934900D-01  2.09127630731129200D-02 -9.51867577950912100D-03  4.87663356964762500D-02
39  7 -9.62643466013600800D-03 -8.11387233745210900D-02  2.72043358152125600D-01  5.10477093205494200D-03 -1.03948058368845700D-01
39  8 -1.53049156233058300D-02 -1.10594690575256900D+00  3.24225703331684400D-01  3.19574214449400500D-01 -7.38235826483194100D-02
39  9 -1.32121319933901900D-01  2.05944902582221500D-01  2.23173302525322700D-01 -3.09367994398578900D-02  3.63676030703735800D-02
39 10  5.09399036332627700D-02  1.87247562225925000D-01 -8.86298046495206200D-01 -1.46606659310207400D-01  1.25263318049063700D-01
39 11  1.38577877381612500D-01 -3.32823670562125700D-02 -1.41545309995308200D+00 -3.46947114221066700D-01 -8.96653921150037400D-02
39 12 -5.14105840431766200D-02  1.41075976158180800D-01  1.13304043384857300D-01  1.82204252635488700D-02 -8.76917209585227800D-04
39 13 -6.05472493785704200D-02 -1.43379493403611500D-01  1.76271158687401900D+00 -1.49489408103412400D-01  2.26990786398266100D-01
39 14  4.76078117593714600D-02  9.39792503689206700D-02  2.62533584968156000D-01 -4.63637706952430600D-03  3.94847621282986300D-02
39 15 -3.04440404240257300D-02 -9.04072170427291200D-03 -1.63728709941943400D-03 -3.41750005838832900D-02 -4.82654959503144200D-02
39 16 -4.13986465403922400D-02 -8.42836540608927200D-02  7.92227330813673900D-01  1.17720414817652900D-01  8.71020568555096700D-02
39 17  5.06902751682120900D-02  8.12168048989236600D-01  1.31227410669793000D+00 -1.36293037695914900D-02  5.39058094192754500D-02
39 18 -4.44596592711487500D-02 -9.44615014812670600D-03  1.33433571525022500D-01 -3.27351966945676000D-02 -1.48491546723983100D-01
39 19 -1.00610082252618400D-01 -2.05075095035046100D-01  2.38444103543632800D-01  1.75838941481165200D-01  2.37979301253755900D-01
39 20 -7.53477015175378900D-02  4.73575464902399500D-02 -7.28372845661218100D-01 -5.62413421571566100D-02 -5.13881510814560200D-02
39 21 -2.41904122948583100D-01 -9.24292516923576600D-02  1.11480137347490500D-01  3.19280815220301800D-03 -6.94880370620385300D-02
39 22  6.62952289098346600D-02 -6.35997005662277400D-02 -3.99103577183954800D-02  9.56930643026375800D-02 -2.99619532911601200D-01
39 23  4.09296339255442700D-01 -1.09676806343841400D-01  2.30333067185762300D-01 -1.97840937845113900D-02 -1.68442815069025400D-01
39 24 -5.60292624366833100D-02 -9.43348862359736400D-02  5.63895752720632600D-01  1.99963486156360400D-01 -2.80482517511969400D-03
39 25  3.21510804110288300D-03  1.29934649474220000D-02 -3.80000405017365100D-01 -3.96900448828995900D-02  9.49777877586232800D-03
39 26 -2.59647722267097300D-01  6.02761313137727800D-02  1.40614037749548400D-02  1.51107362021324100D-01 -1.22883430255513700D-01
39 27 -2.82239317658108700D-02 -1.40208153374408600D-01  2.49347700642077600D-02 -6.06118395679110600D-02  5.91702884744213600D-02
39 28  2.67708448568263300D-01 -3.26878737042684800D-01  2.15280055346343300D-01 -6.16693957626246900D-02  1.53903788046900400D-02
39 29  1.58813197730413700D-01  6.22465136935226000D-01  5.89702871428116100D-02 -6.21048398171268300D-02 -2.02226076578834800D-01
39 30 -3.82094725135804400D-01 -6.23589826172934800D-01 -1.04621722972151400D-01  9.80937045989162000D-02  1.42123722247118900D-01
39 31 -4.92680965702052600D-02 -1.32875243113014100D-01 -1.27084662875230200D-01  1.16682899315372800D-01  7.20390618010070800D-03
39 32  3.18642695752353500D-01 -1.94716556444447700D-01  6.13650568940855700D-02 -8.12451060295694400D-02 -6.90745999447517200D-03
40  1  2.88087500182095200D-03  8.71064552060418200D-02 -3.83224344487026500D-01  2.11811464307776100D-02 -5.88456416060611300D-02
40  2  3.07975308749410200D-02 -2.89334723741462800D-01  5.09224144756439400D-01 -3.46586208444160500D-02 -6.76875634283075600D-02
40  3 -2.09914076556004800D-01  2.77601639984312800D-01 -2.11255128887285000D-02 -3.13419288976492200D-02 -1.11957758079755400D-01
40  4  8.43176383227311200D-02  1.81128527368337900D-01 -8.56223090908982600D-01 -7.34993898311993800D-03  6.33462372897555500D-03
40  5  9.41195039891399000D-02  5.82370324131833500D-03  6.53821118997428900D-01 -1.17650023528543400D-01 -4.64804063922397800D-02
40  6 -8.09543987196592300D-02  1.27434805111899200D-01 -7.52829296012355700D-02  7.85983367990245900D-02 -1.82467455142297400D-02
40  7 -1.05862577444671000D-01 -1.60843657763107000D-01  1.29178684731358000D+00 -9.09831240927974200D-02  1.22909197830672900D-01
40  8  4.25386908241417300D-02 -2.60267389040565600D-01  6.74673775742874900D-01  3.45443694225097800D-02  9.06079297121335200D-02
40  9  2.82505011190882600D-02 -1.18858430831221700D-01 -2.89195771227539300D-01 -4.93523705228934300D-02 -9.76856169243474800D-02
40 10  9.41046738624505300D-02  1.84439228862510200D-01  1.00059902715352500D-01  2.95377197481941200D-03 -1.14705835548634100D-01
40 11  6.10798562389516800D-02 -2.42924378736677000D-01 -5.46160491827193200D-02  1.96347646897096700D-03  1.29860324845919900D-01
40 12 -1.36900168512313500D-01  7.03984366639369400D-03 -1.41524659367241400D-01 -3.38759285572791700D-02 -1.13250216224936100D-02
40 13  1.76612855320374200D-01  4.14013523299212300D-01 -8.44606528883219600D-01 -8.10191853895528800D-02 -8.39220141444663300D-02
40 14  1.42032046226312200D-01 -7.74081561753396000D-01 -2.73919045393328500D-01 -3.34869917395162900D-01 -1.39205778435853700D-01
40 15 -2.15798717455061200D-02  1.60785650181359700D-01  3.63322107015166700D-02 -1.47006818300004400D-01 -2.00588168903465000D-02
40 16 -1.13760669910329300D-01 -2.46475269178127700D-01  8.54997986080557800D-01 -1.71479296027394400D-01  4.94804861936449600D-02
40 17  3.85579381324320400D-02  7.98181910414237000D-01 -4.79798432467983000D-01  1.25449164535023400D-01 -1.31599833758287200D-02
40 18 -1.44102986731038600D-01  1.57262970106867200D-01 -1.29325028397998600D-01 -1.12655982495331100D-01 -1.68916719217857000D-01
40 19  9.57758579482741600D-02  2.05819603478096200D-01 -2.43445506763700400D-01 -2.98390295438558200D-01  4.83802589973548300D-02
40 20  8.79130722998071600D-02  5.35486394825279800D-02 -3.41448428831032400D-02 -1.44731545669717500D-02 -6.17139257763940700D-02
40 21  2.08409979776534800D-01  1.38531110963562500D-01  1.13138683287538300D-01 -2.39425164929340000D-01  1.86181172977236600D-01
40 22  5.32439919521036600D-02 -1.96538103009385400D-02  6.05567720193262600D-02 -7.58265282740049900D-02 -1.03214182027758900D-01
40 23  1.92760826778963100D-01 -8.95466447512038700D-02  9.34330542279784600D-02  7.52838261049807200D-02 -3.36775647700430200D-02
40 24 -1.43731151707154900D-02 -6.14169865750292600D-03  2.18732051607179200D-01 -2.31387987459845100D-01  4.90598681800455000D-02
40 25 -2.69299489122564000D-02  2.47003277964261900D-02 -5.81680357112033700D-02 -3.10020945568520500D-02 -8.24726470776786800D-02
40 26 -1.31814385382288500D-01 -1.12962038270965600D-01  1.03129633268983000D-01  1.59481931316576500D-01  2.81303306739082700D-02
40 27 -1.87612261990484600D-01 -3.15272145032484600D-01  1.02687857896477600D-01  2.50666490149554900D-02  1.61635484285143400D-01
40 28 -1.53989287153899700D-01 -7.64619713124383000D-03  1.70263583460302700D-02 -3.51933855297957800D-02  2.46033854599081200D-02
40 29 -6.46472994340025800D-02  1.61236999331900600D-01 -1.32493960703067500D-01 -1.11853043417979300D-01 -8.55186850078746100D-02
40 30  8.41208168255662300D-02 -1.48835915264512600D-01 -5.17826758875607400D-02  2.85820461692141900D-03  5.45184591448315500D-02
40 31 -1.76173319092745800D-01 -4.57821625203370600D-01 -2.21631463515721200D-01 -1.34398740255109200D-01  3.24221116992663600D-02
40 32 -1.55172852890078000D-01  5.28250068277432400D-01 -1.83338820650111400D-02 -7.18091845168675600D-02 -1.33696050905909500D-01
41  1 -9.79348746037044000D-02 -2.66336760214204300D-01  6.98030548208158700D-01 -2.44902660308237900D-02 -1.63986055790721400D-02
41  2  4.30079148914733100D-03 -5.32524984208698600D-01 -5.64738006764183100D-01 -4.95492354885056700D-03  1.69776149466357500D-01
41  3 -3.02793802534086600D-01  1.33017653067728900D-01 -4.02888053587681400D-02 -5.62863731756492000D-04  7.42315604578882700D-04
41  4 -1.82346126486640300D-03  8.16824977204203700D-02 -9.07203517258209400D-02  1.01449985021144000D-01 -3.18688464038278200D-02
41  5  4.30349954119096600D-03  2.07772499477956300D-01  1.79628368306370800D-01 -4.89640992118956800D-03 -2.20899400384529000D-02
41  6  8.17588069573776200D-02 -5.96688669189242600D-02 -4.22538991566072900D-01  1.22456885496653000D-03  3.07870293441759600D-05
41  7 -1.06008280952109500D-01 -2.56019717758905600D-01  3.82805538280732400D-01  2.27328731878546900D-03 -2.86575966538017800D-02
41  8  1.62905460016977500D-03 -2.07972459605507400D-01  3.00503709427598400D-01  3.00854335350319400D-04  6.27808495958514200D-02
41  9 -1.81257323261950700D-01  1.18476473666099200D-01  1.04550288266217700D-01  1.75655990019464300D-04  5.96153116765083100D-05
41 10 -3.06606431329434500D-02 -7.35527254150224200D-02 -2.64891510077913200D-01  1.80249319592659000D-01  9.18176461761686000D-02
41 11  1.93987606597842100D-03  7.05865305393082600D-02 -1.05560872017456200D-01 -6.58667490707285300D-04  1.25758956021271600D-01
41 12 -1.32152686958806100D-01  6.39373093753478100D-03  4.48235235081281500D-03  2.59749517306432800D-03 -4.39941927967462400D-04
41 13  2.33315450299722700D-02  1.28581913002810600D-01 -2.50287120424569000D-01  1.09865160735368500D-01 -2.04430134406799000D-01
41 14  1.79181202066408500D-03  1.74309819255586300D-01 -7.94760465026295300D-02 -8.20843012902297000D-04 -1.19318215507238700D-02
41 15  9.53639397082553500D-03  2.39542757989829600D-03  5.98015471229962600D-02 -1.94935630411873400D-03  1.77183750813768700D-03
41 16 -1.24589767806660000D-02 -8.15483287659170400D-03 -5.52496463060761500D-01 -7.06103386528143700D-02 -1.89759482143586800D-01
41 17  1.72049777580166600D-03 -3.70160047392821500D-01 -1.75733751911896800D-01  4.22794936374186400D-04 -3.95905046379449700D-02
41 18  2.67413354833673300D-01 -2.27822850195728400D-01  1.31465868101149500D-01 -1.47960396233879700D-04 -2.85968735188357800D-05
41 19  2.55544348641164300D-02  5.60786502400676900D-02  2.55273632576308500D-01  1.22184886641771900D-02  7.51859197868017800D-04
41 20 -6.48622369857319300D-02 -2.63346598837795100D-03  1.25628918208253900D-01 -5.31151826378367100D-02  4.77470073138659300D-03
41 21  1.18081470402192700D-01  2.92532597266679800D-02 -1.94288191478816300D-03 -1.11714829004048500D-01  9.98248858040450100D-02
41 22  1.18899432000032100D-02  2.76770327103267800D-02 -3.07797256318024400D-03  5.26752346911853100D-04  3.95387460704577200D-01
41 23 -2.46941103598059500D-01 -1.48446357106518300D-01  2.94511171005608200D-02 -5.76697605995243300D-04 -9.37378713400264700D-04
41 24  3.18117142413545200D-02  4.63035002921414800D-02  4.39201009816724600D-02 -3.41208385819874800D-01  5.56394524510597400D-02
41 25  6.67123420791411000D-02 -2.53134421526994000D-03  2.31396551910412600D-02  1.10217001933099400D-02  4.60912527241404000D-03
41 26 -2.17783800109963600D-02  1.81559622057189500D-01 -2.28355427085926000D-03 -3.57684420704614500D-02  2.26876339768622800D-01
41 27 -1.91107897698161400D-01 -1.51386431678844700D-01  2.33051228942850600D-03 -2.53823800558688400D-03  1.47916271604462300D-01
41 28 -8.59720756607370600D-02 -6.19441959437253600D-02  3.65756963639131700D-02 -6.77107841468511100D-04 -1.05469757481746600D-03
41 29  1.15778224887114300D-01  1.30036237411692100D-01  4.16289669561606000D-02 -5.24941085779234700D-02 -1.73098670832437600D-03
41 30  1.72634340537914800D-01 -2.58324208785406100D-02 -1.33432927979098400D-01  1.32653232605935500D-01 -7.23678892304986300D-04
41 31 -1.29420589354052500D-01  1.05447961370464300D-01  1.39004680898181800D-01  2.58844952414963600D-01 -7.06342754768929500D-04
41 32 -2.20075959852447300D-01  1.79209381191950300D-01  2.79641759035309200D-01 -1.21228370362243800D-03 -1.94796524168989200D-03
42  1  1.76646727149419800D-01  3.95448307665831000D-01 -1.01905391770489600D+00  9.56773246589780700D-02  1.05074640492231300D-01
42  2  1.12038662484840300D-01  1.90577945846459200D+00 -2.85484113139930600D-01  1.65085770695165900D-01 -3.91037349458069300D-03
42  3 -2.01903138196300000D-01  2.05813511690881200D-01 -1.19182139115719600D-01 -9.47059991923974700D-03  3.04040418164125800D-01
42  4  6.83744191728496300D-02  1.33099811347164300D-01  6.95081577870325400D-02  1.07075700915106500D-01  1.39991970730538600D-02
42  5 -9.75509668297494800D-02  8.83963389694571100D-01 -1.84144490832796900D+00 -2.78014495248744500D-01 -1.23857006410385400D-01
42  6 -3.86070479521302100D-02  1.62464054362515300D-01 -1.36686704476652700D-01 -1.95721691680094700D-01 -5.50028532187208900D-02
42  7  1.22818221395607700D-02  8.89384620766510100D-03 -9.50605271365126700D-01  2.82123526692452500D-03 -1.97839296561480400D-01
42  8 -7.12556497656559300D-02  1.80830518224199400D-01 -7.11307666157339100D-01  3.74379411614255400D-01  1.11879171016344800D-02
42  9 -5.53013228578908500D-02  4.41134057562563400D-02 -3.02217661449767200D-01 -3.75157196714250300D-02  1.08501871063122800D-02
42 10  1.43211755855995600D-01  2.82726832526422500D-01 -6.99690739659530100D-01 -6.81182168362304600D-02 -9.60550132373529500D-02
42 11 -3.83838460825289300D-02  4.06232771280589500D-01  1.09583693788751700D-01 -3.25712664798161200D-01 -9.17408334974719600D-02
42 12 -7.93659211820935800D-02  1.71106754679565200D-01  1.39387248120733100D-01 -1.09114291162866800D-01 -5.56071373776229100D-02
42 13 -5.22543581799693200D-02 -8.75687322277001600D-02  1.41397700284331500D+00  9.51555401391156500D-02 -1.07870122364174300D-01
42 14 -2.16429659963057000D-01  2.48131474066333000D-01  6.71110059567927800D-01  5.09076209564086700D-01  1.49286127960125500D-01
42 15 -4.57933934657913800D-02 -1.03492734494334300D-01 -1.34580393016025400D-01  9.00492841873978800D-02 -6.08431351119539800D-02
42 16 -8.62491870747679100D-02 -9.68016733578151700D-02  1.30651607717522800D+00 -1.25585203079944600D-02  1.58397443319332400D-01
42 17 -2.07089278929986900D-02  2.13521666847010900D-01  1.76795893598745900D+00 -1.89588554354225600D-01  8.64627567044952700D-02
42 18  2.26726314520987000D-02 -1.09135388156594700D-01 -4.60510070547778100D-02  7.62022396176933700D-02  6.50414136810157500D-02
42 19  3.91329713208832500D-02  1.05293764905904600D-01  2.99800528894633700D-01  1.96844707892104500D-01 -1.46260036757634600D-01
42 20  1.28386159700687000D-01  4.92488549895168100D-02 -3.44400838368476200D-02 -2.02196306506527300D-01 -2.06732434175315300D-01
42 21  1.73711953706580900D-01 -1.52506341161266700D-01 -1.42600846183977600D-01 -1.14436381470783100D-02 -6.46991622926258700D-02
42 22  7.61428004397043100D-02  8.30930174073023400D-03 -1.95756826875577300D-01  1.09016781543019500D-02 -2.17242756806527900D-01
42 23  4.36447839964913400D-02  1.73597972810036600D-01 -7.90894658514802000D-02 -1.26460179009915800D-01  1.32026067284481700D-01
42 24  3.03454218599381300D-02  2.48634213376365000D-02 -1.82386138855651000D-02 -2.35473560646081300D-01 -1.46404851825904400D-01
42 25 -8.65781366503313700D-02 -1.09902854421502900D-02  8.51335416161212400D-02  4.52252657147576500D-01  1.99944561648184100D-01
42 26  1.26623886374535600D-01  2.74034502833129600D-01  3.28752623802657900D-02  3.24022619732243600D-02  1.74929944540422300D-02
42 27 -4.98952564272661800D-02  4.05222067507007700D-02 -3.14977421003048800D-02 -6.81034257041873100D-02  9.02995659070044000D-02
42 28 -1.87798912418658100D-01  9.74993465116537200D-02 -1.12984142835606400D-01 -2.52994743760201900D-01 -2.97016957547191200D-02
42 29 -2.46601251444489600D-01 -3.06051086737619300D-01  1.92756570200135800D-01 -2.52125345674685000D-01 -1.01733439071094300D-01
42 30  5.95679880798624500D-02  2.34953503360194700D-01 -1.36043966763601000D-01  2.04458707245349900D-02  1.83461768977888900D-02
42 31  3.75900752480213500D-02  2.90767229414986900D-01  1.21081411568943600D-01  1.09499585907677700D-01 -1.15556871091603100D-01
42 32 -5.74400222358327800D-01 -3.89668129958619000D-01 -2.63019423727173000D-01 -5.56424643808338900D-02  1.55455130773912200D-01
43  1 -6.38977704862616200D-02 -1.84398550459293000D-01 -9.12271110211453100D-01 -6.21076468197080000D-02  9.46592180069014100D-02
43  2 -9.23456817024265400D-03  1.43291547059762500D-01  5.18882403669014100D-01  6.71452994127024600D-03 -2.08476138516025200D-01
43  3  6.09216455246473600D-02  1.47554492991377700D-01 -6.03532415134013200D-02 -7.16844231363904800D-03  2.17188532631548100D-02
43  4 -1.08217716870512400D-01 -2.34385672138930600D-01  2.18830225741312400D+00  1.27589555332137500D-01  5.13840145680698400D-02
43  5 -9.65138087319849700D-03 -4.57236145328179500D-02 -1.35155608925207500D+00 -4.32282932876513300D-03  7.12373571327857300D-02
43  6 -6.22098917522702400D-02 -9.02746538051566600D-03 -5.44366616173057200D-02 -4.28204913033933500D-02 -2.70082432783298400D-02
43  7  3.31058428767609200D-02  1.75681801954426300D-02 -2.93299891709515900D+00 -2.55210672588027900D-01  6.29057121998328200D-02
43  8  3.19571886831381900D-03  5.48559156338414600D-01 -8.97680279081027200D-01  1.73907577027254900D-02  7.21540308354448700D-02
43  9 -1.72229223800737300D-01  1.00075192965292700D-01 -4.95549132366080700D-02 -5.22298122373217400D-03 -4.58899901536406300D-02
43 10 -1.22362498332971400D-01 -2.91921497978770800D-01  1.69900383211263500D+00 -1.13952737134527100D-01 -6.98602244502067500D-02
43 11 -3.60776522917125600D-02  4.30216917615614200D-01  8.77199541777737200D-01 -1.76068274653525900D-02  6.76968660842901000D-02
43 12 -4.35122890949446900D-02 -2.41845769893460200D-02  2.77082674201988300D-01 -2.85626740485894400D-02 -2.20902225859692000D-02
43 13  4.49322275335214500D-02  1.22466201576316200D-02 -1.05643520845276900D+00  1.00900532211601500D-01 -1.66117058024170500D-01
43 14 -2.79778972845701100D-03 -6.64457046151212000D-01 -7.35567122939089900D-02  1.54129549993794300D-02 -6.30501400436311600D-02
43 15  3.23662526636495000D-02  3.06838873799819900D-02  1.53638769242359300D-01  5.37410411336917300D-02  2.08086045614104100D-02
43 16 -8.68157474905124500D-02 -1.16367500170160200D-01  9.69450081375044600D-01  1.08741022227298400D-01 -1.53390113087598300D-01
43 17 -1.67951803756365400D-02  7.34333244689870600D-01 -2.38436113299291200D-01 -8.04671647111159700D-03  1.41591224607585600D-01
43 18  2.92319695662820500D-02 -1.70823194173867300D-01 -1.16739852492823300D-01 -1.27115113436377300D-02  1.83007859034689200D-02
43 19 -2.42295761231671900D-02 -2.52880712607241000D-02  4.37288487753734700D-02  7.98287341585078800D-03 -1.11868358994617400D-01
43 20  1.52084098093017600D-01  2.42554715217825200D-02  1.41270454297340500D-01 -2.87085295878093800D-01 -4.10867297582511700D-02
43 21  8.29220331960244700D-02 -1.95278978406884800D-01 -3.17812007006358000D-03 -1.10341683895217600D-02 -9.63034647461659100D-02
43 22  1.07337633135688400D-01 -8.42659029177849800D-02 -8.68415475016012300D-03  6.01068954011199200D-02  8.00270170989828000D-02
43 23  6.17261232423064200D-02 -1.41753140341288500D-01 -1.81576833471382200D-01  1.73234566179997900D-02 -3.51177439701040900D-02
43 24  2.06297267115522500D-02  3.42047849471737000D-02 -1.54926403522934500D-01 -1.25253429957168300D-01  7.68587408601979100D-02
43 25 -6.42480704232837300D-02  2.64644115804776000D-03  2.31066448007449800D-02  4.00179726750319700D-01 -6.71108284244501300D-03
43 26 -1.91052613090749500D-01 -1.51350198515830100D-02  7.15968025156176100D-02 -3.73146364876015800D-02  8.67275063611391100D-03
43 27  2.86418858514878300D-02 -7.48598195814734500D-02 -1.77902157968392600D-02  5.13972817964851700D-02  7.27081755567680500D-02
43 28 -5.62726213691609300D-02 -1.64355541876070200D-02 -2.00066944970166600D-01 -4.38566309464222700D-03  1.66616117322337000D-02
43 29  2.30593818057473800D-01 -2.53819222072242900D-02 -1.32338623945612900D-01  1.71592832964514700D-01 -2.28218424239876600D-02
43 30  1.76542873344971100D-01  7.69091052865348400D-02 -3.55719165806043900D-01  2.78813389416988800D-03  3.51861050881276000D-02
43 31  2.81197190438351900D-01 -3.04984925388154600D-01  1.55939407684444900D-01 -2.30660045865270900D-01  3.11128961900054900D-02
43 32  1.05845882097785400D-01  2.38053613770883400D-01  2.23932131991105200D-01 -8.38169091090140200D-02  2.43095570156953900D-02
44  1  5.63553235076019000D-02  1.13662828977223900D-01  6.44498952699725500D-01  1.23028700327635500D-02  1.06387752570856100D-01
44  2  3.30082022755598200D-02  3.73488170516490600D-01  2.99801713576037200D-02  1.28202758638760700D-01  1.45184030254835300D-01
44  3 -1.50226096473926700D-01  5.04206621909126600D-03 -4.74222775838515200D-02  4.73333507608501900D-03  8.08536739332957300D-02
44  4 -4.02814905040903600D-02 -1.09986477282691000D-01  2.57057467627481900D-01 -1.72275540220388100D-01  6.54450595733184500D-02
44  5 -1.50464272088185700D-02  5.31249851046812000D-01 -1.39901002718591200D+00 -2.45640377530278800D-01  7.13195843595274700D-02
44  6 -2.15318700088347000D-01  1.43999115728819200D-01  1.23625157939895400D-02 -9.74202447686121900D-02  6.70162361842990000D-02
44  7  1.52072481679316700D-01  2.85525206770571900D-01 -1.34700381859034100D+00 -6.38621792213105700D-02  1.44254795043038200D-01
44  8 -1.92392233348235000D-06 -2.53391399325220600D-01 -6.10485397606934000D-01  1.78957458418671300D-01  8.36359803480462000D-02
44  9 -7.15607196046579600D-02 -1.20752607433884400D-02 -1.66084292160717300D-01  3.21774709669396300D-02  1.72502109622461000D-01
44 10  1.07711819094987900D-01  2.99750510414403500D-01 -1.78089494425871800D-01  4.71836928947949600D-02 -1.21760094805065400D-01
44 11  5.65004433165048200D-02 -1.24280090546393100D-01 -6.97639150785987700D-03 -1.16308866213840900D-01 -6.63553271076072300D-02
44 12 -1.52521946223361400D-01  2.18877273330968600D-01  6.43667371217841900D-02 -2.59464990105568500D-03 -1.10924733381364800D-02
44 13 -1.55214536835208600D-02 -6.21700820965454100D-02  4.06755470700446100D-01  4.73049519605349500D-02 -4.79835233490195000D-02
44 14 -1.43275389517185800D-02  2.93515161268087000D-02  5.00187876702840600D-01  9.01669818709189600D-02  2.18634419193260600D-02
44 15 -4.12987476875713600D-02  1.94353057682453900D-02 -5.56651735550833700D-02  3.77932811807734900D-02  4.20559637119220900D-02
44 16 -3.82525937582911000D-02 -1.02930744767997600D-01 -2.67174994112669700D-01  1.19155613001543700D-01 -4.86603935737654600D-02
44 17  3.67317062874022600D-03 -1.58238073993565000D-01  3.16278678706686900D-01 -1.38751075731136000D-01  2.11803124763062600D-03
44 18 -5.01468480236247600D-02  4.80288167759944200D-02  4.78840041647076300D-02  1.48971733495792700D-02 -1.82631933730938300D-02
44 19 -3.56025871325669100D-02 -1.58611679001993600D-01 -1.35724438617192300D-01  1.93191687829135500D-01  1.20757626293300600D-01
44 20 -7.26329833035296200D-03  5.89865875995328000D-03 -6.32583777937842200D-02 -9.08429784214959500D-03 -5.83422768558695500D-02
44 21  4.29436379638581700D-02  3.02018991816629400D-01 -7.18329267310167100D-02 -2.20317225329993400D-02  4.49634655545087900D-02
44 22 -2.29317430215092000D-02  3.99164204187117400D-02  4.44143498897966600D-02  9.78395696408640300D-02  3.02610370756410400D-01
44 23 -1.70289331742792600D-01 -1.32321039013617900D-01  6.00188447194426700D-02 -1.11294318832016800D-01  4.68145841776452500D-03
44 24  5.00386300137817300D-02  1.53605925309944400D-01  3.78951982356909000D-03  1.40158489678098100D-01  1.02703465001693000D-01
44 25 -1.30807423697797400D-01 -9.50324896601222200D-02 -3.10965598959959800D-01  3.17849558480301900D-01  1.67706630349954600D-01
44 26 -3.13303363645274900D-01 -5.17757681170010500D-02  1.28064776297975200D-01  2.71766431359015900D-02  1.49328398497643400D-02
44 27 -4.21094829856656500D-02  1.67966961629717600D-01  7.89815456438530200D-03  1.57746610890668600D-01  8.95376631611645200D-02
44 28 -2.02391249883434000D-01  1.12853586722269700D-01 -1.94391749423917400D-02  2.13821006510917300D-02 -3.84612394364910900D-02
44 29  1.84893913752224700D-01  6.45740723872023100D-02  1.33769176297008500D-01  1.98392190811630300D-01 -9.80249282944476600D-02
44 30  9.11781734497126600D-02 -2.44364305416126100D-01 -1.84898598807388000D-02  1.04632095939104800D-01 -2.28048289024587000D-02
44 31  4.22101126592972000D-02  1.35188098116753400D-01 -3.97644102010539200D-02 -8.12310102673534500D-02  3.14952615552666600D-02
44 32 -1.19057541932019000D-01  6.89923936189843400D-03 -1.09329995491054200D-01 -2.80888728457871400D-01  1.46973700261594100D-01
45  1  9.17509259914127700D-02  1.55236520684576700D-01 -2.97211781945044200D+00  2.86805673787645700D-02 -3.11481761903303300D-02
45  2  1.23030407530132800D-01  1.50337495359290200D+00 -1.18284829251313800D-01 -1.07297614361513000D-03 -1.31745847480947100D-01
45  3  6.99079134625928800D-03  1.24755056134688200D-01  1.18810725838039500D-01  4.43809344774474400D-02  2.34204583029388600D-01
45  4 -1.10324771745402500D-01 -2.28487265810887200D-01 -9.51034192373755900D-01 -1.09473061919852100D-01 -3.45876455325375900D-02
45  5  6.56202100341776600D-02  1.27358089217432700D-01  1.71649032484573800D+00 -5.43976719994692000D-03  1.20378549817164300D-01
45  6  1.42527882763365400D-01 -2.62906432580529600D-01 -7.36236675997593500D-03  7.13904153877481700D-02  6.77777230595499500D-02
45  7  1.48588955380938200D-03  3.93193011885930400D-03  6.85962479801198000D-01 -1.16747753355106900D-01  1.00481610831099600D-01
45  8 -1.88046505396370800D-03 -1.56230783175159800D-01  1.49451059135449400D+00  3.35075641432558200D-01 -2.77007707634323000D-01
45  9  1.85143516333029600D-01  9.18641913012935900D-02 -6.73655412491356200D-02 -9.59995372064947300D-02 -9.72959929588250000D-02
45 10  6.37687693244409900D-02  6.19826823137882800D-02 -7.78697190482524500D-01  2.16022142005164900D-02 -3.23011526844351300D-02
45 11  1.86672846727756900D-01  1.50980904352257500D+00 -8.51461580450329600D-01 -5.04688839030470300D-01 -2.28604136001780000D-01
45 12  1.09726700938653600D-01  1.18877435063127700D-01 -7.43703486819287800D-02 -8.07760330256640100D-02 -4.94699763847630300D-02
45 13 -1.25090406693126900D-01 -2.18759460416332300D-01  1.40902459421295600D+00  1.90371733883080200D-01 -1.02135787788699900D-01
45 14 -2.40186318252051700D-02  4.52502012783511300D-01 -1.03926949025978000D+00  1.29776757114118700D-01  1.01582047937280700D-01
45 15  2.56901963876962300D-01 -3.58484011814244100D-01  8.26482252706864700D-02 -5.38902123502916000D-02 -8.98156229145936200D-02
45 16 -1.87339841095323000D-01 -3.23547044847935700D-01  2.17223147118805700D+00  8.91073774043809200D-02  4.99258365170878900D-02
45 17  1.46993877600933200D-02  1.00242131013014300D+00  2.61180022501545400D-01  7.67353096927163900D-02  1.27453593477017000D-01
45 18  1.50439702205613700D-01 -2.77893295682630500D-01  9.62281986391513300D-02  1.23474177751783800D-01 -1.34525032297346900D-03
45 19 -1.24702210424186700D-01 -2.68953719482319100D-01  7.46435918025819500D-01  6.59521888477006500D-01  1.02840240845514000D-01
45 20  6.87318034853145600D-02  3.14585512210201500D-02 -6.30940603909509300D-01 -4.68520013651117100D-01 -1.86813061330759800D-01
45 21  1.45016458572477900D-02 -2.37653142072678700D-01  8.06980794502434000D-04 -1.34734710806040000D-01 -2.14558569825227200D-03
45 22  1.36880296504292700D-01  3.25692472780926600D-02 -5.85216972394671600D-02 -1.39026608990638500D-01  2.08686785595351500D-02
45 23  1.02152248802630900D-01 -1.23020927362165500D-01  5.13822556787344000D-01 -9.70856631408066200D-02  2.61262572260684700D-01
45 24  1.75407726947674300D-02  3.12372966621613000D-02 -3.57600103132421200D-01 -5.60005082850972800D-01 -1.05332382846742300D-01
45 25  3.64825318627504100D-02  1.89039896776096500D-03  3.68613892494347000D-01 -3.59584058415304800D-01 -1.01028586499303900D-01
45 26  2.22792129459806400D-01  5.84204597584155000D-03  7.78959637987169800D-02  7.29490658255329100D-02  2.41967068268546900D-02
45 27 -9.71457726523877200D-02  3.43117436645232100D-02  9.87538154376749200D-02  8.61546835012306100D-02  1.72484364301551700D-02
45 28 -8.12010782137980400D-03 -9.12832860877536700D-03  2.33873862885307700D-01  6.87868058136590900D-02  8.32850418671598800D-02
45 29  1.30156910929661100D-01  5.56724764714863200D-01 -3.36541534072292400D-02 -2.29212814269073400D-02 -2.12964953940419600D-01
45 30 -1.64988420957466400D-01 -3.56054725529986300D-01  8.25115899209954800D-02  3.81467911271645300D-02  6.17562772785513300D-02
45 31 -2.12333249385284900D-01  5.73103514095333100D-03 -1.16905326658595100D-02 -6.31711996468580600D-02 -1.19999936400668800D-02
45 32 -3.82050874924198500D-02  3.93418420901770600D-01  1.70020402341015100D-01 -2.04488890763433200D-01 -6.29553909785642000D-02
46  1  8.56973861224988100D-03  3.10753307116058000D-02 -1.32631092502553200D+00 -2.28883285543692700D-01 -3.01793957039605700D-01
46  2 -7.93994880831432900D-02  7.30405597276356300D-01  6.64489421752415200D-01 -8.22840650586043900D-02 -4.57989281920748600D-02
46  3  4.54879230797558300D-02  3.11005112319404600D-04 -5.91699594942640900D-02  3.09974626510734100D-02 -1.78063665576696200D-01
46  4 -1.12908498062821500D-01 -1.45245170824391200D-01  7.25888688521317200D-01  3.05935410441830100D-02 -5.08659442775727000D-02
46  5 -1.42788066185326900D-02 -1.88946436406502400D-01 -2.99044020863030700D-01  1.13903705309794500D-01  2.53355771206788600D-02
46  6 -5.27275590293516500D-02  2.73919819086721500D-02  4.06176684036181500D-02  6.28978539205562000D-02 -2.62229226080985500D-02
46  7  1.30316481355584600D-01  2.78852007922241100D-01 -9.73705154684318700D-01 -7.35710634047460600D-02 -5.57695065380917400D-02
46  8  1.09359794024820400D-03 -3.02871683300559500D-01 -2.69883144113184500D-01 -1.82449567855302300D-01 -2.57148295720800400D-01
46  9 -7.67706202327948000D-02  3.33918915953595100D-01 -1.72537582942084000D-02  5.67111794787059400D-02 -1.24882347324022200D-02
46 10  2.57241560139985900D-02  3.60347692202922300D-03 -1.48637483775589700D-01 -1.49999922628820600D-01  7.21902808419230300D-02
46 11 -5.02385954339647500D-02  3.69390480036871300D-01 -1.93481189120510100D-01  1.61250034740381600D-01 -2.66527350399436200D-01
46 12  3.30069671215051200D-01 -6.35423208156151200D-02  1.73032315321945900D-02  9.82570614575853100D-02  4.05773691163626100D-02
46 13  4.85793251070429800D-03  1.71298304337388800D-03  4.55050144086128500D-01  1.03744633632617400D-01 -3.75508460163268400D-02
46 14  2.04720779320416200D-02 -1.10394903177337100D-01 -1.29430289904583200D-01  2.43360460985526500D-02  2.28328116561003900D-01
46 15 -6.57817522956009900D-02 -1.62546364265403400D-01 -1.22869904175760300D-02  3.28590450623463700D-02  6.68333351026594900D-02
46 16  3.74469164917839100D-03 -1.91727726396796300D-02  7.17094381955381100D-01  1.21080951478813400D-01 -4.94786684002624900D-03
46 17  5.47348668231355900D-03  5.07743111531510100D-01  6.11460788677487200D-02 -6.32300542341261800D-02 -1.26330063088735100D-01
46 18 -4.06554912367390200D-02  1.66985554325474400D-01  9.92941912390819800D-02  3.51296151567283500D-02  8.69364338789706000D-02
46 19  4.70676006163418600D-03  2.94156950871238300D-02 -8.55152148342225400D-02  3.08439945930409900D-01  1.44524903273359200D-01
46 20  8.44744923116222000D-02 -8.44831376063451300D-02 -2.06544081001417600D-01 -4.30097362791348700D-01  2.12734198555456700D-01
46 21 -1.26095956876429100D-01 -6.69141773002413100D-02  7.31185146469453300D-02  1.53942701516428400D-01  5.62028385317469500D-02
46 22 -2.10145540048175200D-01  4.85424434288628200D-02  7.00702576496138900D-02  3.91647921905307800D-02  3.02794800856771900D-02
46 23  1.63461764647424200D-01 -1.93741244733100800D-01 -3.08888330589728000D-02  2.43939420187324800D-02 -9.24302639584660400D-02
46 24  6.16534587386581900D-03  1.41182457535904600D-02 -3.46659759263986100D-02 -1.67021898558584700D-02  1.85728178914870000D-02
46 25  1.13939882458855900D-01  4.84280880209258800D-02  1.21861943098733000D-01 -1.61729497975662700D-01 -3.45839779584330600D-02
46 26 -1.52963047239129100D-02 -4.34480613989274100D-02 -1.85725621848794300D-01  1.08461830225540300D-01  7.00895641978120800D-02
46 27 -1.78551394423352200D-01  8.16830125478414400D-02 -3.06361576827634000D-02 -1.41286665266000500D-01  1.62559760489273200D-01
46 28  6.36514241455272400D-02 -2.26211184634800400D-01  1.16036126117089800D-01 -3.78302831833397700D-02 -4.61128921431023900D-02
46 29  2.32450143836555300D-01  1.65498564014010300D-01 -1.99927676665444600D-01 -6.73363374575164500D-02  9.95575066307971800D-02
46 30  1.13688873677326700D-01 -3.33906511003618200D-01 -1.54898194706351100D-01  2.96067552302806300D-02 -3.37816723423567900D-03
46 31  9.68637815708599900D-02 -2.42769443017820400D-01 -1.42057929724252400D-01 -5.27204092100265900D-02 -1.57469502480229200D-02
46 32  2.10780951009092700D-01  5.58544722618374600D-02  4.20843074528355500D-02 -2.01580330822775100D-01  1.55075645033283600D-02
47  1  1.51975342055676900D-01  3.09837220369249200D-01  5.03542217412625100D-02  1.54497305841963200D-01 -9.46064057703720000D-03
47  2 -5.64357230354840200D-02  1.07888690227263500D+00 -4.50290200789783000D-01 -1.20684846451151700D-01  1.39264517749883700D-01
47  3 -1.75325643814929800D-01  3.60611260650464400D-02  1.56958957788955800D-01 -2.17217674587918900D-02 -1.29980944131299500D-01
47  4  7.49809852196045000D-02  1.74266161511788900D-01 -5.99218295157761400D-01  3.39140633424175400D-02 -6.13840136466593000D-02
47  5  1.38710701640058800D-02  5.08452903061953300D-01 -5.89440141033868900D-01  1.67669583551569100D-01 -3.00880375476836000D-01
47  6  1.53240343822068100D-01  1.47640031654768000D-01  1.07560416594680000D-01 -3.37834720689084000D-02 -1.55081703489948800D-01
47  7  8.68763036116267400D-02  2.08326497977907500D-01  2.92882120684388600D-01  1.27178705594179900D-01 -1.61576523923327800D-01
47  8  5.81873900506245000D-02 -9.32148984468318200D-01 -1.76783511199729900D-01 -2.82590566316099100D-01 -1.24239655094608000D-03
47  9 -1.26010828109899800D-01  1.27253224660845900D-01  4.01003188849987900D-02  4.00633750432054600D-03 -3.25126670164416800D-01
47 10  2.23051061823486700D-01  4.24572907603169600D-01 -2.88639363037152600D+00  1.29021942431416800D-01 -6.47552293503575500D-02
47 11 -2.23476611058748300D-02  3.79366979067396500D-01 -1.36116098120218100D+00  1.73885615400431200D-01  8.26310112945050100D-02
47 12 -1.81209777585642700D-01  9.85787662911377400D-02  3.26183404117282200D-03 -1.79601408817844400D-03 -5.06607624880399200D-02
47 13 -1.61676790335260500D-01 -3.23334460516484000D-01  2.12680460266014400D+00  3.40944875941999000D-02 -5.66699939565446900D-04
47 14  2.85849716458200000D-02  1.57832480691044300D+00 -2.02700998379466700D-01 -6.41136299813061000D-02  1.84369152277312600D-01
47 15 -7.80858886853422500D-02 -1.06283263591970700D-01  4.78570434420574100D-02 -1.34547391809352400D-01  5.45465749191040400D-02
47 16  2.46262244341505200D-02  1.03840407308953700D-01  7.97180927607502300D-02  2.94265836463374900D-02  5.07705957482703400D-02
47 17  6.84746890305994100D-03 -5.08692287368087400D-01  4.47518635475974100D-01  2.98653323541427500D-03  2.02098091799160900D-01
47 18 -1.08065729028794400D-01 -9.40323627703660000D-02  3.89744121495171200D-02  6.18790561537256700D-03  2.61345542007124700D-02
47 19 -1.21603254044145400D-02 -1.72912994876934800D-02  3.06936375164672500D-01  1.78133332583103900D-01 -5.95576621170861600D-02
47 20 -4.33649798413365700D-02 -3.73834259660519100D-02 -3.14577358535005100D-01 -5.39495589270437500D-02  8.12972344441271800D-02
47 21  4.34964699442565100D-02 -1.51421307393042500D-01  1.69728275917311900D-01 -3.45319008495321300D-02 -1.45922770060688500D-01
47 22  1.80454670910219900D-01 -1.03401177780889400D-01  8.08697313856000400D-02  5.52093826809193600D-02  7.00868556964698400D-02
47 23 -1.42282186158646600D-01  7.21953304621762600D-02  2.63674916197099300D-01  1.60499654191603800D-01 -3.58651419698873300D-02
47 24 -4.44823936502808900D-02 -1.08445199698991000D-01  2.59792533216995200D-01 -2.56124974622445700D-01  4.56933307100893000D-02
47 25 -9.12369616447618500D-02  1.94139336619359100D-01  1.00852587115362000D-01  3.17661903952286100D-02 -2.70654797450043800D-01
47 26 -1.03440788075171900D-01  1.45200017951438100D-01  6.93231404873029400D-02  8.27780205524994000D-02 -4.05129341972845300D-03
47 27 -7.87267271327711000D-02  6.82671144076471300D-02 -1.62979585066052000D-01 -2.60077784295937100D-02 -1.42959267450794800D-01
47 28 -1.70486415625673100D-02  1.60007909013361900D-01  1.20892839159919000D-01 -8.94404500050940400D-02 -6.47804417239523100D-02
47 29 -7.79993460255363500D-02  3.49844105420944900D-01  1.92095848468125600D-01  1.84062968013687300D-01  4.46565475058912600D-02
47 30 -1.00350118072678800D-01 -3.38835098597891200D-01 -1.16824419460554700D-01 -6.71889428795013200D-02 -8.54820404520205800D-02
47 31 -7.53935373759568700D-02  4.40720752721583200D-01 -6.01080857590764900D-02  4.98473940629120200D-02 -3.10879065511713900D-02
47 32 -2.27800079371783100D-01 -9.87256355554586700D-02 -2.03253747776961100D-02 -2.80049091889088100D-01 -2.80184067931230400D-02
48  1 -2.96625525885752400D-03  3.28335566528950100D-02  7.05802097465437000D-01  1.38643320157144400D-01  1.40753381188379400D-01
48  2  9.73053281081219800D-02  1.30776431552329400D+00 -7.66862619836525700D-02 -1.33613059450141400D-01 -1.01125428221973400D-01
48  3  7.36223434122970900D-02  2.75030848096766800D-02 -1.45963288069080400D-01  1.53071269901385400D-02  4.32962955725794400D-02
48  4  8.14352038529600200D-02  1.25676553588320100D-01 -9.41772843922966800D-01 -4.56088222340329900D-02 -3.03672768084695600D-03
48  5  7.37764556004901200D-02  1.23979690076763200D+00 -1.78056738527177200D-01 -1.86136259580979000D-01  1.40302126340571900D-01
48  6 -7.09383924266471900D-02 -6.93637339139248100D-02  5.94820741060926700D-02  1.00760039491542600D-02 -5.44700824771930500D-02
48  7  3.36709879163352100D-02  5.38135638877013900D-02  1.96572718876620500D-02 -6.77688250759800300D-02  6.78330454887788900D-02
48  8 -1.91261066824472300D-03 -8.61913678650718900D-01  2.35686683525671200D-01  2.00425124159840900D-01  1.20166308181250500D-01
48  9  2.03190273085713400D-02 -1.40485335489822100D-01  9.84084732435402500D-02 -8.60340862076371300D-02 -1.10742450611663900D-01
48 10  1.09206037334823300D-02  3.39311536380346800D-02 -4.68318696516050700D-01  7.48120701428843100D-02  7.81482126513743000D-02
48 11  6.27126236319201400D-02 -5.43329557427132600D-02 -4.99942125906088200D-01 -3.18575576532481100D-01 -3.16182529404993400D-02
48 12  1.55550744820224700D-01 -1.23932491879724700D-01  7.60070265357376000D-02  6.31837962428106500D-02 -8.09687206525903400D-02
48 13 -2.85011495824422000D-02 -7.19401528020872400D-02  9.26818738109211800D-02  1.16388931218776800D-01  8.68729273059482700D-03
48 14  2.15580570946006400D-02 -1.34314151314788000D-01 -5.05593127284351100D-01  1.75394317971999300D-01  6.72363459306892100D-02
48 15 -7.38211953204376500D-02  6.58484938974852900D-03  2.91537952243484000D-01  2.67460940800150700D-02 -1.36633276678559500D-02
48 16  9.16449276797169600D-03  2.30774697963828600D-02  8.82290158766217600D-01  7.68865127068907400D-02  2.98008874507386700D-02
48 17  3.25408147149989300D-02  4.37040676342443800D-01 -2.26409790097467500D-01 -3.34819442731272200D-02 -1.19191261056867700D-01
48 18 -1.64354074212259700D-01  2.83545335269128000D-01  1.59131186920158900D-01  7.83955798992330000D-02  2.78118865526513900D-02
48 19 -2.12490992077401200D-02 -7.90661986429541500D-02 -1.56512549703413100D-01  1.03473472939118600D-01  6.00271152219196500D-02
48 20  1.10461601432823500D-01 -2.27594740777711900D-02 -3.26553849414055400D-01  1.34520204483001100D-01  8.54976103262792400D-03
48 21 -4.60036110427320500D-02 -1.61849332017995300D-01  1.02099348777661500D-01 -8.71415655688008300D-02  9.99514294856544400D-02
48 22 -1.28098639168534600D-02  8.92092117854489800D-02 -9.92866726640623700D-02  5.31017122295592700D-02  1.22181514273721900D-01
48 23 -3.58537902051929200D-02 -8.63277240685287600D-02  3.16956177792876300D-01 -3.96306416147573400D-03 -2.16722748250469400D-02
48 24 -5.25167595852760300D-02 -1.77795468324947200D-01 -3.21559565960696100D-01 -1.15984206215253900D-01 -1.08898333256974600D-01
48 25  5.16452497954091700D-02  8.42128039369045000D-02  9.79883614822072400D-02  9.23884171461242500D-02 -3.07870492408384700D-02
48 26  2.22526718847614700D-01  6.65673689707445300D-02 -5.38951762777828500D-02 -6.21058180051147400D-02  1.22615303088275000D-01
48 27 -6.05094850831603900D-02  2.00719244596533300D-02 -4.72365557876356000D-02 -2.11164967974518600D-01 -1.43046605915752100D-01
48 28  1.43599875099441400D-01 -5.53269183689280400D-04 -1.19371269041194200D-02 -1.63462914889385600D-01 -3.72724774025446800D-02
48 29  3.29047358487169400D-01  3.34472512521020200D-01 -1.20980408021946800D-01  1.87967463178312000D-01 -5.90019086515377400D-02
48 30 -4.14825335382093500D-02 -2.81652327982553900D-01 -2.95068285721138800D-02 -3.61684788650856700D-02  9.77508895858319200D-02
48 31 -1.42525159703768000D-01 -3.33313343260961100D-01  8.63537922679096200D-02  9.65964953657020300D-02 -6.11448815558668200D-02
48 32  1.32733383541927500D-01  3.49733388005910200D-01 -6.44586351008951800D-02 -9.04346922450870600D-02 -2.11424428897933800D-02
49  1 -9.79093429748069400D-02 -2.15239322353920700D-01  2.15189567900152400D+00 -8.48200057938603700D-02  2.39755176133509400D-02
49  2 -1.21353886240764500D-03 -9.93788213521299300D-01 -1.10938373340745200D+00 -3.15079612694984000D-01  9.65785524062137400D-02
49  3  3.82226788532011600D-02 -1.34801231259415100D-01  4.72721018152738600D-02  3.58515522260734400D-02 -7.71770639771144800D-02
49  4 -7.19860046897603800D-02 -1.73190364474193000D-01 -1.28167349398654700D-01 -3.90277648932760000D-02 -4.84702372386862200D-02
49  5  3.35849910931425900D-02  5.45222786217974300D-01  1.40348144918824600D-01 -6.23154318512444400D-02 -1.11452188331270900D-01
49  6  1.13154849342921000D-01 -1.70266101164997200D-03  8.64183429941865600D-02  2.49939176129700500D-02 -4.13675840336217600D-02
49  7 -1.36164292201534700D-02 -3.04389989610415500D-02  3.79524068434969100D-01  1.58846664025636400D-01 -1.22502048269373800D-01
49  8 -3.57874475598968900D-02 -4.86508309197740200D-01  1.92480234709909200D-01  9.45037480622110000D-02 -1.04922909924000000D-01
49  9 -5.32932343630475500D-02  1.58216144287047600D-01 -8.38529534287764800D-02 -6.01631033482762900D-02 -5.22438849559966800D-02
49 10  8.28042322808344900D-02  1.31970471160345200D-01 -1.21302673638192400D+00  1.56647340101297400D-01 -9.80528413967606500D-03
49 11 -1.03546049191171400D-01  1.67738382454298600D-01 -3.34755277487338900D-01 -9.63346559673667900D-02 -1.56099715841631700D-01
49 12  8.24106246785541200D-02  7.36890911630784100D-02  2.40442850849857200D-02  2.97699729519790800D-02 -2.47935093663465600D-02
49 13 -7.16213990141444700D-02 -1.46156933665004900D-01  6.57053158379784800D-01 -3.95683103967098500D-02  6.53214059098152100D-02
49 14 -3.73243678352102700D-02  8.26239125006580700D-01 -5.06758415207017100D-01  2.17272689366189900D-01  2.77422102155560400D-02
49 15  5.28095791130746600D-02 -8.05517893286310100D-02  7.79344141852218900D-02  1.03749760525301000D-01 -1.73316568017977700D-02
49 16  7.37770962514519700D-02  8.65674899805043400D-02 -1.68932247754064400D+00 -1.45579168730315000D-01 -1.02031661193220100D-01
49 17 -3.43810168806901700D-02 -1.33749979827321900D+00 -4.98634206373133800D-01  3.20377695142123100D-02 -1.59850392275970200D-01
49 18  1.13267913537584100D-01  4.65824787383866100D-02 -8.42016413903509500D-02  1.66577991640426900D-01  9.77763424388690500D-02
49 19 -6.74237669203589500D-02 -1.83955817625704000D-01  1.44413356069811000D-01  3.56386806798328700D-01  1.34584893595600000D-02
49 20 -1.03012593265242300D-01  2.63782790761132500D-04  1.72632441498422900D-01  1.43170741075727600D-01  1.57917978713591700D-01
49 21  6.14072026162782000D-02  5.75841412650036500D-03  9.30059468201726100D-03 -7.16092031469865000D-02  2.24634083346793000D-02
49 22  4.91457948123065700D-02  7.74970874549325800D-02 -2.07492419316432600D-01 -1.09561741863259000D-01  2.38795447661588700D-02
49 23 -1.66782024346650100D-01  1.42902479580490500D-01  5.05637491412381600D-02  1.01000641516549300D-02 -2.36343703339406300D-01
49 24  2.00159276850706500D-02  9.70962548020876900D-02 -3.29882418430187400D-02 -3.95668568656320800D-01  1.24503239495420200D-01
49 25 -1.42115069921406500D-01  8.00574232776534300D-02 -1.31252175752023600D-01  6.13988253069400300D-02 -1.43570817745484300D-02
49 26 -1.46867884884176000D-01  1.91575378272160800D-02 -1.42640966904388300D-01  1.05297929442596400D-01 -1.66952126243542200D-01
49 27  6.16541968009458900D-02 -1.36295270535309100D-01 -1.25089977937961700D-02 -3.17669503585656000D-01  7.23960363065155700D-02
49 28 -1.26564064741988400D-01  5.41680284354727700D-02 -5.23496036901991100D-02 -1.74255390804774400D-01 -5.95068240618406000D-02
49 29  1.57858685395086400D-01  5.59611700181115700D-02  4.40072683659728800D-02  5.42770340442304800D-02  4.92041453247842300D-02
49 30  5.42928872718107500D-02 -1.07984777318344500D-01  1.30932892699076200D-02 -1.18649717426478200D-01  1.17882218241449400D-01
49 31 -2.12761594468660800D-01  2.91977879242356100D-01 -6.04700220755572900D-02  3.75451778575588100D-02 -1.16842928123217200D-01
49 32 -8.14883750313079700D-02 -1.13332941920860400D-01  1.34846900575635900D-01  1.05565523064542500D-01  8.75737932787424600D-02
50  1  1.32902728906536900D-01  2.56471236409630200D-01  9.66767353572452800D-01  8.02083465592547600D-03 -1.76548006135283000D-01
50  2  2.77707694126090000D-02 -1.93431101325279300D-01 -5.76321591787058200D-02 -1.09627708009182700D-01 -9.47709586383173500D-02
50  3 -1.61843602207933400D-03  9.63893946603963900D-02 -7.21425177521460700D-02  1.00160264973289000D-03  4.04733821216804700D-03
50  4  1.99809575491196000D-01  4.41354743201713900D-01 -1.24622067355607300D-01 -2.19376167169285200D-01 -1.83494300099933600D-01
50  5  1.69029020456713100D-02  1.36141403714915600D-01  4.30802665817073600D-01  1.07611477510385100D-02 -2.61319309545650900D-02
50  6 -7.62252281221613600D-02  1.02357159076726800D-01  4.94056060424884100D-02  3.14727212012861000D-04  9.88447081465326600D-03
50  7  9.23564757622247100D-02  2.28658587960597200D-01  2.51464224402095200D-01 -1.84763321455715900D-01  1.37184819777220400D-01
50  8 -8.59034294090078500D-03  2.14069357005875500D-01  2.56687460665593200D-03  7.23627674522657900D-02  4.93554572115350400D-03
50  9 -1.22473750753745100D-01  1.17538205032591300D-01 -2.35431845326228000D-02 -3.26291013588621300D-02 -1.24626274836429600D-02
50 10  8.21526063990940500D-02  1.75228945276096000D-01  1.86904909182227500D-01 -1.16785176644213100D-03  2.67909645928947800D-01
50 11  3.08638906940145500D-03 -1.10509690138294300D-01 -2.57395158708718900D-01 -1.16813208512047900D-01  5.02964848832108100D-03
50 12  1.73330925453352900D-02 -2.23627410336563100D-02  1.43235500920463100D-01 -8.45109451401402500D-03 -1.74829301729141300D-02
50 13  1.25217509061639200D-01  2.67876243057285400D-01  5.31649771663015700D-02  1.99777470922569200D-01  4.35775264636752300D-02
50 14 -1.01447033435548800D-02 -1.19103702469719900D-01  1.31654952318911300D-01  7.38138361798969400D-02 -3.69353594934956700D-02
50 15  2.55914470185202500D-02  1.13439124749750900D-02  9.47777173958799900D-02  4.66370551149440300D-02  3.06680541407293400D-03
50 16  2.16934210858216300D-01  5.04608629905928100D-01 -9.56089049072427800D-01  2.94011766384505000D-01 -1.67544598589203100D-01
50 17 -7.16472814051731800D-04 -6.02333658930322300D-01  1.30509377493050600D-01 -1.01324960764409200D-03  4.12565513670493900D-02
50 18 -1.67041012726203400D-02 -2.45524500944289500D-02  4.81118668173701900D-02  1.81371728809819700D-02  2.00244512197629100D-02
50 19  6.07331531045098600D-02  1.55359259982448300D-01 -1.55329983016782800D-01 -3.72327846785704400D-01  1.15332761394201500D-01
50 20 -1.91567840067838500D-01  1.27904873160515800D-02  2.24104850760828200D-02  2.13385368493929300D-01  1.08461809303143900D-02
50 21 -1.80479552555970100D-01  4.08850546623756500D-01  5.97865007056025800D-03 -1.17581985547468700D-01  1.36440944250283500D-02
50 22  1.03937891122440300D-01  2.31139441642135900D-02 -2.97793514752081900D-02 -1.21712367303320100D-02  7.37902994292182600D-02
50 23 -2.14564722187011300D-01  1.40774422757792700D-01 -5.25600019268424600D-02 -2.41411427089082200D-02 -5.47783271814126200D-02
50 24  3.51332177778244700D-02  1.13104138263668200D-01 -1.48848778820895400D-02 -2.65665013644711700D-01 -1.54950317662743800D-01
50 25  3.71794958573911000D-02 -1.88637841849282200D-02  7.45620824244292300D-02 -1.13673548978375200D-01  3.27458291206658000D-03
50 26  3.02411664409306800D-01  1.36894393114142600D-01  2.83004888793721600D-02  2.12553492231413200D-02 -3.14391561180491100D-02
50 27  1.01838068949079000D-02 -8.02261259059833000D-02  4.54998932675632900D-02  3.16940162980888000D-02 -9.29664992247154500D-02
50 28 -4.50502501539487300D-02  1.38016749378664200D-01 -5.28200739768503900D-03  3.86648386500012500D-03  3.40737921663459600D-02
50 29  1.75602867205031700D-01 -1.72863963039017300D-01 -6.92355789270721700D-02 -1.29226900546436800D-02 -8.34294537684106400D-03
50 30  6.28509168553804500D-02 -1.49872941890449700D-01 -1.33995663198242900D-01 -6.65923036799539500D-02  5.92449631399484500D-02
50 31 -1.00568012663790800D-02 -4.65969350159624800D-02  4.22739257319544100D-02 -2.72533193523278400D-03  3.80280710312337500D-04
50 32  8.01048426659735200D-02 -1.49834987099501100D-01  1.82355579414863000D-01 -2.44373697122876400D-03  2.31859400397404500D-02
51  1  0.00000000000000000D+00  0.00000000000000000D+00  0.00000000000000000D+00  0.00000000000000000D+00  0.00000000000000000D+00
51  2  0.00000000000000000D+00  0.00000000000000000D+00  0.00000000000000000D+00  0.00000000000000000D+00  0.00000000000000000D+00
51  3  0.00000000000000000D+00  0.00000000000000000D+00  0.00000000000000000D+00  0.00000000000000000D+00  0.00000000000000000D+00
51  4  0.00000000000000000D+00  0.00000000000000000D+00  0.00000000000000000D+00  0.00000000000000000D+00  0.00000000000000000D+00
51  5  0.00000000000000000D+00  0.00000000000000000D+00  0.00000000000000000D+00  0.00000000000000000D+00  0.00000000000000000D+00
51  6  0.00000000000000000D+00  0.00000000000000000D+00  0.00000000000000000D+00  0.00000000000000000D+00  0.00000000000000000D+00
51  7  0.00000000000000000D+00  0.00000000000000000D+00  0.00000000000000000D+00  0.00000000000000000D+00  0.00000000000000000D+00
51  8  0.00000000000000000D+00  0.00000000000000000D+00  0.00000000000000000D+00  0.00000000000000000D+00  0.00000000000000000D+00
51  9  0.00000000000000000D+00  0.00000000000000000D+00  0.00000000000000000D+00  0.00000000000000000D+00  0.00000000000000000D+00
51 10  0.00000000000000000D+00  0.00000000000000000D+00  0.00000000000000000D+00  0.00000000000000000D+00  0.00000000000000000D+00
51 11  0.00000000000000000D+00  0.00000000000000000D+00  0.00000000000000000D+00  0.00000000000000000D+00  0.00000000000000000D+00
51 12  0.00000000000000000D+00  0.00000000000000000D+00  0.00000000000000000D+00  0.00000000000000000D+00  0.00000000000000000D+00
51 13  0.00000000000000000D+00  0.00000000000000000D+00  0.00000000000000000D+00  0.00000000000000000D+00  0.00000000000000000D+00
51 14  0.00000000000000000D+00  0.00000000000000000D+00  0.00000000000000000D+00  0.00000000000000000D+00  0.00000000000000000D+00
51 15  0.00000000000000000D+00  0.00000000000000000D+00  0.00000000000000000D+00  0.00000000000000000D+00  0.00000000000000000D+00
51 16  0.00000000000000000D+00  0.00000000000000000D+00  0.00000000000000000D+00  0.00000000000000000D+00  0.00000000000000000D+00
51 17  0.00000000000000000D+00  0.00000000000000000D+00  0.00000000000000000D+00  0.00000000000000000D+00  0.00000000000000000D+00
51 18  0.00000000000000000D+00  0.00000000000000000D+00  0.00000000000000000D+00  0.00000000000000000D+00  0.00000000000000000D+00
51 19  0.00000000000000000D+00  0.00000000000000000D+00  0.00000000000000000D+00  0.00000000000000000D+00  0.00000000000000000D+00
51 20  0.00000000000000000D+00  0.00000000000000000D+00  0.00000000000000000D+00  0.00000000000000000D+00  0.00000000000000000D+00
51 21  0.00000000000000000D+00  0.00000000000000000D+00  0.00000000000000000D+00  0.00000000000000000D+00  0.00000000000000000D+00
51 22  0.00000000000000000D+00  0.00000000000000000D+00  0.00000000000000000D+00  0.00000000000000000D+00  0.00000000000000000D+00
51 23  0.00000000000000000D+00  0.00000000000000000D+00  0.00000000000000000D+00  0.00000000000000000D+00  0.00000000000000000D+00
51 24  0.00000000000000000D+00  0.00000000000000000D+00  0.00000000000000000D+00  0.00000000000000000D+00  0.00000000000000000D+00
51 25  0.00000000000000000D+00  0.00000000000000000D+00  0.00000000000000000D+00  0.00000000000000000D+00  0.00000000000000000D+00
51 26  0.00000000000000000D+00  0.00000000000000000D+00  0.00000000000000000D+00  0.00000000000000000D+00  0.00000000000000000D+00
51 27  0.00000000000000000D+00  0.00000000000000000D+00  0.00000000000000000D+00  0.00000000000000000D+00  4.47213595499956700D-01
51 28  4.47213595499956700D-01  4.47213595499956700D-01  0.00000000000000000D+00  0.00000000000000000D+00  0.00000000000000000D+00
51 29  0.00000000000000000D+00  0.00000000000000000D+00  0.00000000000000000D+00  0.00000000000000000D+00  0.00000000000000000D+00
51 30  0.00000000000000000D+00  0.00000000000000000D+00  0.00000000000000000D+00  0.00000000000000000D+00  0.00000000000000000D+00
51 31  0.00000000000000000D+00  0.00000000000000000D+00  0.00000000000000000D+00  0.00000000000000000D+00  0.00000000000000000D+00
51 32  0.00000000000000000D+00  0.00000000000000000D+00  0.00000000000000000D+00  0.00000000000000000D+00  0.00000000000000000D+00
52  1  0.00000000000000000D+00  0.00000000000000000D+00  0.00000000000000000D+00  0.00000000000000000D+00  0.00000000000000000D+00
52  2  0.00000000000000000D+00  0.00000000000000000D+00  0.00000000000000000D+00  0.00000000000000000D+00  6.91773326466221700D-02
52  3  6.91773326466226200D-02  6.91773326466225800D-02  0.00000000000000000D+00  0.00000000000000000D+00  0.00000000000000000D+00
52  4  0.00000000000000000D+00  0.00000000000000000D+00  0.00000000000000000D+00  0.00000000000000000D+00  0.00000000000000000D+00
52  5  0.00000000000000000D+00  0.00000000000000000D+00  0.00000000000000000D+00  0.00000000000000000D+00  2.94293488155733100D-02
52  6  2.94293488155731100D-02  2.94293488155734300D-02  0.00000000000000000D+00  0.00000000000000000D+00  0.00000000000000000D+00
52  7  0.00000000000000000D+00  0.00000000000000000D+00  0.00000000000000000D+00  0.00000000000000000D+00  0.00000000000000000D+00
52  8  0.00000000000000000D+00  0.00000000000000000D+00  0.00000000000000000D+00  0.00000000000000000D+00  2.14877293667579300D-01
52  9  2.14877293667579300D-01  2.14877293667579300D-01  0.00000000000000000D+00  0.00000000000000000D+00  0.00000000000000000D+00
52 10  0.00000000000000000D+00  0.00000000000000000D+00  0.00000000000000000D+00  0.00000000000000000D+00  0.00000000000000000D+00
52 11  0.00000000000000000D+00  0.00000000000000000D+00  0.00000000000000000D+00  0.00000000000000000D+00 -1.53494348878038200D-01
52 12 -1.53494348878038400D-01 -1.53494348878038600D-01  0.00000000000000000D+00  0.00000000000000000D+00  0.00000000000000000D+00
52 13  0.00000000000000000D+00  0.00000000000000000D+00  0.00000000000000000D+00  0.00000000000000000D+00  0.00000000000000000D+00
52 14  0.00000000000000000D+00  0.00000000000000000D+00  0.00000000000000000D+00  0.00000000000000000D+00 -2.69611190609686200D-01
52 15 -2.69611190609686200D-01 -2.69611190609686000D-01  0.00000000000000000D+00  0.00000000000000000D+00  0.00000000000000000D+00
52 16  0.00000000000000000D+00  0.00000000000000000D+00  0.00000000000000000D+00  0.00000000000000000D+00  0.00000000000000000D+00
52 17  0.00000000000000000D+00  0.00000000000000000D+00  0.00000000000000000D+00  0.00000000000000000D+00  2.02899504718115000D-01
52 18  2.02899504718115400D-01  2.02899504718115300D-01  0.00000000000000000D+00  0.00000000000000000D+00  0.00000000000000000D+00
52 19  0.00000000000000000D+00  0.00000000000000000D+00  0.00000000000000000D+00  0.00000000000000000D+00  0.00000000000000000D+00
52 20  0.00000000000000000D+00  0.00000000000000000D+00  0.00000000000000000D+00  0.00000000000000000D+00  0.00000000000000000D+00
52 21  0.00000000000000000D+00  0.00000000000000000D+00  0.00000000000000000D+00 -5.07434323942768900D-02 -5.07434323942770600D-02
52 22 -5.07434323942768800D-02  0.00000000000000000D+00  0.00000000000000000D+00  0.00000000000000000D+00 -9.04563015709368800D-02
52 23 -9.04563015709369100D-02 -9.04563015709369400D-02  0.00000000000000000D+00  0.00000000000000000D+00  0.00000000000000000D+00
52 24  0.00000000000000000D+00  0.00000000000000000D+00  0.00000000000000000D+00  0.00000000000000000D+00  0.00000000000000000D+00
52 25  0.00000000000000000D+00  0.00000000000000000D+00  0.00000000000000000D+00  0.00000000000000000D+00  0.00000000000000000D+00
52 26  0.00000000000000000D+00  0.00000000000000000D+00  0.00000000000000000D+00 -4.54193659013355400D-05 -4.54193659014318000D-05
52 27 -4.54193659012796000D-05  0.00000000000000000D+00  0.00000000000000000D+00  0.00000000000000000D+00  0.00000000000000000D+00
52 28  0.00000000000000000D+00  0.00000000000000000D+00  0.00000000000000000D+00  0.00000000000000000D+00  0.00000000000000000D+00
52 29  0.00000000000000000D+00  0.00000000000000000D+00  0.00000000000000000D+00  0.00000000000000000D+00  0.00000000000000000D+00
52 30  0.00000000000000000D+00  0.00000000000000000D+00  0.00000000000000000D+00  0.00000000000000000D+00  0.00000000000000000D+00
52 31  0.00000000000000000D+00  0.00000000000000000D+00  0.00000000000000000D+00  0.00000000000000000D+00  0.00000000000000000D+00
52 32  0.00000000000000000D+00  0.00000000000000000D+00  0.00000000000000000D+00  0.00000000000000000D+00  0.00000000000000000D+00
53  1  0.00000000000000000D+00  0.00000000000000000D+00  0.00000000000000000D+00  0.00000000000000000D+00  0.00000000000000000D+00
53  2  0.00000000000000000D+00  0.00000000000000000D+00  0.00000000000000000D+00  0.00000000000000000D+00  0.00000000000000000D+00
53  3  0.00000000000000000D+00  0.00000000000000000D+00  0.00000000000000000D+00  0.00000000000000000D+00  0.00000000000000000D+00
53  4  0.00000000000000000D+00  0.00000000000000000D+00  0.00000000000000000D+00  0.00000000000000000D+00  0.00000000000000000D+00
53  5  0.00000000000000000D+00  0.00000000000000000D+00  0.00000000000000000D+00  0.00000000000000000D+00  1.99059364672299300D-11
53  6  1.99059725227803000D-11  1.99059675054311800D-11  0.00000000000000000D+00  0.00000000000000000D+00  0.00000000000000000D+00
53  7  0.00000000000000000D+00  0.00000000000000000D+00  0.00000000000000000D+00  0.00000000000000000D+00  0.00000000000000000D+00
53  8  0.00000000000000000D+00  0.00000000000000000D+00  0.00000000000000000D+00  0.00000000000000000D+00 -3.00110408828619800D-05
53  9 -3.00110408826696800D-05 -3.00110408827281000D-05  0.00000000000000000D+00  0.00000000000000000D+00  0.00000000000000000D+00
53 10  0.00000000000000000D+00  0.00000000000000000D+00  0.00000000000000000D+00  0.00000000000000000D+00  0.00000000000000000D+00
53 11  0.00000000000000000D+00  0.00000000000000000D+00  0.00000000000000000D+00  0.00000000000000000D+00  1.17820002964436300D-01
53 12  1.17820002964436200D-01  1.17820002964436400D-01  0.00000000000000000D+00  0.00000000000000000D+00  0.00000000000000000D+00
53 13  0.00000000000000000D+00  0.00000000000000000D+00  0.00000000000000000D+00  0.00000000000000000D+00  0.00000000000000000D+00
53 14  0.00000000000000000D+00  0.00000000000000000D+00  0.00000000000000000D+00  0.00000000000000000D+00 -1.53836944112917600D-01
53 15 -1.53836944112917900D-01 -1.53836944112917600D-01  0.00000000000000000D+00  0.00000000000000000D+00  0.00000000000000000D+00
53 16  0.00000000000000000D+00  0.00000000000000000D+00  0.00000000000000000D+00  0.00000000000000000D+00  0.00000000000000000D+00
53 17  0.00000000000000000D+00  0.00000000000000000D+00  0.00000000000000000D+00  0.00000000000000000D+00 -7.51276854297668900D-02
53 18 -7.51276854297666200D-02 -7.51276854297668200D-02  0.00000000000000000D+00  0.00000000000000000D+00  0.00000000000000000D+00
53 19  0.00000000000000000D+00  0.00000000000000000D+00  0.00000000000000000D+00  0.00000000000000000D+00  0.00000000000000000D+00
53 20  0.00000000000000000D+00  0.00000000000000000D+00  0.00000000000000000D+00  0.00000000000000000D+00  0.00000000000000000D+00
53 21  0.00000000000000000D+00  0.00000000000000000D+00  0.00000000000000000D+00 -3.00101930423853600D-01 -3.00101930423853600D-01
53 22 -3.00101930423853500D-01  0.00000000000000000D+00  0.00000000000000000D+00  0.00000000000000000D+00  2.58354961322914000D-01
53 23  2.58354961322914000D-01  2.58354961322913900D-01  0.00000000000000000D+00  0.00000000000000000D+00  0.00000000000000000D+00
53 24  0.00000000000000000D+00  0.00000000000000000D+00  0.00000000000000000D+00  0.00000000000000000D+00  0.00000000000000000D+00
53 25  0.00000000000000000D+00  0.00000000000000000D+00  0.00000000000000000D+00  0.00000000000000000D+00  0.00000000000000000D+00
53 26  0.00000000000000000D+00  0.00000000000000000D+00  0.00000000000000000D+00  1.29709189415555400D-04  1.29709189415339400D-04
53 27  1.29709189415499400D-04  0.00000000000000000D+00  0.00000000000000000D+00  0.00000000000000000D+00  0.00000000000000000D+00
53 28  0.00000000000000000D+00  0.00000000000000000D+00  0.00000000000000000D+00  0.00000000000000000D+00  0.00000000000000000D+00
53 29  0.00000000000000000D+00  0.00000000000000000D+00  0.00000000000000000D+00  0.00000000000000000D+00  0.00000000000000000D+00
53 30  0.00000000000000000D+00  0.00000000000000000D+00  0.00000000000000000D+00  0.00000000000000000D+00  0.00000000000000000D+00
53 31  0.00000000000000000D+00  0.00000000000000000D+00  0.00000000000000000D+00  0.00000000000000000D+00  0.00000000000000000D+00
53 32  0.00000000000000000D+00  0.00000000000000000D+00  0.00000000000000000D+00  0.00000000000000000D+00  0.00000000000000000D+00
54  1  0.00000000000000000D+00  0.00000000000000000D+00  0.00000000000000000D+00  0.00000000000000000D+00  0.00000000000000000D+00
54  2  0.00000000000000000D+00  0.00000000000000000D+00  0.00000000000000000D+00  0.00000000000000000D+00  0.00000000000000000D+00
54  3  0.00000000000000000D+00  0.00000000000000000D+00  0.00000000000000000D+00  0.00000000000000000D+00  0.00000000000000000D+00
54  4  0.00000000000000000D+00  0.00000000000000000D+00  0.00000000000000000D+00  0.00000000000000000D+00  0.00000000000000000D+00
54  5  0.00000000000000000D+00  0.00000000000000000D+00  0.00000000000000000D+00  0.00000000000000000D+00  0.00000000000000000D+00
54  6  0.00000000000000000D+00  0.00000000000000000D+00  0.00000000000000000D+00  0.00000000000000000D+00  0.00000000000000000D+00
54  7  0.00000000000000000D+00  0.00000000000000000D+00  0.00000000000000000D+00  0.00000000000000000D+00  0.00000000000000000D+00
54  8  0.00000000000000000D+00  0.00000000000000000D+00  0.00000000000000000D+00  0.00000000000000000D+00  0.00000000000000000D+00
54  9  0.00000000000000000D+00  0.00000000000000000D+00  0.00000000000000000D+00  0.00000000000000000D+00  0.00000000000000000D+00
54 10  0.00000000000000000D+00  0.00000000000000000D+00  0.00000000000000000D+00  0.00000000000000000D+00  0.00000000000000000D+00
54 11  0.00000000000000000D+00  0.00000000000000000D+00  0.00000000000000000D+00  0.00000000000000000D+00 -1.10678983290392300D-09
54 12 -1.10678978332754100D-09 -1.10678981071781700D-09  0.00000000000000000D+00  0.00000000000000000D+00  0.00000000000000000D+00
54 13  0.00000000000000000D+00  0.00000000000000000D+00  0.00000000000000000D+00  0.00000000000000000D+00  0.00000000000000000D+00
54 14  0.00000000000000000D+00  0.00000000000000000D+00  0.00000000000000000D+00  0.00000000000000000D+00  1.44511663328486200D-09
54 15  1.44511646051868300D-09  1.44511668936593800D-09  0.00000000000000000D+00  0.00000000000000000D+00  0.00000000000000000D+00
54 16  0.00000000000000000D+00  0.00000000000000000D+00  0.00000000000000000D+00  0.00000000000000000D+00  0.00000000000000000D+00
54 17  0.00000000000000000D+00  0.00000000000000000D+00  0.00000000000000000D+00  0.00000000000000000D+00  6.96888575338959400D-10
54 18  6.96888602005043400D-10  6.96888555820675600D-10  0.00000000000000000D+00  0.00000000000000000D+00  0.00000000000000000D+00
54 19  0.00000000000000000D+00  0.00000000000000000D+00  0.00000000000000000D+00  0.00000000000000000D+00  0.00000000000000000D+00
54 20  0.00000000000000000D+00  0.00000000000000000D+00  0.00000000000000000D+00  0.00000000000000000D+00  0.00000000000000000D+00
54 21  0.00000000000000000D+00  0.00000000000000000D+00  0.00000000000000000D+00  1.30846537576228200D-08  1.30846538272398400D-08
54 22  1.30846538651064400D-08  0.00000000000000000D+00  0.00000000000000000D+00  0.00000000000000000D+00  2.24543926537174500D-04
54 23  2.24543926537209500D-04  2.24543926537089300D-04  0.00000000000000000D+00  0.00000000000000000D+00  0.00000000000000000D+00
54 24  0.00000000000000000D+00  0.00000000000000000D+00  0.00000000000000000D+00  0.00000000000000000D+00  0.00000000000000000D+00
54 25  0.00000000000000000D+00  0.00000000000000000D+00  0.00000000000000000D+00  0.00000000000000000D+00  0.00000000000000000D+00
54 26  0.00000000000000000D+00  0.00000000000000000D+00  0.00000000000000000D+00 -4.47213539128707400D-01 -4.47213539128707500D-01
54 27 -4.47213539128707500D-01  0.00000000000000000D+00  0.00000000000000000D+00  0.00000000000000000D+00  0.00000000000000000D+00
54 28  0.00000000000000000D+00  0.00000000000000000D+00  0.00000000000000000D+00  0.00000000000000000D+00  0.00000000000000000D+00
54 29  0.00000000000000000D+00  0.00000000000000000D+00  0.00000000000000000D+00  0.00000000000000000D+00  0.00000000000000000D+00
54 30  0.00000000000000000D+00  0.00000000000000000D+00  0.00000000000000000D+00  0.00000000000000000D+00  0.00000000000000000D+00
54 31  0.00000000000000000D+00  0.00000000000000000D+00  0.00000000000000000D+00  0.00000000000000000D+00  0.00000000000000000D+00
54 32  0.00000000000000000D+00  0.00000000000000000D+00  0.00000000000000000D+00  0.00000000000000000D+00  0.00000000000000000D+00
55  1  0.00000000000000000D+00  0.00000000000000000D+00  0.00000000000000000D+00  0.00000000000000000D+00  0.00000000000000000D+00
55  2  0.00000000000000000D+00  0.00000000000000000D+00  0.00000000000000000D+00  0.00000000000000000D+00  1.57132959375836100D-01
55  3  1.57132959375836200D-01  1.57132959375836300D-01  0.00000000000000000D+00  0.00000000000000000D+00  0.00000000000000000D+00
55  4  0.00000000000000000D+00  0.00000000000000000D+00  0.00000000000000000D+00  0.00000000000000000D+00  0.00000000000000000D+00
55  5  0.00000000000000000D+00  0.00000000000000000D+00  0.00000000000000000D+00  0.00000000000000000D+00 -7.51830004803729200D-02
55  6 -7.51830004803727100D-02 -7.51830004803727800D-02  0.00000000000000000D+00  0.00000000000000000D+00  0.00000000000000000D+00
55  7  0.00000000000000000D+00  0.00000000000000000D+00  0.00000000000000000D+00  0.00000000000000000D+00  0.00000000000000000D+00
55  8  0.00000000000000000D+00  0.00000000000000000D+00  0.00000000000000000D+00  0.00000000000000000D+00 -1.51998085219205000D-01
55  9 -1.51998085219205300D-01 -1.51998085219205300D-01  0.00000000000000000D+00  0.00000000000000000D+00  0.00000000000000000D+00
55 10  0.00000000000000000D+00  0.00000000000000000D+00  0.00000000000000000D+00  0.00000000000000000D+00  0.00000000000000000D+00
55 11  0.00000000000000000D+00  0.00000000000000000D+00  0.00000000000000000D+00  0.00000000000000000D+00  2.84350737897239200D-01
55 12  2.84350737897239200D-01  2.84350737897239000D-01  0.00000000000000000D+00  0.00000000000000000D+00  0.00000000000000000D+00
55 13  0.00000000000000000D+00  0.00000000000000000D+00  0.00000000000000000D+00  0.00000000000000000D+00  0.00000000000000000D+00
55 14  0.00000000000000000D+00  0.00000000000000000D+00  0.00000000000000000D+00  0.00000000000000000D+00 -1.01204077435809700D-01
55 15 -1.01204077435809800D-01 -1.01204077435809800D-01  0.00000000000000000D+00  0.00000000000000000D+00  0.00000000000000000D+00
55 16  0.00000000000000000D+00  0.00000000000000000D+00  0.00000000000000000D+00  0.00000000000000000D+00  0.00000000000000000D+00
55 17  0.00000000000000000D+00  0.00000000000000000D+00  0.00000000000000000D+00  0.00000000000000000D+00  2.14879847435021100D-01
55 18  2.14879847435021000D-01  2.14879847435020900D-01  0.00000000000000000D+00  0.00000000000000000D+00  0.00000000000000000D+00
55 19  0.00000000000000000D+00  0.00000000000000000D+00  0.00000000000000000D+00  0.00000000000000000D+00  0.00000000000000000D+00
55 20  0.00000000000000000D+00  0.00000000000000000D+00  0.00000000000000000D+00  0.00000000000000000D+00  0.00000000000000000D+00
55 21  0.00000000000000000D+00  0.00000000000000000D+00  0.00000000000000000D+00  9.47617525185261200D-02  9.47617525185261400D-02
55 22  9.47617525185263000D-02  0.00000000000000000D+00  0.00000000000000000D+00  0.00000000000000000D+00 -1.73949855875429700D-02
55 23 -1.73949855875426000D-02 -1.73949855875428100D-02  0.00000000000000000D+00  0.00000000000000000D+00  0.00000000000000000D+00
55 24  0.00000000000000000D+00  0.00000000000000000D+00  0.00000000000000000D+00  0.00000000000000000D+00  0.00000000000000000D+00
55 25  0.00000000000000000D+00  0.00000000000000000D+00  0.00000000000000000D+00  0.00000000000000000D+00  0.00000000000000000D+00
55 26  0.00000000000000000D+00  0.00000000000000000D+00  0.00000000000000000D+00 -8.73186825353144300D-06 -8.73186825369070900D-06
55 27 -8.73186825366311800D-06  0.00000000000000000D+00  0.00000000000000000D+00  0.00000000000000000D+00  0.00000000000000000D+00
55 28  0.00000000000000000D+00  0.00000000000000000D+00  0.00000000000000000D+00  0.00000000000000000D+00  0.00000000000000000D+00
55 29  0.00000000000000000D+00  0.00000000000000000D+00  0.00000000000000000D+00  0.00000000000000000D+00  0.00000000000000000D+00
55 30  0.00000000000000000D+00  0.00000000000000000D+00  0.00000000000000000D+00  0.00000000000000000D+00  0.00000000000000000D+00
55 31  0.00000000000000000D+00  0.00000000000000000D+00  0.00000000000000000D+00  0.00000000000000000D+00  0.00000000000000000D+00
55 32  0.00000000000000000D+00  0.00000000000000000D+00  0.00000000000000000D+00  0.00000000000000000D+00  0.00000000000000000D+00
56  1  0.00000000000000000D+00  0.00000000000000000D+00  0.00000000000000000D+00  0.00000000000000000D+00  0.00000000000000000D+00
56  2  0.00000000000000000D+00  0.00000000000000000D+00  0.00000000000000000D+00  0.00000000000000000D+00  2.62493495028231200D-01
56  3  2.62493495028231900D-01  2.62493495028231400D-01  0.00000000000000000D+00  0.00000000000000000D+00  0.00000000000000000D+00
56  4  0.00000000000000000D+00  0.00000000000000000D+00  0.00000000000000000D+00  0.00000000000000000D+00  0.00000000000000000D+00
56  5  0.00000000000000000D+00  0.00000000000000000D+00  0.00000000000000000D+00  0.00000000000000000D+00 -1.55275894778379000D-01
56  6 -1.55275894778378600D-01 -1.55275894778378700D-01  0.00000000000000000D+00  0.00000000000000000D+00  0.00000000000000000D+00
56  7  0.00000000000000000D+00  0.00000000000000000D+00  0.00000000000000000D+00  0.00000000000000000D+00  0.00000000000000000D+00
56  8  0.00000000000000000D+00  0.00000000000000000D+00  0.00000000000000000D+00  0.00000000000000000D+00  1.87691467604078100D-01
56  9  1.87691467604078300D-01  1.87691467604078500D-01  0.00000000000000000D+00  0.00000000000000000D+00  0.00000000000000000D+00
56 10  0.00000000000000000D+00  0.00000000000000000D+00  0.00000000000000000D+00  0.00000000000000000D+00  0.00000000000000000D+00
56 11  0.00000000000000000D+00  0.00000000000000000D+00  0.00000000000000000D+00  0.00000000000000000D+00  7.59674802021184200D-02
56 12  7.59674802021184100D-02  7.59674802021184100D-02  0.00000000000000000D+00  0.00000000000000000D+00  0.00000000000000000D+00
56 13  0.00000000000000000D+00  0.00000000000000000D+00  0.00000000000000000D+00  0.00000000000000000D+00  0.00000000000000000D+00
56 14  0.00000000000000000D+00  0.00000000000000000D+00  0.00000000000000000D+00  0.00000000000000000D+00 -1.38111378099719400D-02
56 15 -1.38111378099724900D-02 -1.38111378099721600D-02  0.00000000000000000D+00  0.00000000000000000D+00  0.00000000000000000D+00
56 16  0.00000000000000000D+00  0.00000000000000000D+00  0.00000000000000000D+00  0.00000000000000000D+00  0.00000000000000000D+00
56 17  0.00000000000000000D+00  0.00000000000000000D+00  0.00000000000000000D+00  0.00000000000000000D+00 -2.44606962608666900D-01
56 18 -2.44606962608667000D-01 -2.44606962608667100D-01  0.00000000000000000D+00  0.00000000000000000D+00  0.00000000000000000D+00
56 19  0.00000000000000000D+00  0.00000000000000000D+00  0.00000000000000000D+00  0.00000000000000000D+00  0.00000000000000000D+00
56 20  0.00000000000000000D+00  0.00000000000000000D+00  0.00000000000000000D+00  0.00000000000000000D+00  0.00000000000000000D+00
56 21  0.00000000000000000D+00  0.00000000000000000D+00  0.00000000000000000D+00  4.27544554148072900D-02  4.27544554148069800D-02
56 22  4.27544554148072700D-02  0.00000000000000000D+00  0.00000000000000000D+00  0.00000000000000000D+00 -6.43129716640402600D-02
56 23 -6.43129716640398600D-02 -6.43129716640400000D-02  0.00000000000000000D+00  0.00000000000000000D+00  0.00000000000000000D+00
56 24  0.00000000000000000D+00  0.00000000000000000D+00  0.00000000000000000D+00  0.00000000000000000D+00  0.00000000000000000D+00
56 25  0.00000000000000000D+00  0.00000000000000000D+00  0.00000000000000000D+00  0.00000000000000000D+00  0.00000000000000000D+00
56 26  0.00000000000000000D+00  0.00000000000000000D+00  0.00000000000000000D+00 -3.22906194547170000D-05 -3.22906194549213900D-05
56 27 -3.22906194549961400D-05  0.00000000000000000D+00  0.00000000000000000D+00  0.00000000000000000D+00  0.00000000000000000D+00
56 28  0.00000000000000000D+00  0.00000000000000000D+00  0.00000000000000000D+00  0.00000000000000000D+00  0.00000000000000000D+00
56 29  0.00000000000000000D+00  0.00000000000000000D+00  0.00000000000000000D+00  0.00000000000000000D+00  0.00000000000000000D+00
56 30  0.00000000000000000D+00  0.00000000000000000D+00  0.00000000000000000D+00  0.00000000000000000D+00  0.00000000000000000D+00
56 31  0.00000000000000000D+00  0.00000000000000000D+00  0.00000000000000000D+00  0.00000000000000000D+00  0.00000000000000000D+00
56 32  0.00000000000000000D+00  0.00000000000000000D+00  0.00000000000000000D+00  0.00000000000000000D+00  0.00000000000000000D+00
57  1  0.00000000000000000D+00  0.00000000000000000D+00  0.00000000000000000D+00  0.00000000000000000D+00  0.00000000000000000D+00
57  2  0.00000000000000000D+00  0.00000000000000000D+00  0.00000000000000000D+00  0.00000000000000000D+00 -2.62809055563140000D-01
57  3 -2.62809055563139800D-01 -2.62809055563140000D-01  0.00000000000000000D+00  0.00000000000000000D+00  0.00000000000000000D+00
57  4  0.00000000000000000D+00  0.00000000000000000D+00  0.00000000000000000D+00  0.00000000000000000D+00  0.00000000000000000D+00
57  5  0.00000000000000000D+00  0.00000000000000000D+00  0.00000000000000000D+00  0.00000000000000000D+00 -5.32057629820288000D-02
57  6 -5.32057629820288400D-02 -5.32057629820288000D-02  0.00000000000000000D+00  0.00000000000000000D+00  0.00000000000000000D+00
57  7  0.00000000000000000D+00  0.00000000000000000D+00  0.00000000000000000D+00  0.00000000000000000D+00  0.00000000000000000D+00
57  8  0.00000000000000000D+00  0.00000000000000000D+00  0.00000000000000000D+00  0.00000000000000000D+00  2.63274427731923200D-01
57  9  2.63274427731923200D-01  2.63274427731923400D-01  0.00000000000000000D+00  0.00000000000000000D+00  0.00000000000000000D+00
57 10  0.00000000000000000D+00  0.00000000000000000D+00  0.00000000000000000D+00  0.00000000000000000D+00  0.00000000000000000D+00
57 11  0.00000000000000000D+00  0.00000000000000000D+00  0.00000000000000000D+00  0.00000000000000000D+00  2.24941759631727400D-01
57 12  2.24941759631727300D-01  2.24941759631727400D-01  0.00000000000000000D+00  0.00000000000000000D+00  0.00000000000000000D+00
57 13  0.00000000000000000D+00  0.00000000000000000D+00  0.00000000000000000D+00  0.00000000000000000D+00  0.00000000000000000D+00
57 14  0.00000000000000000D+00  0.00000000000000000D+00  0.00000000000000000D+00  0.00000000000000000D+00  1.50513888145907400D-02
57 15  1.50513888145907500D-02  1.50513888145905600D-02  0.00000000000000000D+00  0.00000000000000000D+00  0.00000000000000000D+00
57 16  0.00000000000000000D+00  0.00000000000000000D+00  0.00000000000000000D+00  0.00000000000000000D+00  0.00000000000000000D+00
57 17  0.00000000000000000D+00  0.00000000000000000D+00  0.00000000000000000D+00  0.00000000000000000D+00  3.41031856826539800D-02
57 18  3.41031856826541600D-02  3.41031856826542200D-02  0.00000000000000000D+00  0.00000000000000000D+00  0.00000000000000000D+00
57 19  0.00000000000000000D+00  0.00000000000000000D+00  0.00000000000000000D+00  0.00000000000000000D+00  0.00000000000000000D+00
57 20  0.00000000000000000D+00  0.00000000000000000D+00  0.00000000000000000D+00  0.00000000000000000D+00  0.00000000000000000D+00
57 21  0.00000000000000000D+00  0.00000000000000000D+00  0.00000000000000000D+00  8.16882246561792000D-02  8.16882246561792500D-02
57 22  8.16882246561791100D-02  0.00000000000000000D+00  0.00000000000000000D+00  0.00000000000000000D+00  1.12156104405543500D-02
57 23  1.12156104405543400D-02  1.12156104405546600D-02  0.00000000000000000D+00  0.00000000000000000D+00  0.00000000000000000D+00
57 24  0.00000000000000000D+00  0.00000000000000000D+00  0.00000000000000000D+00  0.00000000000000000D+00  0.00000000000000000D+00
57 25  0.00000000000000000D+00  0.00000000000000000D+00  0.00000000000000000D+00  0.00000000000000000D+00  0.00000000000000000D+00
57 26  0.00000000000000000D+00  0.00000000000000000D+00  0.00000000000000000D+00  5.63324335386239500D-06  5.63324335389245500D-06
57 27  5.63324335391645700D-06  0.00000000000000000D+00  0.00000000000000000D+00  0.00000000000000000D+00  0.00000000000000000D+00
57 28  0.00000000000000000D+00  0.00000000000000000D+00  0.00000000000000000D+00  0.00000000000000000D+00  0.00000000000000000D+00
57 29  0.00000000000000000D+00  0.00000000000000000D+00  0.00000000000000000D+00  0.00000000000000000D+00  0.00000000000000000D+00
57 30  0.00000000000000000D+00  0.00000000000000000D+00  0.00000000000000000D+00  0.00000000000000000D+00  0.00000000000000000D+00
57 31  0.00000000000000000D+00  0.00000000000000000D+00  0.00000000000000000D+00  0.00000000000000000D+00  0.00000000000000000D+00
57 32  0.00000000000000000D+00  0.00000000000000000D+00  0.00000000000000000D+00  0.00000000000000000D+00  0.00000000000000000D+00
58  1  0.00000000000000000D+00  0.00000000000000000D+00  0.00000000000000000D+00  0.00000000000000000D+00  0.00000000000000000D+00
58  2  0.00000000000000000D+00  0.00000000000000000D+00  0.00000000000000000D+00  0.00000000000000000D+00  7.47661936214051400D-02
58  3  7.47661936214048900D-02  7.47661936214049800D-02  0.00000000000000000D+00  0.00000000000000000D+00  0.00000000000000000D+00
58  4  0.00000000000000000D+00  0.00000000000000000D+00  0.00000000000000000D+00  0.00000000000000000D+00  0.00000000000000000D+00
58  5  0.00000000000000000D+00  0.00000000000000000D+00  0.00000000000000000D+00  0.00000000000000000D+00  4.06325433068223400D-01
58  6  4.06325433068223100D-01  4.06325433068223200D-01  0.00000000000000000D+00  0.00000000000000000D+00  0.00000000000000000D+00
58  7  0.00000000000000000D+00  0.00000000000000000D+00  0.00000000000000000D+00  0.00000000000000000D+00  0.00000000000000000D+00
58  8  0.00000000000000000D+00  0.00000000000000000D+00  0.00000000000000000D+00  0.00000000000000000D+00  4.81461666938797400D-02
58  9  4.81461666938800500D-02  4.81461666938797600D-02  0.00000000000000000D+00  0.00000000000000000D+00  0.00000000000000000D+00
58 10  0.00000000000000000D+00  0.00000000000000000D+00  0.00000000000000000D+00  0.00000000000000000D+00  0.00000000000000000D+00
58 11  0.00000000000000000D+00  0.00000000000000000D+00  0.00000000000000000D+00  0.00000000000000000D+00  1.23316007336615400D-01
58 12  1.23316007336615500D-01  1.23316007336615800D-01  0.00000000000000000D+00  0.00000000000000000D+00  0.00000000000000000D+00
58 13  0.00000000000000000D+00  0.00000000000000000D+00  0.00000000000000000D+00  0.00000000000000000D+00  0.00000000000000000D+00
58 14  0.00000000000000000D+00  0.00000000000000000D+00  0.00000000000000000D+00  0.00000000000000000D+00 -2.92142944737317100D-02
58 15 -2.92142944737316900D-02 -2.92142944737316800D-02  0.00000000000000000D+00  0.00000000000000000D+00  0.00000000000000000D+00
58 16  0.00000000000000000D+00  0.00000000000000000D+00  0.00000000000000000D+00  0.00000000000000000D+00  0.00000000000000000D+00
58 17  0.00000000000000000D+00  0.00000000000000000D+00  0.00000000000000000D+00  0.00000000000000000D+00 -8.23217506186903200D-02
58 18 -8.23217506186904600D-02 -8.23217506186906400D-02  0.00000000000000000D+00  0.00000000000000000D+00  0.00000000000000000D+00
58 19  0.00000000000000000D+00  0.00000000000000000D+00  0.00000000000000000D+00  0.00000000000000000D+00  0.00000000000000000D+00
58 20  0.00000000000000000D+00  0.00000000000000000D+00  0.00000000000000000D+00  0.00000000000000000D+00  0.00000000000000000D+00
58 21  0.00000000000000000D+00  0.00000000000000000D+00  0.00000000000000000D+00  5.48472462687886500D-02  5.48472462687886900D-02
58 22  5.48472462687887400D-02  0.00000000000000000D+00  0.00000000000000000D+00  0.00000000000000000D+00 -3.38555957238004500D-02
58 23 -3.38555957238003900D-02 -3.38555957238003900D-02  0.00000000000000000D+00  0.00000000000000000D+00  0.00000000000000000D+00
58 24  0.00000000000000000D+00  0.00000000000000000D+00  0.00000000000000000D+00  0.00000000000000000D+00  0.00000000000000000D+00
58 25  0.00000000000000000D+00  0.00000000000000000D+00  0.00000000000000000D+00  0.00000000000000000D+00  0.00000000000000000D+00
58 26  0.00000000000000000D+00  0.00000000000000000D+00  0.00000000000000000D+00 -1.69976669648585900D-05 -1.69976669650058500D-05
58 27 -1.69976669649738600D-05  0.00000000000000000D+00  0.00000000000000000D+00  0.00000000000000000D+00  0.00000000000000000D+00
58 28  0.00000000000000000D+00  0.00000000000000000D+00  0.00000000000000000D+00  0.00000000000000000D+00  0.00000000000000000D+00
58 29  0.00000000000000000D+00  0.00000000000000000D+00  0.00000000000000000D+00  0.00000000000000000D+00  0.00000000000000000D+00
58 30  0.00000000000000000D+00  0.00000000000000000D+00  0.00000000000000000D+00  0.00000000000000000D+00  0.00000000000000000D+00
58 31  0.00000000000000000D+00  0.00000000000000000D+00  0.00000000000000000D+00  0.00000000000000000D+00  0.00000000000000000D+00
58 32  0.00000000000000000D+00  0.00000000000000000D+00  0.00000000000000000D+00  0.00000000000000000D+00  0.00000000000000000D+00
59  1  0.00000000000000000D+00  0.00000000000000000D+00  0.00000000000000000D+00  0.00000000000000000D+00  0.00000000000000000D+00
59  2  0.00000000000000000D+00  0.00000000000000000D+00  0.00000000000000000D+00  0.00000000000000000D+00 -5.33383880859094100D-02
59  3 -5.33383880859095000D-02 -5.33383880859094700D-02  0.00000000000000000D+00  0.00000000000000000D+00  0.00000000000000000D+00
59  4  0.00000000000000000D+00  0.00000000000000000D+00  0.00000000000000000D+00  0.00000000000000000D+00  0.00000000000000000D+00
59  5  0.00000000000000000D+00  0.00000000000000000D+00  0.00000000000000000D+00  0.00000000000000000D+00 -7.42415666478095000D-03
59  6 -7.42415666478102300D-03 -7.42415666478092800D-03  0.00000000000000000D+00  0.00000000000000000D+00  0.00000000000000000D+00
59  7  0.00000000000000000D+00  0.00000000000000000D+00  0.00000000000000000D+00  0.00000000000000000D+00  0.00000000000000000D+00
59  8  0.00000000000000000D+00  0.00000000000000000D+00  0.00000000000000000D+00  0.00000000000000000D+00 -4.38305381128073300D-02
59  9 -4.38305381128073500D-02 -4.38305381128073600D-02  0.00000000000000000D+00  0.00000000000000000D+00  0.00000000000000000D+00
59 10  0.00000000000000000D+00  0.00000000000000000D+00  0.00000000000000000D+00  0.00000000000000000D+00  0.00000000000000000D+00
59 11  0.00000000000000000D+00  0.00000000000000000D+00  0.00000000000000000D+00  0.00000000000000000D+00  1.00308370273632500D-01
59 12  1.00308370273632600D-01  1.00308370273632600D-01  0.00000000000000000D+00  0.00000000000000000D+00  0.00000000000000000D+00
59 13  0.00000000000000000D+00  0.00000000000000000D+00  0.00000000000000000D+00  0.00000000000000000D+00  0.00000000000000000D+00
59 14  0.00000000000000000D+00  0.00000000000000000D+00  0.00000000000000000D+00  0.00000000000000000D+00  4.36594113746892400D-02
59 15  4.36594113746890500D-02  4.36594113746891800D-02  0.00000000000000000D+00  0.00000000000000000D+00  0.00000000000000000D+00
59 16  0.00000000000000000D+00  0.00000000000000000D+00  0.00000000000000000D+00  0.00000000000000000D+00  0.00000000000000000D+00
59 17  0.00000000000000000D+00  0.00000000000000000D+00  0.00000000000000000D+00  0.00000000000000000D+00 -1.61930229510445600D-02
59 18 -1.61930229510445000D-02 -1.61930229510444700D-02  0.00000000000000000D+00  0.00000000000000000D+00  0.00000000000000000D+00
59 19  0.00000000000000000D+00  0.00000000000000000D+00  0.00000000000000000D+00  0.00000000000000000D+00  0.00000000000000000D+00
59 20  0.00000000000000000D+00  0.00000000000000000D+00  0.00000000000000000D+00  0.00000000000000000D+00  0.00000000000000000D+00
59 21  0.00000000000000000D+00  0.00000000000000000D+00  0.00000000000000000D+00 -2.66770277565872700D-01 -2.66770277565872700D-01
59 22 -2.66770277565872800D-01  0.00000000000000000D+00  0.00000000000000000D+00  0.00000000000000000D+00 -3.34338519567502700D-01
59 23 -3.34338519567502700D-01 -3.34338519567502800D-01  0.00000000000000000D+00  0.00000000000000000D+00  0.00000000000000000D+00
59 24  0.00000000000000000D+00  0.00000000000000000D+00  0.00000000000000000D+00  0.00000000000000000D+00  0.00000000000000000D+00
59 25  0.00000000000000000D+00  0.00000000000000000D+00  0.00000000000000000D+00  0.00000000000000000D+00  0.00000000000000000D+00
59 26  0.00000000000000000D+00  0.00000000000000000D+00  0.00000000000000000D+00 -1.67877819494830700D-04 -1.67877819494638600D-04
59 27 -1.67877819494756100D-04  0.00000000000000000D+00  0.00000000000000000D+00  0.00000000000000000D+00  0.00000000000000000D+00
59 28  0.00000000000000000D+00  0.00000000000000000D+00  0.00000000000000000D+00  0.00000000000000000D+00  0.00000000000000000D+00
59 29  0.00000000000000000D+00  0.00000000000000000D+00  0.00000000000000000D+00  0.00000000000000000D+00  0.00000000000000000D+00
59 30  0.00000000000000000D+00  0.00000000000000000D+00  0.00000000000000000D+00  0.00000000000000000D+00  0.00000000000000000D+00
59 31  0.00000000000000000D+00  0.00000000000000000D+00  0.00000000000000000D+00  0.00000000000000000D+00  0.00000000000000000D+00
59 32  0.00000000000000000D+00  0.00000000000000000D+00  0.00000000000000000D+00  0.00000000000000000D+00  0.00000000000000000D+00
60  1  0.00000000000000000D+00  0.00000000000000000D+00  0.00000000000000000D+00  0.00000000000000000D+00  0.00000000000000000D+00
60  2  0.00000000000000000D+00  0.00000000000000000D+00  0.00000000000000000D+00  0.00000000000000000D+00  1.55297545876703100D-01
60  3  1.55297545876703500D-01  1.55297545876703300D-01  0.00000000000000000D+00  0.00000000000000000D+00  0.00000000000000000D+00
60  4  0.00000000000000000D+00  0.00000000000000000D+00  0.00000000000000000D+00  0.00000000000000000D+00  0.00000000000000000D+00
60  5  0.00000000000000000D+00  0.00000000000000000D+00  0.00000000000000000D+00  0.00000000000000000D+00  3.72088362229995900D-02
60  6  3.72088362229993100D-02  3.72088362229995300D-02  0.00000000000000000D+00  0.00000000000000000D+00  0.00000000000000000D+00
60  7  0.00000000000000000D+00  0.00000000000000000D+00  0.00000000000000000D+00  0.00000000000000000D+00  0.00000000000000000D+00
60  8  0.00000000000000000D+00  0.00000000000000000D+00  0.00000000000000000D+00  0.00000000000000000D+00  1.48133889126056300D-01
60  9  1.48133889126056200D-01  1.48133889126056400D-01  0.00000000000000000D+00  0.00000000000000000D+00  0.00000000000000000D+00
60 10  0.00000000000000000D+00  0.00000000000000000D+00  0.00000000000000000D+00  0.00000000000000000D+00  0.00000000000000000D+00
60 11  0.00000000000000000D+00  0.00000000000000000D+00  0.00000000000000000D+00  0.00000000000000000D+00  8.00809180693354800D-03
60 12  8.00809180693360700D-03  8.00809180693358300D-03  0.00000000000000000D+00  0.00000000000000000D+00  0.00000000000000000D+00
60 13  0.00000000000000000D+00  0.00000000000000000D+00  0.00000000000000000D+00  0.00000000000000000D+00  0.00000000000000000D+00
60 14  0.00000000000000000D+00  0.00000000000000000D+00  0.00000000000000000D+00  0.00000000000000000D+00  3.00374473280196800D-01
60 15  3.00374473280197100D-01  3.00374473280197000D-01  0.00000000000000000D+00  0.00000000000000000D+00  0.00000000000000000D+00
60 16  0.00000000000000000D+00  0.00000000000000000D+00  0.00000000000000000D+00  0.00000000000000000D+00  0.00000000000000000D+00
60 17  0.00000000000000000D+00  0.00000000000000000D+00  0.00000000000000000D+00  0.00000000000000000D+00  1.97432507419239900D-01
60 18  1.97432507419239900D-01  1.97432507419240000D-01  0.00000000000000000D+00  0.00000000000000000D+00  0.00000000000000000D+00
60 19  0.00000000000000000D+00  0.00000000000000000D+00  0.00000000000000000D+00  0.00000000000000000D+00  0.00000000000000000D+00
60 20  0.00000000000000000D+00  0.00000000000000000D+00  0.00000000000000000D+00  0.00000000000000000D+00  0.00000000000000000D+00
60 21  0.00000000000000000D+00  0.00000000000000000D+00  0.00000000000000000D+00 -1.25334092581400600D-01 -1.25334092581400700D-01
60 22 -1.25334092581400900D-01  0.00000000000000000D+00  0.00000000000000000D+00  0.00000000000000000D+00  8.70479192867905200D-02
60 23  8.70479192867904100D-02  8.70479192867907200D-02  0.00000000000000000D+00  0.00000000000000000D+00  0.00000000000000000D+00
60 24  0.00000000000000000D+00  0.00000000000000000D+00  0.00000000000000000D+00  0.00000000000000000D+00  0.00000000000000000D+00
60 25  0.00000000000000000D+00  0.00000000000000000D+00  0.00000000000000000D+00  0.00000000000000000D+00  0.00000000000000000D+00
60 26  0.00000000000000000D+00  0.00000000000000000D+00  0.00000000000000000D+00  4.37039641542704400D-05  4.37039641543546700D-05
60 27  4.37039641543437800D-05  0.00000000000000000D+00  0.00000000000000000D+00  0.00000000000000000D+00  0.00000000000000000D+00
60 28  0.00000000000000000D+00  0.00000000000000000D+00  0.00000000000000000D+00  0.00000000000000000D+00  0.00000000000000000D+00
60 29  0.00000000000000000D+00  0.00000000000000000D+00  0.00000000000000000D+00  0.00000000000000000D+00  0.00000000000000000D+00
60 30  0.00000000000000000D+00  0.00000000000000000D+00  0.00000000000000000D+00  0.00000000000000000D+00  0.00000000000000000D+00
60 31  0.00000000000000000D+00  0.00000000000000000D+00  0.00000000000000000D+00  0.00000000000000000D+00  0.00000000000000000D+00
60 32  0.00000000000000000D+00  0.00000000000000000D+00  0.00000000000000000D+00  0.00000000000000000D+00  0.00000000000000000D+00
 $END
