 $CONTRL SCFTYP=MCSCF RUNTYP=ENERGY ICHARG=0 MULT=1 MPLEVL=2 EXETYP=RUN
      INTTYP=HONDO ICUT=13 ITOL=30 D5=.T. MAXIT=100 GENCON=.F. WIDE=1 FSTINT=.T.
 $END
 $SYSTEM TIMLIM=60000 MWORDS=200 MASMEM=200000000 MXBCST=-1 KDIAG=0 NOJAC=1 $END
 $MOORTH NOSTF=.T. NOZERO=.T. SYMS=.T. SYMDEN=.T. SYMVEC=.T. SYMVX=.T.
      TOLE=0.0D0 TOLZ=0.0D0 $END
 $GUESS GUESS=MOREAD NORB=160 IORDER(22)=-23 IORDER(32)=-45 NORDER=1 $END
 $DET NCORE=22 NACT=10 NELS=12 CVGTOL=1D-8 ITERMX=1000 NSTATE=15
      WSTATE(1)=1,1,1,1,1 $END
 $MCSCF MAXIT=200 ACURCY=5D-3 CISTEP=ALDET ENGTOL=1D-3 IFORB=1 ISTATE=1
      SOSCF=.T. $END
 $XMCQDPT NSTATE=5 EDSHFT=2D-2 GENZRO=1D-20 ISTATE(1)=1 THRCON=1D-8 THRERI=1D-20
      THRGEN=1D-20 WSTATE(1)=1,1,1,1,1 $END
 $MCQGENS GEN1=3 GEN2=3 GEN3=1 USEGEN1=.T. $END
 $DATA
o_bq XMCQDPT2/ALDET-CASSCF(12,10) Andrew-style geometry
C1
C      6.0    -0.0450782261     1.4807810883     0.0000000000
S   8
  1    6665.0000000       0.0006920
  2    1000.0000000       0.0053290
  3     228.0000000       0.0270770
  4      64.7100000       0.1017180
  5      21.0600000       0.2747400
  6       7.4950000       0.4485640
  7       2.7970000       0.2850740
  8       0.5215000       0.0152040
S   8
  1    6665.0000000      -0.0001460
  2    1000.0000000      -0.0011540
  3     228.0000000      -0.0057250
  4      64.7100000      -0.0233120
  5      21.0600000      -0.0639550
  6       7.4950000      -0.1499810
  7       2.7970000      -0.1272620
  8       0.5215000       0.5445290
S   1
  1       0.1596000       1.0000000
P   3
  1       9.4390000       0.0381090
  2       2.0020000       0.2094800
  3       0.5456000       0.5085570
P   1
  1       0.1517000       1.0000000
D   1
  1       0.5500000       1.0000000

C      6.0     1.3045915656     0.7016426529     0.0000000000
S   8
  1    6665.0000000       0.0006920
  2    1000.0000000       0.0053290
  3     228.0000000       0.0270770
  4      64.7100000       0.1017180
  5      21.0600000       0.2747400
  6       7.4950000       0.4485640
  7       2.7970000       0.2850740
  8       0.5215000       0.0152040
S   8
  1    6665.0000000      -0.0001460
  2    1000.0000000      -0.0011540
  3     228.0000000      -0.0057250
  4      64.7100000      -0.0233120
  5      21.0600000      -0.0639550
  6       7.4950000      -0.1499810
  7       2.7970000      -0.1272620
  8       0.5215000       0.5445290
S   1
  1       0.1596000       1.0000000
P   3
  1       9.4390000       0.0381090
  2       2.0020000       0.2094800
  3       0.5456000       0.5085570
P   1
  1       0.1517000       1.0000000
D   1
  1       0.5500000       1.0000000

C      6.0     1.2405223961    -0.7735654712     0.0000000000
S   8
  1    6665.0000000       0.0006920
  2    1000.0000000       0.0053290
  3     228.0000000       0.0270770
  4      64.7100000       0.1017180
  5      21.0600000       0.2747400
  6       7.4950000       0.4485640
  7       2.7970000       0.2850740
  8       0.5215000       0.0152040
S   8
  1    6665.0000000      -0.0001460
  2    1000.0000000      -0.0011540
  3     228.0000000      -0.0057250
  4      64.7100000      -0.0233120
  5      21.0600000      -0.0639550
  6       7.4950000      -0.1499810
  7       2.7970000      -0.1272620
  8       0.5215000       0.5445290
S   1
  1       0.1596000       1.0000000
P   3
  1       9.4390000       0.0381090
  2       2.0020000       0.2094800
  3       0.5456000       0.5085570
P   1
  1       0.1517000       1.0000000
D   1
  1       0.5500000       1.0000000

C      6.0     0.0339756812    -1.4096965476     0.0000000000
S   8
  1    6665.0000000       0.0006920
  2    1000.0000000       0.0053290
  3     228.0000000       0.0270770
  4      64.7100000       0.1017180
  5      21.0600000       0.2747400
  6       7.4950000       0.4485640
  7       2.7970000       0.2850740
  8       0.5215000       0.0152040
S   8
  1    6665.0000000      -0.0001460
  2    1000.0000000      -0.0011540
  3     228.0000000      -0.0057250
  4      64.7100000      -0.0233120
  5      21.0600000      -0.0639550
  6       7.4950000      -0.1499810
  7       2.7970000      -0.1272620
  8       0.5215000       0.5445290
S   1
  1       0.1596000       1.0000000
P   3
  1       9.4390000       0.0381090
  2       2.0020000       0.2094800
  3       0.5456000       0.5085570
P   1
  1       0.1517000       1.0000000
D   1
  1       0.5500000       1.0000000

C      6.0    -1.2380102911    -0.6753858178     0.0000000000
S   8
  1    6665.0000000       0.0006920
  2    1000.0000000       0.0053290
  3     228.0000000       0.0270770
  4      64.7100000       0.1017180
  5      21.0600000       0.2747400
  6       7.4950000       0.4485640
  7       2.7970000       0.2850740
  8       0.5215000       0.0152040
S   8
  1    6665.0000000      -0.0001460
  2    1000.0000000      -0.0011540
  3     228.0000000      -0.0057250
  4      64.7100000      -0.0233120
  5      21.0600000      -0.0639550
  6       7.4950000      -0.1499810
  7       2.7970000      -0.1272620
  8       0.5215000       0.5445290
S   1
  1       0.1596000       1.0000000
P   3
  1       9.4390000       0.0381090
  2       2.0020000       0.2094800
  3       0.5456000       0.5085570
P   1
  1       0.1517000       1.0000000
D   1
  1       0.5500000       1.0000000

C      6.0    -1.2905225577     0.6875519449     0.0000000000
S   8
  1    6665.0000000       0.0006920
  2    1000.0000000       0.0053290
  3     228.0000000       0.0270770
  4      64.7100000       0.1017180
  5      21.0600000       0.2747400
  6       7.4950000       0.4485640
  7       2.7970000       0.2850740
  8       0.5215000       0.0152040
S   8
  1    6665.0000000      -0.0001460
  2    1000.0000000      -0.0011540
  3     228.0000000      -0.0057250
  4      64.7100000      -0.0233120
  5      21.0600000      -0.0639550
  6       7.4950000      -0.1499810
  7       2.7970000      -0.1272620
  8       0.5215000       0.5445290
S   1
  1       0.1596000       1.0000000
P   3
  1       9.4390000       0.0381090
  2       2.0020000       0.2094800
  3       0.5456000       0.5085570
P   1
  1       0.1517000       1.0000000
D   1
  1       0.5500000       1.0000000

O      8.0    -0.0398433785     2.7143255481     0.0000000000
S   8
  1   11720.0000000       0.0007100
  2    1759.0000000       0.0054700
  3     400.8000000       0.0278370
  4     113.7000000       0.1048000
  5      37.0300000       0.2830620
  6      13.2700000       0.4487190
  7       5.0250000       0.2709520
  8       1.0130000       0.0154580
S   8
  1   11720.0000000      -0.0001600
  2    1759.0000000      -0.0012630
  3     400.8000000      -0.0062670
  4     113.7000000      -0.0257160
  5      37.0300000      -0.0709240
  6      13.2700000      -0.1654110
  7       5.0250000      -0.1169550
  8       1.0130000       0.5573680
S   1
  1       0.3023000       1.0000000
S   1
  1       0.0789600       1.0000000
P   3
  1      17.7000000       0.0430180
  2       3.8540000       0.2289130
  3       1.0460000       0.5087280
P   1
  1       0.2753000       1.0000000
P   1
  1       0.0685600       1.0000000
D   1
  1       1.1850000       1.0000000
D   1
  1       0.3320000       1.0000000

O      8.0     2.3701827636     1.3230538234     0.0000000000
S   8
  1   11720.0000000       0.0007100
  2    1759.0000000       0.0054700
  3     400.8000000       0.0278370
  4     113.7000000       0.1048000
  5      37.0300000       0.2830620
  6      13.2700000       0.4487190
  7       5.0250000       0.2709520
  8       1.0130000       0.0154580
S   8
  1   11720.0000000      -0.0001600
  2    1759.0000000      -0.0012630
  3     400.8000000      -0.0062670
  4     113.7000000      -0.0257160
  5      37.0300000      -0.0709240
  6      13.2700000      -0.1654110
  7       5.0250000      -0.1169550
  8       1.0130000       0.5573680
S   1
  1       0.3023000       1.0000000
S   1
  1       0.0789600       1.0000000
P   3
  1      17.7000000       0.0430180
  2       3.8540000       0.2289130
  3       1.0460000       0.5087280
P   1
  1       0.2753000       1.0000000
P   1
  1       0.0685600       1.0000000
D   1
  1       1.1850000       1.0000000
D   1
  1       0.3320000       1.0000000

H      1.0     2.1902390294    -1.3176810390     0.0000000000
S   3
  1      13.0100000       0.0196850
  2       1.9620000       0.1379770
  3       0.4446000       0.4781480
S   1
  1       0.1220000       1.0000000
P   1
  1       0.7270000       1.0000000

H      1.0    -0.0034843590    -2.5045497916     0.0000000000
S   3
  1      13.0100000       0.0196850
  2       1.9620000       0.1379770
  3       0.4446000       0.4781480
S   1
  1       0.1220000       1.0000000
P   1
  1       0.7270000       1.0000000

H      1.0    -2.1674037412    -1.2553456340     0.0000000000
S   3
  1      13.0100000       0.0196850
  2       1.9620000       0.1379770
  3       0.4446000       0.4781480
S   1
  1       0.1220000       1.0000000
P   1
  1       0.7270000       1.0000000

H      1.0    -2.2366688824     1.2378692437     0.0000000000
S   3
  1      13.0100000       0.0196850
  2       1.9620000       0.1379770
  3       0.4446000       0.4781480
S   1
  1       0.1220000       1.0000000
P   1
  1       0.7270000       1.0000000

 $END
 $VEC
 1  1 -4.39626567327070000D-04 -5.53564343868899300D-04  6.65042557567605000D-04 -1.89230244812485300D-05 -1.91127274811091400D-04
 1  2  0.00000000000000000D+00 -2.60747651600254400D-03 -7.66165568903209900D-03  0.00000000000000000D+00 -3.86311167110119800D-04
 1  3  1.86670435925985900D-04  1.99640731184100700D-04 -1.47139562197491200D-04  0.00000000000000000D+00  0.00000000000000000D+00
 1  4  4.79847723085355800D-04  6.48721269117982800D-04  3.61150103081539400D-04  2.22080852140669800D-04  1.35310310855824200D-04
 1  5  0.00000000000000000D+00  5.71131200811188400D-03  5.89349808281446100D-03  0.00000000000000000D+00 -1.58926143629937000D-04
 1  6  3.13032262409526500D-04 -1.54106118779631600D-04 -2.55395727295085200D-04  0.00000000000000000D+00  0.00000000000000000D+00
 1  7 -4.18261315264158100D-01 -2.27710365499138400D-03  9.51798336882223400D-03  6.43617340694719900D-05 -1.43074346197238100D-04
 1  8  0.00000000000000000D+00 -3.02280196536860800D-03  2.12115088025057600D-03  0.00000000000000000D+00 -5.97335096212922700D-05
 1  9 -5.72629062403198300D-05  1.16996415861619700D-04 -2.52884494005115900D-04  0.00000000000000000D+00  0.00000000000000000D+00
 1 10 -7.73856638188475400D-03  1.69339164670803200D-04 -3.99343140462350000D-03  2.66950764783294000D-05 -2.15323415302352400D-05
 1 11  0.00000000000000000D+00 -9.35127931593791000D-04 -1.93594933172877700D-03  0.00000000000000000D+00  1.13399223275976700D-04
 1 12  3.99047020099372400D-05 -1.53303925286043800D-04 -2.51535640374012000D-05  0.00000000000000000D+00  0.00000000000000000D+00
 1 13  1.05009813764152200D-02 -2.53411122834552600D-04  4.15463564777421400D-03  1.13608712984231400D-05 -3.17336150573255900D-05
 1 14  0.00000000000000000D+00  1.39677056526599700D-03  1.93587236457505900D-03  0.00000000000000000D+00 -7.96092374417254600D-05
 1 15 -1.04085552034577500D-04  1.83694789476233800D-04  3.12832400215045400D-05  0.00000000000000000D+00  0.00000000000000000D+00
 1 16  5.72200580028261600D-01  2.92031510396082100D-03 -1.09977121701918300D-02  1.55718635082805700D-04  1.29976462818335600D-05
 1 17  0.00000000000000000D+00 -3.62052960178610400D-03  1.36059598016412300D-03  0.00000000000000000D+00 -7.91943182723686800D-05
 1 18  2.96296748127837700D-04 -2.17102429855625000D-04  5.59914031439618300D-05  0.00000000000000000D+00  0.00000000000000000D+00
 1 19 -4.18085236861642100D-01 -1.28776165716184900D-03  5.55381253211875500D-03  3.81961185246956000D-03  1.28715739902911500D-05
 1 20  7.92216282097579400D-04  0.00000000000000000D+00  2.95344888248823400D-04 -2.10861904661445800D-03  0.00000000000000000D+00
 1 21  3.98803060408719900D-04 -1.43144807224471800D-03  0.00000000000000000D+00 -1.33488507832989900D-05 -8.35707183113411700D-05
 1 22  9.69195690945627300D-05 -5.05103976103496900D-06  0.00000000000000000D+00  0.00000000000000000D+00 -2.01242617548010900D-04
 1 23  3.40199367839989900D-04 -1.38956750292068000D-04 -8.43876637670734400D-05  0.00000000000000000D+00  0.00000000000000000D+00
 1 24  5.71991971286484000D-01  1.58155337123080400D-03 -6.64627467313647300D-03 -3.81055394002939200D-03 -9.02729610909849700D-04
 1 25 -5.45905914120961100D-04  0.00000000000000000D+00  2.29161497492051300D-03  1.07298117116458900D-03  0.00000000000000000D+00
 1 26  1.40503388391824800D-03  3.46239496357596200D-04  0.00000000000000000D+00  8.88389491925373300D-05  4.93233155830895900D-05
 1 27 -1.38162264775655700D-04  5.79927177880725100D-05  0.00000000000000000D+00  0.00000000000000000D+00 -3.08601607241997700D-04
 1 28  1.38170946773720400D-04  1.70430660468268000D-04 -3.45516148725429500D-04  0.00000000000000000D+00  0.00000000000000000D+00
 1 29  4.84364874751808900D-05  7.01719153444031000D-04 -4.45722960810083800D-05  4.93322164058741400D-05  0.00000000000000000D+00
 1 30 -5.39119906191326100D-05 -3.96747509930332000D-04 -2.30273389252430000D-06 -4.11310057957416200D-06  0.00000000000000000D+00
 1 31  9.70650990166162800D-05  5.01164708350813900D-04  2.32789206210437000D-05  1.22527583974888800D-05  0.00000000000000000D+00
 1 32 -1.10289443304723200D-04 -5.50390498665593800D-04 -1.45127618857234400D-04  5.94047642728426900D-05  0.00000000000000000D+00
 2  1  1.67926464674935900D-04  3.99540509473449000D-04  3.27596901765372500D-03 -3.93097118354127300D-05  2.56243459592031900D-04
 2  2  0.00000000000000000D+00 -7.80377544905992100D-04  1.95356002369107900D-03  0.00000000000000000D+00  6.09430240255420700D-05
 2  3 -1.79799026852195500D-04  1.18856002826897200D-04 -1.04884333230281400D-04  0.00000000000000000D+00  0.00000000000000000D+00
 2  4 -3.36625590972804700D-05  2.12259434321333500D-04  3.32330297350127700D-03  1.82687836655708000D-04  5.56088210575932900D-05
 2  5  0.00000000000000000D+00  3.64408419687371800D-04 -1.56232649877076800D-03  0.00000000000000000D+00  7.65286008253126500D-06
 2  6 -1.81567686440965700D-04  1.73914826358391100D-04 -9.99608893025670600D-05  0.00000000000000000D+00  0.00000000000000000D+00
 2  7  5.71972255592727700D-01  2.47246769356462700D-03 -6.35238153523508900D-03 -1.72086880275731800D-05  1.68262324647047700D-05
 2  8  0.00000000000000000D+00  3.58410028627502300D-04 -1.42878611844845300D-03  0.00000000000000000D+00  3.40767574029969500D-04
 2  9  7.06504769652761000D-06 -3.47832621726433300D-04 -8.30124708806463600D-05  0.00000000000000000D+00  0.00000000000000000D+00
 2 10  1.03427709700795700D-02 -2.99549819921286300D-04  1.15279926766957400D-03 -2.81089949413615000D-05 -8.72603841995775600D-05
 2 11  0.00000000000000000D+00  2.85390038110700400D-04  1.09678115653160100D-03  0.00000000000000000D+00 -4.38447028184364500D-05
 2 12 -7.98589248406493000D-05  1.23703627659027300D-04 -6.80000616349520500D-05  0.00000000000000000D+00  0.00000000000000000D+00
 2 13  7.35295301621546700D-03 -2.34431549514219900D-04 -1.12150728262825100D-04 -6.83222607727957200D-05 -6.10575699010952800D-05
 2 14  0.00000000000000000D+00  4.02509271139434400D-04  2.18282637648070000D-04  0.00000000000000000D+00  4.42795474437339400D-06
 2 15 -7.58530084463450400D-05  7.14250537021379700D-05 -6.45113729475810800D-05  0.00000000000000000D+00  0.00000000000000000D+00
 2 16  4.17963993243512900D-01  1.66443645821971800D-03 -3.16267135213070200D-03 -2.52933129124958400D-05 -1.10529233913656500D-05
 2 17  0.00000000000000000D+00 -3.33012962797294700D-04 -8.57698909669737400D-04  0.00000000000000000D+00  1.85617734495954400D-04
 2 18  1.10311640547112200D-04 -2.95929375043067900D-04 -2.36551617129855900D-04  0.00000000000000000D+00  0.00000000000000000D+00
 2 19  5.71757162050130200D-01  1.16800280988689000D-03 -4.45996221822478100D-03 -5.64105647376962400D-04 -2.97367465917264400D-05
 2 20 -9.87292113801247400D-04  0.00000000000000000D+00  2.12684552229373400D-04  1.68607836783932400D-03  0.00000000000000000D+00
 2 21 -7.51897967492801900D-05  8.57791400155280500D-05  0.00000000000000000D+00  9.85383459686312500D-06  1.40999269541159100D-04
 2 22 -1.50853104138018700D-04  1.45313770203124400D-05  0.00000000000000000D+00  0.00000000000000000D+00  3.09070514177398500D-04
 2 23 -4.34291845206981100D-04  1.25221331029658800D-04 -9.77891629784129700D-05  0.00000000000000000D+00  0.00000000000000000D+00
 2 24  4.17752160665961900D-01  7.21618169230657000D-04 -2.56225857511604600D-03  6.22587895896452000D-04 -5.93974898791711000D-04
 2 25 -3.71215208551602500D-04  0.00000000000000000D+00  6.90200942275709900D-04  7.36103235594311700D-04  0.00000000000000000D+00
 2 26 -3.30419724856070300D-04 -1.33689141575674100D-04  0.00000000000000000D+00  7.37958001611926000D-05  4.04830998749637000D-05
 2 27 -1.14278900036192800D-04  5.79615660695689100D-05  0.00000000000000000D+00  0.00000000000000000D+00 -8.53025607329607100D-05
 2 28  8.26012567577870900D-06  7.70424350571854100D-05 -3.31245139391628900D-04  0.00000000000000000D+00  0.00000000000000000D+00
 2 29 -2.10926849482664100D-04  3.89317710319596200D-04  2.68524574919843100D-04 -1.61207336919465500D-04  0.00000000000000000D+00
 2 30  1.52051454337368300D-04  4.05650739004445300D-04 -1.06946049382296300D-05  7.38322494528773200D-05  0.00000000000000000D+00
 2 31  1.28724604296150400D-04  2.66021300148638500D-04  6.53663937854661700D-05  2.51890757325081600D-05  0.00000000000000000D+00
 2 32 -1.86280437977253200D-04  5.83967699317350000D-04 -2.41235407870474700D-04  1.40528607730044400D-04  0.00000000000000000D+00
 3  1 -2.64273900576685900D-01 -1.32955067392074100D-03  1.82717886436739100D-03 -2.98168983664307300D-05 -1.36516098099635800D-04
 3  2  0.00000000000000000D+00 -1.55741230918461600D-03  2.14762305387640800D-04  0.00000000000000000D+00  1.61649299848228800D-04
 3  3 -1.20593744058600900D-04 -4.10555557896201800D-05 -3.41241580481601900D-04  0.00000000000000000D+00  0.00000000000000000D+00
 3  4 -8.80869502283504200D-01 -4.33873450607955700D-03  5.73510704401145400D-03 -6.51202357708576300D-04 -3.87668561274813200D-04
 3  5  0.00000000000000000D+00 -1.21133514106761200D-03 -8.47392692015619900D-05  0.00000000000000000D+00 -3.06954510122221300D-04
 3  6 -2.15704631642713700D-04  5.22659141764992300D-04 -3.87172839620573300D-04  0.00000000000000000D+00  0.00000000000000000D+00
 3  7 -6.12999924261374900D-03 -8.52536041205569400D-05  6.43353794742007600D-04 -6.37563371660683800D-06  4.73230601368912800D-05
 3  8  0.00000000000000000D+00 -6.31126234181356700D-04 -2.00519451700259400D-04  0.00000000000000000D+00 -1.37903396896360200D-04
 3  9  2.52098666957751800D-04 -1.14195270061248600D-04 -9.12786187750392100D-05  0.00000000000000000D+00  0.00000000000000000D+00
 3 10  3.16836053915525300D-01  1.57699742902271800D-03 -4.36311824057550100D-03 -6.30944792256195600D-05  8.60634031053476500D-05
 3 11  0.00000000000000000D+00  1.71268133720268300D-04 -1.42515853285743100D-03  0.00000000000000000D+00  1.38983986775174100D-04
 3 12 -4.40408034014573000D-06 -1.34579906434908200D-04 -2.62784678823150800D-05  0.00000000000000000D+00  0.00000000000000000D+00
 3 13 -2.42627265832188800D-01 -9.60767535931156200D-04  3.28250309281035400D-03  5.95107386812962800D-06  1.09498375199204600D-04
 3 14  0.00000000000000000D+00  1.13050140657800800D-03  4.86127528503878900D-05  0.00000000000000000D+00 -1.58078805049655600D-04
 3 15 -1.24979832640056800D-04  2.83058637689787100D-04  3.90996694204282800D-05  0.00000000000000000D+00  0.00000000000000000D+00
 3 16  4.63414404969856100D-03  2.53994858017483900D-04 -1.97998950824475000D-03  5.67364993219838700D-05 -8.83143758262139400D-06
 3 17  0.00000000000000000D+00 -9.06443703026287200D-04 -1.16690006815523200D-04  0.00000000000000000D+00  1.32050986345778100D-04
 3 18 -5.13135954438854300D-05 -8.07373909018367200D-05  7.23694597771376100D-05  0.00000000000000000D+00  0.00000000000000000D+00
 3 19 -5.73707459821927400D-05 -9.58092511303941300D-05  1.42364446966477600D-04 -7.36742082298201500D-04  6.59154215305079800D-06
 3 20  9.60397013469267400D-05  0.00000000000000000D+00  3.73810840288542600D-04 -1.92718136092786100D-04  0.00000000000000000D+00
 3 21  6.79649947489240800D-05  5.34432509261608200D-04  0.00000000000000000D+00  4.98721020242725100D-05 -8.28752797647256500D-05
 3 22  3.30031777404351400D-05 -2.29071229468996400D-05  0.00000000000000000D+00  0.00000000000000000D+00 -1.30817215267239000D-04
 3 23  1.92355901924745800D-04 -6.15386866575275800D-05 -1.53286317240736400D-04  0.00000000000000000D+00  0.00000000000000000D+00
 3 24 -3.04777096726984300D-05 -7.14527277290243100D-04  1.76413340681861400D-03 -7.42077207862321800D-04  3.45465520956376200D-04
 3 25  2.27404541005017500D-04  0.00000000000000000D+00 -1.41434343641806000D-03 -8.37086364500533800D-04  0.00000000000000000D+00
 3 26  6.70471291068239600D-04  3.66094771871935700D-04  0.00000000000000000D+00 -1.50301834413369100D-04  1.53081656615057600D-05
 3 27  1.34993668751835600D-04 -2.11301827089014800D-04  0.00000000000000000D+00  0.00000000000000000D+00  6.37479738133768800D-04
 3 28 -3.11416168829992600D-06 -6.34365576445463200D-04  6.47019780139208000D-04  0.00000000000000000D+00  0.00000000000000000D+00
 3 29 -1.57928191660120800D-06  2.58609713515144500D-04  4.21117114292408800D-05  2.16492611682508700D-05  0.00000000000000000D+00
 3 30 -9.92443938947305900D-05 -6.18106477762846900D-05 -2.10307953771200500D-06 -1.26491573046176700D-04  0.00000000000000000D+00
 3 31  1.30212880825765200D-04 -8.04854150286793200D-05  1.11099809020178600D-04  8.16600134692754500D-05  0.00000000000000000D+00
 3 32 -3.55582593379933400D-05 -4.11875555736667500D-05 -2.59320440177584000D-06  5.42502581118331700D-05  0.00000000000000000D+00
 4  1  2.87916146337463900D-01  1.45172368917884000D-03 -9.82451725719371400D-04 -8.44051005666223700D-06  2.59761996711766700D-04
 4  2  0.00000000000000000D+00 -1.90028744453985500D-04  2.85540961605610300D-04  0.00000000000000000D+00 -3.72553605982196400D-05
 4  3  1.38423217029622700D-04 -1.01167856431346300D-04 -1.89652154304595400D-05  0.00000000000000000D+00  0.00000000000000000D+00
 4  4  1.61963559451497900D-01  8.92818662497029300D-04 -1.52917903061133000D-03  9.04855972261157400D-05  2.10392512666290700D-05
 4  5  0.00000000000000000D+00 -1.51202194036926700D-05  8.73695230550622900D-04  0.00000000000000000D+00 -5.43068354116895400D-05
 4  6  6.13704983325989700D-05 -7.06366292103582500D-06  1.47767481150385100D-04  0.00000000000000000D+00  0.00000000000000000D+00
 4  7  4.78839216367447900D-04  1.27326889290710200D-05  6.94604707762801200D-04 -1.75768297930134900D-05 -4.54345663180485100D-07
 4  8  0.00000000000000000D+00  1.21420234547905400D-04  9.15021057663500500D-04  0.00000000000000000D+00  1.10331592506264700D-05
 4  9 -1.12954161293052600D-04  1.01921002042397800D-04 -1.12195725087988600D-05  0.00000000000000000D+00  0.00000000000000000D+00
 4 10 -3.43810011979219000D-02 -3.93846498563472800D-06 -1.86736721693270200D-03 -3.13675209656157300D-05  5.04449938125520800D-06
 4 11  0.00000000000000000D+00  1.13348486859983400D-03 -1.16656677959512300D-03  0.00000000000000000D+00  3.01016967491550900D-04
 4 12  3.58589363159186900D-06 -3.04602861123182600D-04 -1.90528037318023900D-04  0.00000000000000000D+00  0.00000000000000000D+00
 4 13 -9.45389723983007000D-01 -4.06333116199546300D-03  9.91814624144915200D-03 -1.47055022263002500D-04  1.86431994954946600D-04
 4 14  0.00000000000000000D+00  1.82236772788138100D-03  1.20774437538356700D-03  0.00000000000000000D+00 -1.89408259362404600D-04
 4 15 -2.88891881933497600D-04  4.78300141295917800D-04 -1.06857466237401600D-04  0.00000000000000000D+00  0.00000000000000000D+00
 4 16  1.80411934364395100D-02  4.56180953686901200D-04 -3.28835468593129200D-03 -1.16650180618186200D-05 -5.04025147214944900D-05
 4 17  0.00000000000000000D+00 -8.62048732047895300D-04  1.79833928917787800D-03  0.00000000000000000D+00  9.10005820605364800D-05
 4 18  1.01888793954071000D-04 -1.92889376014757400D-04 -9.01348900109323700D-05  0.00000000000000000D+00  0.00000000000000000D+00
 4 19 -5.64495931144886600D-05  2.94362156238808500D-04 -7.45032128088141500D-04 -1.24501985771716400D-04 -1.17039201750689100D-05
 4 20 -1.55665426276369400D-04  0.00000000000000000D+00  6.99825920353374300D-05  7.02756967699881300D-04  0.00000000000000000D+00
 4 21  4.05465266279244600D-05 -5.35195635255248800D-05  0.00000000000000000D+00 -3.48101601476883200D-05  9.30171276451477100D-05
 4 22 -5.82069674974434500D-05  5.34630855718540300D-06  0.00000000000000000D+00  0.00000000000000000D+00  9.26611410262820400D-05
 4 23 -3.51289352751541200D-04  2.58628211725267700D-04 -5.15706160702001900D-05  0.00000000000000000D+00  0.00000000000000000D+00
 4 24 -6.04218832195078200D-05  1.33921902899663400D-04 -3.51263495356056600D-04  1.92879444017190600D-04 -6.25528187201548600D-05
 4 25 -3.65067797719169600D-05  0.00000000000000000D+00  3.00347940239479500D-04 -3.59713774549593100D-06  0.00000000000000000D+00
 4 26 -1.67262896626506500D-04 -8.61036333244657000D-05  0.00000000000000000D+00  2.48985499424216800D-05  2.34822716943517100D-06
 4 27 -2.72467771117960600D-05  3.77534927010049300D-05  0.00000000000000000D+00  0.00000000000000000D+00 -1.42934318048598300D-04
 4 28  4.84862473228241500D-05  9.44480707257676500D-05 -6.66692179423540500D-05  0.00000000000000000D+00  0.00000000000000000D+00
 4 29  1.78941792662525200D-05  1.35635073526901000D-05 -2.36344100620170800D-05 -3.98383847522506700D-05  0.00000000000000000D+00
 4 30 -2.16831946641633600D-05 -3.60328893384063400D-04 -4.71762231642420900D-05 -3.26816926466634800D-05  0.00000000000000000D+00
 4 31  3.77241252240495700D-04 -5.59824660082024600D-04  3.97696741330912600D-04  2.09923500088557600D-04  0.00000000000000000D+00
 4 32 -1.64916289832755200D-04 -4.23081333346793800D-04 -9.72088571503517800D-05  4.13231020507351100D-05  0.00000000000000000D+00
 5  1 -6.55874750857849500D-01 -3.29587662272091200D-03  5.54781183781852100D-03  5.05572303266632400D-05 -5.88863140109016200D-04
 5  2  0.00000000000000000D+00  1.16669743400093200D-03 -1.77645002610689700D-03  0.00000000000000000D+00 -5.15246068901862800D-05
 5  3 -5.01696723525492100D-04  5.53221330415630100D-04  2.61917686205385900D-05  0.00000000000000000D+00  0.00000000000000000D+00
 5  4  4.49958956971345100D-01  2.22275515828343200D-03 -4.39854236539457100D-03  3.88911806529586600D-04  1.84974221975994500D-04
 5  5  0.00000000000000000D+00  1.97200241249326700D-03 -5.11779442109424100D-04  0.00000000000000000D+00  3.83860140228322200D-04
 5  6  1.19851309497342100D-04 -5.03711449725591000D-04  1.08528831046217700D-04  0.00000000000000000D+00  0.00000000000000000D+00
 5  7 -1.13721824310017400D-02 -2.11764707101126500D-04  2.00616786625996800D-03  1.58286618522724900D-06  4.33254868782472600D-05
 5  8  0.00000000000000000D+00 -1.42080387718869800D-03 -1.31617651628574600D-04  0.00000000000000000D+00 -1.23310340133276500D-04
 5  9 -2.56986193450301000D-04  3.80296533583808200D-04  8.26367589458427800D-05  0.00000000000000000D+00  0.00000000000000000D+00
 5 10  5.92787496068949500D-01  2.52280117255685700D-03 -6.15300075277654500D-03 -1.64045081913131500D-04  2.01116948616245200D-05
 5 11  0.00000000000000000D+00  2.32376380374732900D-05 -1.17025800394898500D-03  0.00000000000000000D+00  1.65001903000639200D-04
 5 12  2.62160732904198100D-04 -4.27162635904847000D-04  4.16388015487920600D-05  0.00000000000000000D+00  0.00000000000000000D+00
 5 13 -1.44207433751238600D-01 -6.60638494113032900D-04  2.46694004083957000D-03 -4.13060250205430000D-05  5.79015037098368200D-05
 5 14  0.00000000000000000D+00  9.12669833284334000D-04 -1.70246861600339500D-04  0.00000000000000000D+00 -2.21017078189122900D-04
 5 15 -1.26603198891847700D-04  3.47620277081175000D-04  9.12530180768426000D-05  0.00000000000000000D+00  0.00000000000000000D+00
 5 16  2.81742805045990000D-03 -3.23630359747809800D-06 -8.17837549649367800D-04 -3.52436323094638100D-05  7.10157183906050400D-06
 5 17  0.00000000000000000D+00 -5.36680043816864700D-04  2.15243783881749000D-04  0.00000000000000000D+00  2.77526687485013100D-04
 5 18  6.10683869521641600D-05 -3.38595074437031500D-04  9.77934723063027800D-05  0.00000000000000000D+00  0.00000000000000000D+00
 5 19 -1.21491940199013600D-05 -6.15763958186405900D-04  1.63755732293001100D-03 -3.68117005069088600D-04  1.00157216568979100D-05
 5 20  3.16231567782469400D-04  0.00000000000000000D+00 -1.75383944466287200D-04 -1.35919010201949200D-03  0.00000000000000000D+00
 5 21 -7.35621391308033400D-05  4.58718251804368000D-04  0.00000000000000000D+00  8.91867081524875900D-05 -1.89145582896353100D-04
 5 22  9.99588747438324200D-05 -5.29542991841520800D-06  0.00000000000000000D+00  0.00000000000000000D+00 -2.07966895549967300D-04
 5 23  7.50919357062811000D-04 -5.42952461512797400D-04  4.81455631080149500D-05  0.00000000000000000D+00  0.00000000000000000D+00
 5 24  2.68505539120864200D-05  4.19672546376083500D-04 -1.13552005784208100D-03  3.36818964855616400D-04 -1.81132893792041100D-04
 5 25 -1.09800980545889700D-04  0.00000000000000000D+00  6.89258641330788100D-04  6.44568343633801800D-04  0.00000000000000000D+00
 5 26 -3.26961497196288200D-04 -1.30108182605126600D-04  0.00000000000000000D+00  7.80642364113500700D-05 -1.72253227099572300D-05
 5 27 -6.08389137014043800D-05  9.40739764788656100D-05  0.00000000000000000D+00  0.00000000000000000D+00 -3.17314500954910500D-04
 5 28 -6.40241849751118200D-05  3.81338685930001800D-04 -3.59610879082178400D-04  0.00000000000000000D+00  0.00000000000000000D+00
 5 29  1.95266481731949000D-04  2.34946684559433200D-04 -1.24987973775618100D-04  5.31458182680799200D-05  0.00000000000000000D+00
 5 30 -2.60166239793219800D-04  4.07692045555122500D-04  1.17530106408161200D-06 -3.26776877218948400D-04  0.00000000000000000D+00
 5 31  9.73460916472385200D-05  1.35687096113855400D-05  1.03634174142543800D-04  9.24693669224607000D-05  0.00000000000000000D+00
 5 32 -1.27924808398999400D-04 -4.75095276245545600D-05 -5.36015795596991900D-05  8.12166769656266300D-05  0.00000000000000000D+00
 6  1 -6.49841386811975900D-01 -3.13529360799504500D-03  4.44092912586258600D-03 -2.75379266678387100D-05 -5.79707716098792700D-04
 6  2  0.00000000000000000D+00  8.45326553597776500D-04 -7.36558593061783700D-04  0.00000000000000000D+00 -8.92907374072324000D-06
 6  3 -4.59779522597357500D-04  4.68708596337861700D-04 -8.59295011428514400D-05  0.00000000000000000D+00  0.00000000000000000D+00
 6  4 -2.39925641202239200D-02 -8.09796079139406600D-05  4.74192974328989000D-04  6.78529743408265300D-05 -1.57906306760963200D-05
 6  5  0.00000000000000000D+00  1.14867282210891300D-03 -8.09842715193339300D-04  0.00000000000000000D+00  2.38007368683817900D-04
 6  6 -1.34539052586043600D-04 -1.03468316097756900D-04 -1.91793596130110200D-04  0.00000000000000000D+00  0.00000000000000000D+00
 6  7  1.41733248914814400D-02  4.92480035822148200D-04 -3.30050593339705600D-03 -6.39044910261397100D-05  2.59608390039602800D-05
 6  8  0.00000000000000000D+00  1.42719312526468500D-03 -3.01176104647978900D-04  0.00000000000000000D+00  3.21987945191977100D-05
 6  9  9.28521859585010200D-05 -1.25050980477867800D-04 -7.98663775759987300D-05  0.00000000000000000D+00  0.00000000000000000D+00
 6 10 -7.42222311007681500D-01 -3.03860255506925600D-03  7.41380905877302100D-03  1.95653852096659100D-04  4.39596157550815700D-05
 6 11  0.00000000000000000D+00  1.14690361872002300D-04  1.53754383928280600D-03  0.00000000000000000D+00 -1.05432056085007200D-04
 6 12 -2.67368916817744600D-04  3.72800972902775400D-04 -1.11859113120202000D-04  0.00000000000000000D+00  0.00000000000000000D+00
 6 13 -1.74456116610878600D-01 -4.63183705538758800D-04 -3.45205555396592800D-04  4.18350651116366200D-05  6.85074319311553300D-05
 6 14  0.00000000000000000D+00 -1.21260499310125600D-03  2.46205273930342200D-04  0.00000000000000000D+00  6.93902900332288900D-05
 6 15 -1.83849276236921400D-05 -5.10053624094553300D-05 -2.62642318567855800D-04  0.00000000000000000D+00  0.00000000000000000D+00
 6 16  3.25745395872781500D-03  1.48264577071459600D-04 -6.38625308208034100D-04  4.16871966516948200D-05 -1.49843896952828800D-05
 6 17  0.00000000000000000D+00  8.92913744628036700D-05  5.47450549932894800D-04  0.00000000000000000D+00  2.29955151025092800D-04
 6 18 -7.09113936126159200D-05 -1.59043757412729300D-04  6.86269147367206900D-05  0.00000000000000000D+00  0.00000000000000000D+00
 6 19 -1.04830613993706000D-05 -4.96751142670235400D-04  1.20801700954301200D-03 -6.96608932053063700D-04  1.79824248174673300D-05
 6 20  2.96150744496552100D-04  0.00000000000000000D+00 -6.51820575385275500D-05 -1.15513701578814800D-03  0.00000000000000000D+00
 6 21  5.79739079431779000D-06  6.33864929936995100D-04  0.00000000000000000D+00  1.03802358697096600D-04 -1.95130026550436600D-04
 6 22  9.13276678533288300D-05 -1.59229292221499100D-05  0.00000000000000000D+00  0.00000000000000000D+00 -2.53911729457260300D-04
 6 23  7.09087472327316300D-04 -4.55175742870209700D-04  1.07780350566107400D-05  0.00000000000000000D+00  0.00000000000000000D+00
 6 24 -1.98260363169300600D-06  1.31350579500420000D-04 -4.38451344208371300D-04 -6.91389292845213900D-04 -2.21395336803412500D-05
 6 25 -1.26145531491554800D-05  0.00000000000000000D+00  1.08806919404194600D-04  4.46315761156465800D-04  0.00000000000000000D+00
 6 26  3.00795084666263100D-04  2.81451770453120000D-04  0.00000000000000000D+00  1.11355670291074900D-05  1.05225090832439400D-06
 6 27 -1.21878179375441800D-05 -2.19864374052784400D-05  0.00000000000000000D+00  0.00000000000000000D+00  4.30303909598208300D-05
 6 28 -1.69267508108352400D-04  1.26237117148525200D-04 -8.35148338328404800D-05  0.00000000000000000D+00  0.00000000000000000D+00
 6 29 -1.09831477280866200D-04 -2.51739543899652700D-04  7.83871254608271300D-05 -2.76770166417418400D-05  0.00000000000000000D+00
 6 30  3.11329604284549100D-04 -5.44301893847593200D-04 -1.72736200598809000D-05  3.49412298017796900D-04  0.00000000000000000D+00
 6 31  7.84550159899717800D-05 -5.25349617657754800D-04  8.83825425044953400D-05  1.08592034889931200D-05  0.00000000000000000D+00
 6 32 -7.53583723291913300D-05  5.24533260632519700D-05 -6.28852257097015200D-05  4.69936079251163900D-05  0.00000000000000000D+00
 7  1 -3.47263783297888700D-04 -5.47799268400488300D-04 -2.31457928844489000D-03 -3.77006997890694600D-05 -1.21692013112462100D-04
 7  2  0.00000000000000000D+00  8.84212272915374900D-04 -1.63566771120589400D-03  0.00000000000000000D+00 -1.71681002319528100D-04
 7  3  4.21621195886130400D-04 -2.49940193566596100D-04  1.42868339057636800D-04  0.00000000000000000D+00  0.00000000000000000D+00
 7  4  3.74487837883021400D-04  5.47913381952117200D-04  2.31472801529674200D-03  8.66228613964985800D-05  9.35787136050127300D-05
 7  5  0.00000000000000000D+00  1.85900862201264000D-03  5.25584154989697200D-05  0.00000000000000000D+00 -1.66092712578483500D-04
 7  6 -8.38419639485805400D-05  2.49934676527196300D-04 -3.68097364394242900D-04  0.00000000000000000D+00  0.00000000000000000D+00
 7  7  5.01032703546288500D-01  2.25971240940953700D-03 -5.00430146232431200D-03 -3.30358881123083600D-05  9.59498311683457800D-05
 7  8  0.00000000000000000D+00  4.25322582205269800D-04 -9.54132985183847500D-04  0.00000000000000000D+00  3.06275235644076700D-04
 7  9 -4.40634654487440000D-05 -2.62211770195514800D-04 -2.54584435911271000D-04  0.00000000000000000D+00  0.00000000000000000D+00
 7 10  9.21604302786736500D-03 -1.67738530969349400D-04  1.68887147099271100D-03 -4.50692203939123300D-05 -3.58593692828605400D-06
 7 11  0.00000000000000000D+00  3.29521799611664400D-04  1.17216591240479800D-03  0.00000000000000000D+00  6.34576513592519600D-05
 7 12 -2.31354253146591600D-04  1.67896601787556000D-04 -2.10480635712182400D-05  0.00000000000000000D+00  0.00000000000000000D+00
 7 13 -9.24265122918272800D-03  1.66605635453714200D-04 -1.68956610748629300D-03 -1.98911197853216000D-05  4.15131978161410400D-05
 7 14  0.00000000000000000D+00 -8.50473307454005000D-04 -8.71335862529239900D-04  0.00000000000000000D+00  1.41805107543181000D-04
 7 15  2.60464107670556200D-05 -1.67851518310361100D-04  1.57998676376335200D-04  0.00000000000000000D+00  0.00000000000000000D+00
 7 16 -5.01065058844198800D-01 -2.26002522765736000D-03  5.00473818493677400D-03 -9.96777855160656600D-05 -1.94275986420322400D-05
 7 17  0.00000000000000000D+00  1.03923132836811800D-03  1.08687395720524600D-04  0.00000000000000000D+00 -2.34491203386945000D-04
 7 18 -2.77413722913400800D-05  2.62232575678311100D-04  3.02426689727399700D-04  0.00000000000000000D+00  0.00000000000000000D+00
 7 19 -5.00689870055764000D-01 -1.10655313868334900D-03  3.90330257119002200D-03 -1.28583325708529400D-04  2.12228434564626500D-05
 7 20  9.14945451386975200D-04  0.00000000000000000D+00 -1.96612998672719300D-04 -1.33946426797062900D-03  0.00000000000000000D+00
 7 21 -9.26344614148250400D-05  2.25163184011853500D-04  0.00000000000000000D+00 -4.84586781277586200D-06 -1.46649179076224900D-04
 7 22  1.51495046889170500D-04 -4.82443628682508800D-06  0.00000000000000000D+00  0.00000000000000000D+00 -2.37929910175957100D-04
 7 23  3.21353878607519600D-04 -8.34239684314435500D-05  8.09541636907088300D-05  0.00000000000000000D+00  0.00000000000000000D+00
 7 24  5.00775673415240400D-01  1.10664383143844900D-03 -3.90428048141121900D-03  1.28405199201068700D-04 -7.81915756943589900D-04
 7 25 -4.76056461242698600D-04  0.00000000000000000D+00  1.06189747640153300D-03  8.40248075515148900D-04  0.00000000000000000D+00
 7 26 -2.41272359394782900D-04 -3.23570164859447700D-05  0.00000000000000000D+00  1.07592069900359900D-04  4.39349338245022400D-05
 7 27 -1.51527003724864000D-04  7.33406432876388400D-05  0.00000000000000000D+00  0.00000000000000000D+00 -1.20840174024937000D-04
 7 28  3.73522065705788300D-05  8.34879674543695800D-05 -3.20214475307838300D-04  0.00000000000000000D+00  0.00000000000000000D+00
 7 29 -2.92722371357373300D-04  3.37745223812857500D-04  2.79855437053311800D-04 -1.66793111093692100D-04  0.00000000000000000D+00
 7 30  1.95436900779173700D-04  3.40624051761056700D-04  1.35682479350143600D-05  9.82059098252399700D-05  0.00000000000000000D+00
 7 31 -1.95932095826334100D-04 -3.40700273211802300D-04 -7.83206877777053900D-05 -6.08847769350137000D-05  0.00000000000000000D+00
 7 32  2.92631067239703200D-04 -3.37712787112675800D-04  2.84392727421910100D-04 -1.58933895298099900D-04  0.00000000000000000D+00
 8  1  4.48668122718442600D-04  4.76539657803138600D-04  2.22364822756203400D-03 -4.81919495492955800D-05  3.09850537823556800D-04
 8  2  0.00000000000000000D+00  4.97186221128137900D-04  3.18439889956119800D-03  0.00000000000000000D+00  1.35676271477204400D-04
 8  3  2.56787939089016300D-06 -1.38244150867837400D-04  1.17845916923948900D-04  0.00000000000000000D+00  0.00000000000000000D+00
 8  4  4.29261085452459400D-04  4.76365491525296500D-04  2.22362926202846900D-03  2.92387582667618000D-04  1.13201475860720100D-04
 8  5  0.00000000000000000D+00  2.50840522332841400D-03  2.02288813778419100D-03  0.00000000000000000D+00 -5.25370465313647700D-05
 8  6  1.90775141792999000D-04 -1.38238095261494100D-04 -7.62890243328043500D-06  0.00000000000000000D+00  0.00000000000000000D+00
 8  7 -5.01138463926148400D-01 -2.43126558471322200D-03  5.70167446967072100D-03  8.25495742553105300D-05 -1.78560039711692600D-04
 8  8  0.00000000000000000D+00 -1.87745372592151700D-03  9.23074712132103600D-04  0.00000000000000000D+00 -1.52393603153114000D-04
 8  9 -6.07908280099798800D-05  2.13184431163022000D-04 -1.21395671760219300D-04  0.00000000000000000D+00  0.00000000000000000D+00
 8 10 -9.18217727148381800D-03  9.54591146857810500D-05 -1.78724643139429400D-03  2.61196490272501700D-05 -2.26335488183124000D-05
 8 11  0.00000000000000000D+00 -5.60503828197512000D-04 -5.49637876234228400D-04  0.00000000000000000D+00  1.17457736138640100D-04
 8 12  2.82277566202376300D-05 -1.45685492758809700D-04  5.17717529162867200D-05  0.00000000000000000D+00  0.00000000000000000D+00
 8 13 -9.16708023521984500D-03  9.56171761166896900D-05 -1.78730333090062300D-03 -3.27025853759364300D-05  1.13310687134988200D-05
 8 14  0.00000000000000000D+00 -1.95608815814547800D-04 -7.60224223635161300D-04  0.00000000000000000D+00  1.17298101115304700D-05
 8 15  1.33965541686221700D-04 -1.45695351797683800D-04 -1.87625188131199800D-05  0.00000000000000000D+00  0.00000000000000000D+00
 8 16 -5.01096056152140600D-01 -2.43106912353563100D-03  5.70155394685339500D-03 -1.95897741014736700D-04 -1.78488106239330500D-05
 8 17  0.00000000000000000D+00  1.73828602618125000D-03 -1.16436802674892500D-03  0.00000000000000000D+00  7.38858522319704200D-06
 8 18 -2.20568008725501200D-04  2.13179423502479600D-04 -1.49134577344044400D-05  0.00000000000000000D+00  0.00000000000000000D+00
 8 19  5.00878442062769500D-01  1.26219046116874100D-03 -4.81437378186953600D-03 -1.61222966927292600D-03  8.96944843714931400D-07
 8 20 -8.93589257227701200D-04  0.00000000000000000D+00 -1.99075290083998000D-04  2.10538219263278200D-03  0.00000000000000000D+00
 8 21  3.72262220860433600D-05  7.32555217878756000D-04  0.00000000000000000D+00  3.30829608685561100D-05  1.05997623173029200D-04
 8 22 -1.39080584041657600D-04 -1.31809440712646400D-05  0.00000000000000000D+00  0.00000000000000000D+00  2.22697608351960400D-04
 8 23 -5.52625531160494300D-04  3.29927922808492200D-04  1.15184326459926000D-04  0.00000000000000000D+00  0.00000000000000000D+00
 8 24  5.00802503698127500D-01  1.26197097463757300D-03 -4.81371685121927000D-03 -1.61214478359201000D-03 -7.74175767766820800D-04
 8 25 -4.46037548327628700D-04  0.00000000000000000D+00  1.92252314866568000D-03  8.80304056923647800D-04  0.00000000000000000D+00
 8 26  6.15755001352429800D-04  3.98577652704328100D-04  0.00000000000000000D+00  9.76360673641003700D-05  4.14228898796965800D-05
 8 27 -1.39058957243789000D-04  2.98644098036423800D-05  0.00000000000000000D+00  0.00000000000000000D+00 -4.45089753125619500D-04
 8 28  1.15194524527848400D-04  3.29895228597764800D-04 -3.30068874951459600D-04  0.00000000000000000D+00  0.00000000000000000D+00
 8 29  2.00722956208245700D-04  2.47261867341495200D-04 -1.54224710773964400D-04  1.08621452333755600D-04  0.00000000000000000D+00
 8 30  8.68089373612900000D-07 -1.64561453102032300D-04  7.83548028430062700D-06 -4.38824952070511200D-05  0.00000000000000000D+00
 8 31  9.39156454291998600D-07 -1.64502271355807600D-04 -4.19147292575894200D-05 -1.51656244733034000D-05  0.00000000000000000D+00
 8 32  2.00690203720368100D-04  2.47334069721249700D-04  1.71170610584546300D-04 -7.92184408875240100D-05  0.00000000000000000D+00
 9  1 -3.84253020932508200D-03  6.57596139224507200D-02  5.61002533055839800D-02 -7.42715653917026700D-03 -2.74053437420317600D-02
 9  2  0.00000000000000000D+00 -9.96538565679295900D-03 -7.81205399357964500D-03  0.00000000000000000D+00  2.27469635255551700D-03
 9  3  3.48325959546945500D-03 -5.75795594802503900D-03  7.88604368151610700D-04  0.00000000000000000D+00  0.00000000000000000D+00
 9  4 -3.84257625190544300D-03  6.57593360529729200D-02  5.60991463649532000D-02 -2.00181589989662800D-02 -2.01369843150746400D-02
 9  5  0.00000000000000000D+00 -1.78037145669875100D-03 -1.25357166962137700D-02  0.00000000000000000D+00  2.58948653157565600D-03
 9  6  3.16843094303961200D-03 -5.75791747461524100D-03  9.98497443951954700D-04  0.00000000000000000D+00  0.00000000000000000D+00
 9  7 -6.75277134943705900D-03  8.27877973737646300D-02  3.75480263859020700D-02 -7.35209214113646000D-03  9.86686135073784100D-03
 9  8  0.00000000000000000D+00  6.25239036427787200D-03 -1.34701296322931100D-02  0.00000000000000000D+00  5.53958655839989700D-03
 9  9 -1.24535910622527000D-03 -4.29422745217465300D-03  2.74745116947193500D-03  0.00000000000000000D+00  0.00000000000000000D+00
 9 10 -1.51665636156410000D-02  2.59859130233422300D-01  1.58298322868303800D-01 -1.40448964151778300D-01  4.88651745827600000D-03
 9 11  0.00000000000000000D+00 -5.62463806043269600D-02  5.43505938951350400D-03  0.00000000000000000D+00  1.58914779864863900D-02
 9 12 -2.79278972930845800D-03 -1.30986882571780400D-02 -1.00548046019210400D-02  0.00000000000000000D+00  0.00000000000000000D+00
 9 13 -1.51667221771286100D-02  2.59859008607852700D-01  1.58297796327577200D-01  7.44664957516271300D-02 -1.19182256297544800D-01
 9 14  0.00000000000000000D+00  3.28334527937429500D-02 -4.59929334896881200D-02  0.00000000000000000D+00  9.42136873073960400D-03
 9 15  3.67731551927295200D-03 -1.30986842500128400D-02 -1.43692424846918200D-02  0.00000000000000000D+00  0.00000000000000000D+00
 9 16 -6.75297436052128100D-03  8.27881975575067200D-02  3.75492712560169300D-02  1.22214251878550000D-02 -1.43353103251412500D-03
 9 17  0.00000000000000000D+00 -1.47922325343975300D-02 -1.32275470317393300D-03  0.00000000000000000D+00 -1.60936337730650800D-03
 9 18  5.90350126610289200D-03 -4.29413788879644400D-03 -2.01973952273213400D-03  0.00000000000000000D+00  0.00000000000000000D+00
 9 19 -8.47626480359947800D-04  8.87081236909861000D-02  8.80507928095593500D-02  1.93211245666973600D-03  8.82649350618974500D-04
 9 20  2.31282684587170700D-02  0.00000000000000000D+00  2.91591965965217300D-03  2.22901463248131900D-02  0.00000000000000000D+00
 9 21  6.07290011249663400D-04  5.90630118297973100D-03  0.00000000000000000D+00 -3.68290955933523800D-04  9.13359803024461900D-04
 9 22 -5.45068847090896700D-04  1.03008593245758500D-04  0.00000000000000000D+00  0.00000000000000000D+00  7.43492360187466800D-04
 9 23 -1.46367907009347500D-03  7.20186709905996200D-04 -3.72915034289714000D-04  0.00000000000000000D+00  0.00000000000000000D+00
 9 24 -8.43974762866600800D-04  8.87097001901952000D-02  8.80519837926134600D-02  1.93169911141711400D-03  1.95884403654305700D-02
 9 25  1.23313542172038100D-02  0.00000000000000000D+00  1.78455068999593100D-02  1.36727985975045900D-02  0.00000000000000000D+00
 9 26  4.81128871101142700D-03  3.47965680797307500D-03  0.00000000000000000D+00  5.15535824080787700D-04  2.95112634425777300D-05
 9 27 -5.45047087523336600D-04  6.92344259737155900D-04  0.00000000000000000D+00  0.00000000000000000D+00 -6.32006299041800900D-04
 9 28 -8.81839840841842900D-05  7.20190283125978300D-04 -1.29012415140607200D-03  0.00000000000000000D+00  0.00000000000000000D+00
 9 29  3.98090911713626400D-02  8.29583224477060800D-03 -4.15791767863988100D-03  2.62427932987259100D-03  0.00000000000000000D+00
 9 30  1.33064230960155200D-01  1.58477721030157200D-02 -2.48137307761793300D-03  1.77709297479375300D-02  0.00000000000000000D+00
 9 31  1.33063697549649000D-01  1.58475970136472700D-02  1.66301090521472000D-02  6.73819160384934000D-03  0.00000000000000000D+00
 9 32  3.98082574335371500D-02  8.29570148766815800D-03  4.35187021694980100D-03 -2.28821538934364400D-03  0.00000000000000000D+00
10  1  6.65516121647462800D-03  5.23388640619085500D-02  6.45245212323949400D-02 -1.72304228500639800D-04  6.36754165071734400D-02
10  2  0.00000000000000000D+00  7.23052665349887900D-03  4.11049983608426700D-02  0.00000000000000000D+00  3.99837603161342500D-06
10  3  4.24134619171481200D-04 -4.28132995203048200D-04 -3.63946900384355000D-03  0.00000000000000000D+00  0.00000000000000000D+00
10  4 -6.65657786483088000D-03 -5.23245588277721100D-02 -6.45195837456630200D-02 -5.52349940023160100D-02 -3.16989922861028500D-02
10  5  0.00000000000000000D+00 -3.19839642656231900D-02 -2.68183846093113900D-02  0.00000000000000000D+00 -3.04812744474620800D-03
10  6  2.62132348924817500D-03  4.26803955497973000D-04  1.60960392434710600D-03  0.00000000000000000D+00  0.00000000000000000D+00
10  7 -1.73144366115185400D-04  2.08031815860084900D-02  9.17300279590201600D-03 -2.14504095260347800D-02  2.27437674278712500D-03
10  8  0.00000000000000000D+00 -1.91874449463331800D-03  6.02677966981632400D-03  0.00000000000000000D+00  1.63973097927499800D-03
10  9 -1.60028914572628800D-03 -3.94418335487495100D-05 -8.76578240490008500D-04  0.00000000000000000D+00  0.00000000000000000D+00
10 10 -3.42142351357534700D-04 -6.54350172156781000D-04  2.31149668711066900D-03  1.41985673739967900D-02  2.79398812055464800D-02
10 11  0.00000000000000000D+00  6.09827415401083500D-03  1.27294815128019900D-02  0.00000000000000000D+00  2.05872107721703400D-03
10 12 -1.55197545032586300D-03 -5.06745626891304900D-04  2.43040447220129600D-03  0.00000000000000000D+00  0.00000000000000000D+00
10 13  3.42929287772484800D-04  6.38913499526924300D-04 -2.32364583426058500D-03 -1.71099298212599300D-02 -2.62425540568204400D-02
10 14  0.00000000000000000D+00 -7.98168450679070800D-03 -1.16393978753141300D-02  0.00000000000000000D+00  2.47033890960383200D-03
10 15 -2.97781874539816400D-03  5.07479835794338000D-04  5.92707351079931600D-04  0.00000000000000000D+00  0.00000000000000000D+00
10 16  1.72274635309029800D-04 -2.07840252628025200D-02 -9.15765367291170500D-03 -1.26945011976740800D-02  1.74350507614506900D-02
10 17  0.00000000000000000D+00 -6.17495350886069300D-03 -1.35364369909494700D-03  0.00000000000000000D+00  1.33125440923172200D-04
10 18 -1.71916768708582100D-04  3.87913277855079500D-05  2.05983231965993500D-03  0.00000000000000000D+00  0.00000000000000000D+00
10 19  3.19727828647615100D-03 -2.96933544790830200D-01 -3.86440276807526900D-01 -6.23595920370857600D-02 -1.68280331532236000D-02
10 20 -2.36875563980472100D-01  0.00000000000000000D+00 -1.00764967839266300D-02 -1.32915273656071900D-01  0.00000000000000000D+00
10 21 -3.58251048499144600D-03 -3.51822133041094000D-03  0.00000000000000000D+00 -4.11795482410646400D-03  6.81148516686888300D-03
10 22 -2.69353034276247500D-03  4.89663247763656700D-04  0.00000000000000000D+00  0.00000000000000000D+00 -2.07363628109373400D-03
10 23  4.54376017690218200D-03 -2.47012389580856500D-03  3.28268529717432100D-04  0.00000000000000000D+00  0.00000000000000000D+00
10 24 -3.19779204515910800D-03  2.96964948595915400D-01  3.86478044228132500D-01  6.23630049038850600D-02  1.96725468004371500D-01
10 25  1.33040272044092000D-01  0.00000000000000000D+00  1.10070312049790500D-01  7.52006632429959900D-02  0.00000000000000000D+00
10 26  1.25633102244820800D-03  4.86232063914855400D-03  0.00000000000000000D+00 -3.71087724259828200D-03  1.01734781091300500D-03
10 27  2.69352943168524500D-03 -5.71024551393829400D-03  0.00000000000000000D+00  0.00000000000000000D+00 -2.64286963860874500D-03
10 28  1.72458131454500000D-04  2.47041150715423700D-03 -3.47344243248319400D-03  0.00000000000000000D+00  0.00000000000000000D+00
10 29 -1.31315636272201000D-03 -2.59344783833029700D-03 -4.56330651761973500D-04 -1.05258334690885800D-04  0.00000000000000000D+00
10 30 -2.42215303783762200D-02 -6.58688697105149200D-03  3.26977746720563600D-04 -1.81924223578850300D-03  0.00000000000000000D+00
10 31  2.42139558528190000D-02  6.58651550531714300D-03  1.73765791398234500D-03  6.26577803037919700D-04  0.00000000000000000D+00
10 32  1.32011977658138100D-03  2.59389459500424900D-03 -1.35985117296296200D-04  4.47250059369017700D-04  0.00000000000000000D+00
11  1  8.46373423012310700D-03 -1.29171109609340000D-01 -5.48155948774412200D-02  2.71194263485751800D-03  5.15749359951429200D-02
11  2  0.00000000000000000D+00 -7.44493263937900900D-03  2.66320590659451700D-02  0.00000000000000000D+00 -1.19928365151379300D-03
11  3 -9.85784895251893100D-03  1.10571326040326000D-02 -7.05269197931262600D-04  0.00000000000000000D+00  0.00000000000000000D+00
11  4  8.46288959435734900D-03 -1.29179044285696600D-01 -5.48247438919545100D-02  4.32980598219160000D-02  2.81359521126391400D-02
11  5  0.00000000000000000D+00  2.67789118677493000D-02  6.86823057760596100D-03  0.00000000000000000D+00 -7.16379144784606700D-03
11  6 -3.89343091502033600D-03  1.10572223628664100D-02 -4.68225299315552500D-03  0.00000000000000000D+00  0.00000000000000000D+00
11  7  7.64208067652404600D-03 -1.55338937832812200D-01 -1.13424310634385800D-01  3.53116952573270200D-02 -2.98266348808460500D-03
11  8  0.00000000000000000D+00  2.30511238330393700D-02 -1.46116627271860600D-02  0.00000000000000000D+00  6.75426585276287500D-03
11  9 -1.19633109905898300D-02  5.20904513782700100D-03 -4.43729579368707300D-03  0.00000000000000000D+00  0.00000000000000000D+00
11 10 -3.61338230566100100D-03  8.86278416699481400D-02  7.62749196782113900D-02 -2.25387507757110000D-01  8.42086941230222600D-03
11 11  0.00000000000000000D+00 -7.70297390312267700D-02  2.50561538391439200D-02  0.00000000000000000D+00  7.82060820891628900D-03
11 12 -3.21308584062349400D-03 -4.60752236829279100D-03 -1.73721927864003000D-02  0.00000000000000000D+00  0.00000000000000000D+00
11 13 -3.61405620187933300D-03  8.86383710438164600D-02  7.62889414839431900D-02  1.19993847453045200D-01 -1.90973924422473700D-01
11 14  0.00000000000000000D+00  6.02188406506750100D-02 -5.41762820653641900D-02  0.00000000000000000D+00  1.25768422589509100D-02
11 15 -7.96897063246356600D-03 -4.60787162648762400D-03 -1.41999942405865100D-02  0.00000000000000000D+00  0.00000000000000000D+00
11 16  7.64188657256479100D-03 -1.55336740769960400D-01 -1.13423559822393900D-01 -2.02442447165328600D-02  2.90844014998502100D-02
11 17  0.00000000000000000D+00 -2.41823140635332900D-02  1.26507572753628200D-02  0.00000000000000000D+00 -3.95397546748188200D-03
11 18 -1.25488921858722400D-03  5.20886468606921200D-03 -1.15773018790214900D-02  0.00000000000000000D+00  0.00000000000000000D+00
11 19  3.43484976372684200D-03 -1.87382388353920500D-01 -2.07873415995802200D-01 -1.16230450201800500D-02 -5.10135014959258100D-03
11 20 -4.69241981401904200D-02  0.00000000000000000D+00 -1.71533571264336700D-03 -3.82109457102436200D-02  0.00000000000000000D+00
11 21  5.96813402189437900D-04 -9.23973244491643800D-03  0.00000000000000000D+00  7.69566458592937600D-04 -1.99277950537993500D-03
11 22  1.22321304678688800D-03  1.79917615450195100D-04  0.00000000000000000D+00  0.00000000000000000D+00 -4.93588131647505900D-04
11 23  2.70652056481288800D-03 -2.21293243316533800D-03 -2.17798445476917500D-04  0.00000000000000000D+00  0.00000000000000000D+00
11 24  3.43551449515521200D-03 -1.87339534950680200D-01 -2.07816603184638100D-01 -1.16131579563925800D-02 -3.80559186746076800D-02
11 25 -2.78648950444506000D-02  0.00000000000000000D+00 -3.22166569260775200D-02 -2.05840215514746000D-02  0.00000000000000000D+00
11 26 -8.29999830591279800D-03 -4.10313188243645700D-03  0.00000000000000000D+00 -1.43743551931832200D-03  2.13834366724178200D-04
11 27  1.22360115259405300D-03 -1.29224711759382400D-03  0.00000000000000000D+00  0.00000000000000000D+00  2.06924313666166600D-03
11 28  1.43397634498191400D-04 -2.21264077115982500D-03  1.49098269740628800D-03  0.00000000000000000D+00  0.00000000000000000D+00
11 29 -5.27809317342868600D-02 -2.48312549805934000D-03  8.17416835585383200D-03 -4.97497677354973600D-03  0.00000000000000000D+00
11 30  3.76729412582108900D-02  1.60759324229759300D-04 -4.69230815567352600D-03  6.11458268793380100D-03  0.00000000000000000D+00
11 31  3.76877822728155900D-02  1.65133703410444100D-04  7.64269162033861600D-03 -1.00492270298986600D-03  0.00000000000000000D+00
11 32 -5.27797273300310900D-02 -2.48298641553108500D-03 -8.39589186857095700D-03  4.59055840423083900D-03  0.00000000000000000D+00
12  1 -1.53073996564484200D-03  1.35286572456088800D-02  1.79825198865250800D-02 -3.10524188508567900D-03  2.64240386979215800D-03
12  2  0.00000000000000000D+00 -1.43421409933988700D-03 -2.25849012645855700D-03  0.00000000000000000D+00 -3.72861843050339500D-03
12  3  5.84043750166378100D-03 -2.11181907116035600D-03  5.87329459482071200D-03  0.00000000000000000D+00  0.00000000000000000D+00
12  4  1.53034943609429700D-03 -1.35234335659502400D-02 -1.79794541724646300D-02 -3.84191203191270600D-03  1.36720822013274400D-03
12  5  0.00000000000000000D+00  1.23760789284042000D-03  2.37087926055902400D-03  0.00000000000000000D+00  9.58398819926070500D-04
12  6 -3.06963167740406300D-03  2.11123285747801800D-03 -7.72041367290072600D-03  0.00000000000000000D+00  0.00000000000000000D+00
12  7  1.05385404177610100D-02 -1.27230916522432900D-01 -4.74069230804567000D-02  1.10557195665795900D-01  7.20004574772767900D-02
12  8  0.00000000000000000D+00  2.69429950460508900D-02  2.05056840555305900D-02  0.00000000000000000D+00 -4.71767506562665000D-03
12  9 -1.16474169011754900D-03  5.88241675574417400D-03 -1.62736491321875200D-02  0.00000000000000000D+00  0.00000000000000000D+00
12 10  1.37482967534914200D-02 -2.40256280429471600D-01 -2.09387945077847400D-01 -1.17001808867210000D-01  8.23675654880188700D-02
12 11  0.00000000000000000D+00 -2.89167501832681000D-02  4.54011233277769600D-04  0.00000000000000000D+00  2.68515402757605700D-03
12 12 -6.74674468109568100D-03  4.06159065351953100D-03 -1.60837667148436900D-02  0.00000000000000000D+00  0.00000000000000000D+00
12 13 -1.37486853069990800D-02  2.40253249024083000D-01  2.09384947449450700D-01 -1.29843364900913100D-01  6.01452794560369900D-02
12 14  0.00000000000000000D+00 -1.48565546540689100D-02  2.48166471240302200D-02  0.00000000000000000D+00 -7.67688259639203900D-03
12 15  1.17383646578510000D-02 -4.06148206145906300D-03  1.27559701096588500D-02  0.00000000000000000D+00  0.00000000000000000D+00
12 16 -1.05395667366498100D-02  1.27244201851554800D-01  4.74119870065567800D-02 -7.06335340128946200D-03 -1.31752424961532900D-01
12 17  0.00000000000000000D+00 -4.28388175303704300D-03 -3.35865483790176300D-02  0.00000000000000000D+00 -1.01536700319308100D-02
12 18  1.60363704764535000D-02 -5.88270044452261200D-03  6.35764992841601200D-03  0.00000000000000000D+00  0.00000000000000000D+00
12 19 -2.50381462513704000D-04  6.98410304397960100D-03  3.04526743998348200D-03 -3.77840090188364600D-03 -7.88569531165042600D-04
12 20 -1.27993672241766200D-02  0.00000000000000000D+00 -2.38899389072338500D-03 -4.10869311858687100D-03  0.00000000000000000D+00
12 21 -3.27215598855313900D-03  5.34136647344403100D-04  0.00000000000000000D+00 -3.53243502779852900D-04  6.67321408767270700D-04
12 22 -3.14077905987467900D-04  2.57672405012824400D-04  0.00000000000000000D+00  0.00000000000000000D+00  5.70175607014058000D-04
12 23 -1.15611464369036900D-03  5.85939036676323700D-04  1.22621322515909200D-03  0.00000000000000000D+00  0.00000000000000000D+00
12 24  2.49889655706561300D-04 -6.97977777031038400D-03 -3.04077151959265300D-03  3.77823194225927500D-03  1.06886886142135200D-02
12 25  7.08338855210843800D-03  0.00000000000000000D+00  2.36309555545795700D-03  4.12360960678871500D-03  0.00000000000000000D+00
12 26 -2.09869592191528000D-03  2.56675163936474100D-03  0.00000000000000000D+00 -2.18714967608880100D-04 -9.52795121975539400D-05
12 27  3.13994479806303600D-04 -6.39020321327311800D-04  0.00000000000000000D+00  0.00000000000000000D+00  1.64411418440526900D-03
12 28 -1.05827721952896100D-03 -5.85836964876306800D-04  2.50309823481291500D-04  0.00000000000000000D+00  0.00000000000000000D+00
12 29 -1.38138134955173200D-02  1.22874603444251600D-02  6.27246302520062400D-03 -1.58471483306117900D-03  0.00000000000000000D+00
12 30 -1.96459656993598500D-01 -4.85145898697019500D-02 -2.95887486822165600D-03 -2.05100844426096900D-02  0.00000000000000000D+00
12 31  1.96454131780320300D-01  4.85141049571995600D-02  1.62810990861303400D-02  1.28190042853829900D-02  0.00000000000000000D+00
12 32  1.38191233551097100D-02 -1.22873268940365600D-02  4.50997207697045500D-03 -4.63986127334120300D-03  0.00000000000000000D+00
13  1 -2.27121655165019400D-03 -1.34798919123605500D-01 -9.16177399148596800D-02 -5.80450017716609100D-03 -1.01636397964926300D-01
13  2  0.00000000000000000D+00  5.52549775928275000D-04 -3.61669280855709800D-02  0.00000000000000000D+00 -3.51185864532548800D-04
13  3 -7.49900578603022700D-03  7.85019165056265500D-03 -8.37515217641700800D-05  0.00000000000000000D+00  0.00000000000000000D+00
13  4 -2.27120185101117900D-03 -1.34798445190124200D-01 -9.16150629525069000D-02 -8.51105852117103500D-02 -5.58527115396393700D-02
13  5  0.00000000000000000D+00 -3.15960645357049200D-02 -1.76069102685994600D-02  0.00000000000000000D+00 -5.64841278307914900D-03
13  6 -2.20178914569834700D-03  7.85020192877755200D-03 -3.61624304954497200D-03  0.00000000000000000D+00  0.00000000000000000D+00
13  7  5.69240196608411600D-03 -1.03103937058378800D-01 -7.03841556931865500D-02  3.65394842100573300D-02  4.27450647748704800D-02
13  8  0.00000000000000000D+00  2.30535497932805700D-02  1.83518258791734200D-02  0.00000000000000000D+00  1.79298546178480400D-03
13  9 -4.64113570446199000D-03  2.84815024267716800D-03 -1.00218898781558300D-02  0.00000000000000000D+00  0.00000000000000000D+00
13 10  2.58225288382013900D-03 -3.56127070056627800D-02 -8.75524442780230500D-03 -1.38587803960584100D-01  3.38117325001063100D-02
13 11  0.00000000000000000D+00 -4.45484713134404100D-02  2.33883056148944500D-02  0.00000000000000000D+00  2.94543203926103200D-04
13 12 -4.98030236327821900D-04  2.03487032401652100D-04 -8.57005987864981200D-03  0.00000000000000000D+00  0.00000000000000000D+00
13 13  2.58197922607626700D-03 -3.56090006160377100D-02 -8.74681960734715100D-03  9.85828670396014200D-02 -1.03106112009052700D-01
13 14  0.00000000000000000D+00  4.25334906207117200D-02 -2.68791223249927000D-02  0.00000000000000000D+00  6.12837901529411100D-03
13 15 -6.33159455776547700D-03  2.03215542471318800D-04 -4.67946993125944700D-03  0.00000000000000000D+00  0.00000000000000000D+00
13 16  5.69248936942875300D-03 -1.03102284340531700D-01 -7.03846679070819900D-02  1.87444442009919000D-02  5.30175845132124700D-02
13 17  0.00000000000000000D+00  4.36356104062827300D-03  2.91404339153419300D-02  0.00000000000000000D+00  4.48542223602020200D-03
13 18 -7.33349525734452500D-03  2.84807302132413900D-03 -8.22651054807291500D-03  0.00000000000000000D+00  0.00000000000000000D+00
13 19 -1.08414245716762800D-03  1.93557954241525600D-01  2.88710578651908100D-01  5.45189127951556200D-02  1.70214401064554200D-02
13 20  2.77035472722479300D-01  0.00000000000000000D+00  1.30954524340863300D-02  1.45990415607835300D-01  0.00000000000000000D+00
13 21  1.23797949491714600D-03  3.26896349288980200D-03  0.00000000000000000D+00  6.39284929411132500D-03 -1.17389260469375000D-02
13 22  5.34607675282624100D-03 -4.37419781362826800D-04  0.00000000000000000D+00  0.00000000000000000D+00  4.00395306540612300D-03
13 23 -4.20883695061040300D-03  2.04883885204381500D-04 -2.42220428394974500D-03  0.00000000000000000D+00  0.00000000000000000D+00
13 24 -1.08398818157156800D-03  1.93548152691478600D-01  2.88700540124716700D-01  5.45182864316736500D-02  2.31389631166791400D-01
13 25  1.53279863871025300D-01  0.00000000000000000D+00  1.19871913469631500D-01  8.43462431227358200D-02  0.00000000000000000D+00
13 26  2.21136884348762500D-03  2.70664592769837000D-03  0.00000000000000000D+00 -6.87626176117612300D-03  1.53016723235453100D-03
13 27  5.34609452882163100D-03 -9.28559588695714700D-03  0.00000000000000000D+00  0.00000000000000000D+00 -3.37832202371332100D-04
13 28  1.33127208999410900D-04  2.04704993371898600D-04 -5.31727354189370300D-03  0.00000000000000000D+00  0.00000000000000000D+00
13 29 -3.54531517340777600D-02  4.45544237837870200D-03  6.45559095353833900D-03 -3.02926846581830800D-03  0.00000000000000000D+00
13 30 -4.40355262496890500D-02 -8.72124697037164600D-03 -3.27617620351260300D-03 -4.18895207684621400D-03  0.00000000000000000D+00
13 31 -4.40309161664894900D-02 -8.71935595072771000D-03 -1.98892963977321400D-03 -4.93173957470829300D-03  0.00000000000000000D+00
13 32 -3.54534588056562600D-02  4.45522935533673400D-03 -5.85172468939072200D-03  4.07544082716277000D-03  0.00000000000000000D+00
14  1 -4.92792444504131600D-03  1.83008835110392000D-01  1.24654873669705400D-01 -1.09602732102735300D-02  1.65974297251899700D-02
14  2  0.00000000000000000D+00 -1.28622938692811400D-02 -2.03640810397084800D-02  0.00000000000000000D+00  7.90529296008160900D-03
14  3  2.34686196034423900D-03 -1.02521549204258900D-02 -8.01355133406340300D-03  0.00000000000000000D+00  0.00000000000000000D+00
14  4 -4.92803742013220500D-03  1.83007131668168000D-01  1.24654020793390600D-01  1.98535682144407000D-02 -1.19148372401022300D-03
14  5  0.00000000000000000D+00 -1.12024954393959700D-02 -2.13238670366702500D-02  0.00000000000000000D+00  9.74774522781349900D-03
14  6  5.04621704221662800D-04 -1.02523669320351500D-02 -6.78542542893021900D-03  0.00000000000000000D+00  0.00000000000000000D+00
14  7  3.08919079690563100D-03 -3.66563713325206200D-02 -3.75122841838590200D-02  1.96597261476554000D-01  1.34089061229678800D-01
14  8  0.00000000000000000D+00  7.81019171574895100D-02  2.30111610911330800D-02  0.00000000000000000D+00 -7.64999930894668700D-03
14  9  7.43669815860892500D-03  2.13301150337605200D-04 -1.61171948356181900D-02  0.00000000000000000D+00  0.00000000000000000D+00
14 10  7.83646292871934000D-03 -8.63106401373583100D-02 -4.02807346054162000D-02 -2.60920011858279800D-01  4.47258343041510500D-02
14 11  0.00000000000000000D+00 -9.41198232822970400D-02  2.30790089125767600D-02  0.00000000000000000D+00  1.50807495428075000D-03
14 12 -4.07323957839464700D-03  2.56516462411381200D-03 -1.29544883722027600D-02  0.00000000000000000D+00  0.00000000000000000D+00
14 13  7.83660308427348700D-03 -8.63086277045234900D-02 -4.02719046024031700D-02  1.69208838093097400D-01 -2.03590294727609800D-01
14 14  0.00000000000000000D+00  6.70547242893318600D-02 -6.99617687103355300D-02  0.00000000000000000D+00  7.04000481359348700D-03
14 15 -9.60511802412727200D-03  2.56511321053367700D-03 -9.26505800411529800D-03  0.00000000000000000D+00  0.00000000000000000D+00
14 16  3.08986037586682000D-03 -3.66632984445402100D-02 -3.75149701322596100D-02  1.78041300654640200D-02  2.37305613470137300D-01
14 17  0.00000000000000000D+00 -1.91307410935072700D-02  7.91414798745360100D-02  0.00000000000000000D+00  1.57529390866605000D-02
14 18 -1.59662267036785000D-02  2.13287617017854300D-04 -5.10563717364212400D-04  0.00000000000000000D+00  0.00000000000000000D+00
14 19 -2.56986242079464400D-03  2.02216799188736900D-02 -1.55633324611463000D-02 -1.82060081848458600D-02 -9.50564412967924700D-03
14 20 -1.17824386654949600D-01  0.00000000000000000D+00  8.37061250686658100D-04 -5.38780437815139800D-02  0.00000000000000000D+00
14 21  3.24144785747779400D-03  3.82963403191522900D-03  0.00000000000000000D+00 -4.18202065434632100D-03  8.24448961766465300D-03
14 22 -4.06246896331844700D-03  2.46623072318066500D-04  0.00000000000000000D+00  0.00000000000000000D+00 -2.47128399995790700D-03
14 23  2.43164089338718200D-03  3.96431065707771700D-05 -1.45610562005215100D-03  0.00000000000000000D+00  0.00000000000000000D+00
14 24 -2.56967918237921900D-03  2.02205112811173100D-02 -1.55654040958752700D-02 -1.82065613004962400D-02 -9.72785608386906900D-02
14 25 -6.71539242619195000D-02  0.00000000000000000D+00 -4.70746253054571800D-02 -2.62179484747693500D-02  0.00000000000000000D+00
14 26  1.69552655294192800D-03  4.72247306571502500D-03  0.00000000000000000D+00  4.95175706835469800D-03 -8.89291490112293200D-04
14 27 -4.06246557824237000D-03  6.33724058187421400D-03  0.00000000000000000D+00  0.00000000000000000D+00  2.29745223284411900D-03
14 28 -2.33727897269265700D-03  3.98267398485554300D-05  1.72372423212093300D-03  0.00000000000000000D+00  0.00000000000000000D+00
14 29  7.61063506629981200D-02  3.52940570055902300D-02 -6.59035253294795800D-04  5.50965347674217900D-03  0.00000000000000000D+00
14 30 -8.55631486326545600D-02 -2.82797680567004400D-02 -5.73456673306744400D-03 -8.40808637746982700D-03  0.00000000000000000D+00
14 31 -8.55562527667198300D-02 -2.82773376740584700D-02 -4.41318917330010000D-03 -9.17065337692184900D-03  0.00000000000000000D+00
14 32  7.60999024578809100D-02  3.52928465138043800D-02  5.10017897540782100D-03  2.18508335618159500D-03  0.00000000000000000D+00
15  1 -5.45485000761759400D-04 -1.58768059064004200D-02 -6.01862410551308700D-02 -8.21138667118931700D-03  1.92919429883563000D-02
15  2  0.00000000000000000D+00 -6.84202528672980100D-02  2.71440253940906500D-02  0.00000000000000000D+00  1.10118745035750500D-02
15  3 -1.14142434674110900D-02  4.02368963835971800D-04 -8.28821334735053100D-03  0.00000000000000000D+00  0.00000000000000000D+00
15  4  5.45582217984410700D-04  1.58713980244371200D-02  6.01868831753921300D-02 -2.08165986860098100D-02 -2.54141989948426900D-03
15  5  0.00000000000000000D+00 -5.77223856033377400D-02  4.56736876770476000D-02  0.00000000000000000D+00 -4.12199897646363100D-04
15  6  8.13751464853230400D-04 -4.01551567206904800D-04  1.53549612903454200D-02  0.00000000000000000D+00  0.00000000000000000D+00
15  7  2.38595965895416400D-03 -2.56777767977590600D-02 -2.84554495126080700D-02 -3.00836875758675200D-01  4.74950005006969200D-02
15  8  0.00000000000000000D+00 -8.40281422433415100D-02  4.05787346255595600D-02  0.00000000000000000D+00  3.77125045115476500D-03
15  9 -3.37344695830460700D-03 -3.97803492850061800D-04  1.11087652104477200D-02  0.00000000000000000D+00  0.00000000000000000D+00
15 10 -9.06424773252690600D-04  5.05997422984308900D-02  8.00618564505550100D-02  1.15114647818606600D-01  1.70268916478009300D-01
15 11  0.00000000000000000D+00  3.93678346283723200D-02  8.73035900766411100D-02  0.00000000000000000D+00  6.74161954350576800D-03
15 12 -6.77229806980691400D-03  3.06785263011036600D-05  1.69117740948172100D-02  0.00000000000000000D+00  0.00000000000000000D+00
15 13  9.06828493453031500D-04 -5.06117928231094200D-02 -8.00708848392305500D-02 -8.99154305309475300D-02 -1.84855810353774000D-01
15 14  0.00000000000000000D+00 -5.59287320965348700D-02 -7.77599102879642400D-02  0.00000000000000000D+00  1.60772949214946000D-02
15 15 -1.60471934768099700D-02 -3.01014446845985900D-05 -1.69528098706541900D-03  0.00000000000000000D+00  0.00000000000000000D+00
15 16 -2.38614252648353400D-03  2.56806469124420100D-02  2.84708375611859000D-02 -1.91598701829729100D-01  2.36789529951640800D-01
15 17  0.00000000000000000D+00 -7.71701760513527900D-02  5.24753649304012900D-02  0.00000000000000000D+00  9.92072923863890900D-03
15 18 -1.03185579574477700D-02  3.97828718808775800D-04 -1.97819499322123700D-03  0.00000000000000000D+00  0.00000000000000000D+00
15 19  2.11510354057312800D-04  1.90579081201581700D-02  1.74800636730813200D-02 -3.37695475231976900D-03 -5.23629586585234100D-03
15 20  1.60254564000647600D-02  0.00000000000000000D+00  1.09866495439214100D-02  7.88175144799659100D-03  0.00000000000000000D+00
15 21  4.10465900862517200D-03  3.66586088224347500D-03  0.00000000000000000D+00  3.51818887158183100D-04 -1.97871433764181100D-04
15 22 -1.53947453394056200D-04  2.05951948553339300D-04  0.00000000000000000D+00  0.00000000000000000D+00 -1.31434641649521800D-03
15 23  2.47911184019288400D-03 -1.16476542369775800D-03 -3.05589381830906800D-03  0.00000000000000000D+00  0.00000000000000000D+00
15 24 -2.11250156105797100D-04 -1.90596288365557400D-02 -1.74806324853413000D-02  3.37922164496369200D-03 -1.64875300670386000D-02
15 25 -3.47336289093618600D-03  0.00000000000000000D+00 -1.32687875547871500D-03 -1.34515472446212200D-02  0.00000000000000000D+00
15 26 -1.12222837421161500D-03 -5.38801211297786800D-03  0.00000000000000000D+00  2.14538560208566000D-04 -3.68778234429008400D-04
15 27  1.54239674220539300D-04  1.71489919523359400D-04  0.00000000000000000D+00  0.00000000000000000D+00 -3.82219016603530400D-03
15 28  2.65768660836919600D-03  1.16450355766612700D-03 -3.69660699237825700D-04  0.00000000000000000D+00  0.00000000000000000D+00
15 29 -2.48487165455694700D-01 -7.60134361692050600D-02  1.48833372460078000D-02 -1.22266887285634700D-02  0.00000000000000000D+00
15 30 -1.22397978704134200D-01 -4.40640811093163900D-02  4.58468814310850800D-03 -7.20753760416898800D-03  0.00000000000000000D+00
15 31  1.22421146806170900D-01  4.40705503460781000D-02  8.53551462583468700D-03 -3.64935340779410200D-04  0.00000000000000000D+00
15 32  2.48512570173066300D-01  7.60206084450228300D-02  1.80330164162843700D-02 -6.77458089597312300D-03  0.00000000000000000D+00
16  1 -3.93882143849530300D-04  6.43281868296341800D-02 -2.61834698560980300D-03  1.51671612702439500D-02  5.19749302388962800D-02
16  2  0.00000000000000000D+00  1.72418240907101100D-02  2.41719102563300200D-03  0.00000000000000000D+00 -1.09833530054891000D-02
16  3  1.63129539168872500D-02 -5.32960091139823800D-03  1.60619944787046900D-03  0.00000000000000000D+00  0.00000000000000000D+00
16  4 -3.93907616242038900D-04  6.43370746120906200D-02 -2.60501569555584400D-03  3.74276956976196300D-02  3.91300790110420000D-02
16  5  0.00000000000000000D+00 -6.53917371594482000D-03  1.61466069342299900D-02  0.00000000000000000D+00  8.28248922550692800D-03
16  6 -2.95257813107554600D-03 -5.32991109443141400D-03  1.44560423966272900D-02  0.00000000000000000D+00  0.00000000000000000D+00
16  7  4.47316023760038800D-03 -4.74034411742097100D-02 -8.15219790814657000D-02 -2.24458144448158800D-01  5.22718968857876900D-02
16  8  0.00000000000000000D+00 -4.69756412328098300D-02  3.77830186505074800D-02  0.00000000000000000D+00  5.86896622484814500D-03
16  9 -5.33945444005927900D-03 -5.29511784788955000D-04  6.95878969513533600D-03  0.00000000000000000D+00  0.00000000000000000D+00
16 10 -6.99875929734315300D-04  6.39536213678645500D-02  6.28174588897612700D-02  7.99385851804454400D-03  2.32976287937140000D-01
16 11  0.00000000000000000D+00  2.25944971192594500D-02  9.47953277916941700D-02  0.00000000000000000D+00  7.08894151473440000D-05
16 12  3.78583464435748400D-03 -3.85672405950483400D-03 -4.48248165000951000D-03  0.00000000000000000D+00  0.00000000000000000D+00
16 13 -7.00071666097963300D-04  6.39471830936095600D-02  6.28033194476723800D-02  1.97744124910859900D-01  1.23405118640452700D-01
16 14  0.00000000000000000D+00  7.07837763356608900D-02  6.69620146315754000D-02  0.00000000000000000D+00  6.22048695806985700D-03
16 15 -2.36384043759508700D-03 -3.85664652047477700D-03 -3.83335244507118800D-04  0.00000000000000000D+00  0.00000000000000000D+00
16 16  4.47244425224592800D-03 -4.73939036360970500D-02 -8.15173860412542200D-02  1.57487240524992800D-01 -1.68198675774452100D-01
16 17  0.00000000000000000D+00  5.62008324718956800D-02 -2.17767830412685700D-02  0.00000000000000000D+00 -7.75465264560202500D-03
16 18  8.28398499692071700D-03 -5.29332351318682900D-04 -2.12821936729116100D-03  0.00000000000000000D+00  0.00000000000000000D+00
16 19 -2.28401151502119400D-03  3.44303012768117900D-02  2.70968520549849800D-02 -1.31373952179146900D-02 -8.29545675274378400D-03
16 20 -9.23108261792814600D-02  0.00000000000000000D+00 -1.27072451543154100D-02 -4.82035377716805400D-02  0.00000000000000000D+00
16 21 -1.05866161974514600D-03  2.09467980034292200D-03  0.00000000000000000D+00 -2.89926185582806100D-03  5.88951989616075300D-03
16 22 -2.99025804033265300D-03  2.73882104627117400D-04  0.00000000000000000D+00  0.00000000000000000D+00 -1.64094308029830100D-03
16 23 -8.09778038559330800D-04  2.45072111885766200D-03  1.58586976138554800D-03  0.00000000000000000D+00  0.00000000000000000D+00
16 24 -2.28430498548442100D-03  3.44338564343521400D-02  2.70984289194013500D-02 -1.31377941883015600D-02 -7.58003274950161500D-02
16 25 -5.33525762285224500D-02  0.00000000000000000D+00 -3.53911622754789700D-02 -3.51140644571280000D-02  0.00000000000000000D+00
16 26  2.34334344326826000D-03  1.29912981550536400D-04  0.00000000000000000D+00  3.48657286993773800D-03 -4.95974055843601100D-04
16 27 -2.99059881409413500D-03  4.53240087053500000D-03  0.00000000000000000D+00  0.00000000000000000D+00 -2.20786151222965300D-03
16 28 -2.43273825122527600D-04  2.45113533735219000D-03  1.20796376890171900D-03  0.00000000000000000D+00  0.00000000000000000D+00
16 29 -1.98951215963977500D-01 -5.22886400450260100D-02  1.29379648888411000D-02 -1.06041424473372200D-02  0.00000000000000000D+00
16 30 -1.44071480546738300D-01 -3.45664172439541100D-02 -3.28235228376168500D-04 -1.06420789929928700D-02  0.00000000000000000D+00
16 31 -1.44055779372307300D-01 -3.45615411030332100D-02 -9.05041757651882000D-03 -5.60616189259614600D-03  0.00000000000000000D+00
16 32 -1.98909472899699300D-01 -5.22763685437963300D-02 -1.56500302634990100D-02  5.89954192152692900D-03  0.00000000000000000D+00
17  1  6.08691537134408200D-03 -1.94692819838555900D-01 -1.61598518147314700D-01  1.00653315613358700D-02 -2.19926892630492600D-01
17  2  0.00000000000000000D+00 -8.12233034569358200D-03  3.43264425604147000D-02  0.00000000000000000D+00  2.89052425637422400D-02
17  3 -4.13843405743728600D-02  1.24790980106306300D-02  6.16961238010611900D-04  0.00000000000000000D+00  0.00000000000000000D+00
17  4 -6.08679082662322600D-03  1.94693470756004400D-01  1.61597082208653600D-01  1.95494065840269800D-01  1.01271624058562600D-01
17  5  0.00000000000000000D+00 -3.37869030660396500D-02 -1.01327769997373800D-02  0.00000000000000000D+00  2.42688133930779600D-02
17  6 -1.17896542057669200D-02 -1.24791591873111100D-02  3.48410716469824900D-02  0.00000000000000000D+00  0.00000000000000000D+00
17  7  3.46783437540928600D-03 -3.30228631548877400D-02 -8.95852868984731300D-02 -5.32970030447884700D-04  2.78585356692380600D-02
17  8  0.00000000000000000D+00  2.94710514423169000D-02 -1.22367305703902200D-02  0.00000000000000000D+00 -7.27307452768836800D-03
17  9  7.21114821762611000D-03  6.19263100623350000D-05  1.15584350133849500D-02  0.00000000000000000D+00  0.00000000000000000D+00
17 10  1.27428025965923400D-04 -5.00054107867224500D-03  3.63923865913677700D-02 -1.79015598919090000D-02 -2.28482721186728300D-02
17 11  0.00000000000000000D+00  1.04455072363354500D-03  5.81725444649451900D-03  0.00000000000000000D+00 -7.25299900294587300D-03
17 12  6.09413082331347500D-03  1.15886817963243600D-03 -8.28356874158363000D-04  0.00000000000000000D+00  0.00000000000000000D+00
17 13 -1.27326405018518100D-04  4.99763109844074400D-03 -3.63947740261650300D-02  1.08234405408103200D-02  2.69208312517754900D-02
17 14  0.00000000000000000D+00 -4.51874400330803600D-03 -3.81697088741652900D-03  0.00000000000000000D+00 -3.37777327292782200D-03
17 15  4.53642700707386000D-03 -1.15865373414600500D-03 -6.26031476550060000D-03  0.00000000000000000D+00  0.00000000000000000D+00
17 16 -3.46774147318556200D-03  3.30192351921054000D-02  8.95850755634494700D-02 -2.43980371289105700D-02 -1.34635568684697400D-02
17 17  0.00000000000000000D+00  2.53317573925137100D-02 -1.93995232264385000D-02  0.00000000000000000D+00  5.08134296998998900D-03
17 18 -5.01971364288179900D-03 -6.16293271082217000D-05 -1.30198546926827500D-02  0.00000000000000000D+00  0.00000000000000000D+00
17 19  7.63116124976300800D-03 -1.53615436241479700D-01 -1.00598586442401000D-01  2.15353202090039600D-02  1.88761909343878700D-02
17 20  2.80991367547871600D-01  0.00000000000000000D+00  1.38631382111255100D-02  1.31496297484445800D-01  0.00000000000000000D+00
17 21  2.64447753796819400D-03  3.23565814864733700D-03  0.00000000000000000D+00  9.91491273702345200D-03 -1.92516844178165400D-02
17 22  9.33677168079306800D-03 -7.66234611042069300D-04  0.00000000000000000D+00  0.00000000000000000D+00 -9.37865338103937000D-04
17 23  2.53049086999803400D-03 -1.59262553189411100D-03 -1.28976843447269500D-03  0.00000000000000000D+00  0.00000000000000000D+00
17 24 -7.63137253634660200D-03  1.53623586956901400D-01  1.00602686038253900D-01 -2.15357127620825400D-02 -2.33896270285931700D-01
17 25 -1.56870414397231800D-01  0.00000000000000000D+00 -1.06939325882866300D-01 -7.77648988757547700D-02  0.00000000000000000D+00
17 26 -1.47966323866111000D-03 -3.90820802944540900D-03  0.00000000000000000D+00  1.13831422317208400D-02 -2.04596939583141700D-03
17 27 -9.33717283588953600D-03  1.49686237514637400D-02  0.00000000000000000D+00  0.00000000000000000D+00 -2.63101547411058400D-03
17 28  1.03805397286401100D-03  1.59296150124660700D-03 -1.09040057050058100D-03  0.00000000000000000D+00  0.00000000000000000D+00
17 29 -3.43148350152114200D-02 -2.02637095910232700D-02  5.02679176305315100D-04 -2.63246364853573100D-04  0.00000000000000000D+00
17 30  1.77879147627245000D-02  9.72139706536233700D-03 -1.55335604080449800D-04 -2.39795373483109700D-04  0.00000000000000000D+00
17 31 -1.77799720659257000D-02 -9.71955758060820100D-03  1.30496507988177700D-04  2.54723302075030600D-04  0.00000000000000000D+00
17 32  3.43200440975712200D-02  2.02648809158938800D-02  4.79678260477552100D-04 -3.03754803164202600D-04  0.00000000000000000D+00
18  1  0.00000000000000000D+00  0.00000000000000000D+00  0.00000000000000000D+00  0.00000000000000000D+00  0.00000000000000000D+00
18  2  2.27849191697742500D-01  0.00000000000000000D+00  0.00000000000000000D+00  1.09908022543987200D-01  0.00000000000000000D+00
18  3  0.00000000000000000D+00  0.00000000000000000D+00  0.00000000000000000D+00  1.92347241624563400D-03  7.58474529392329700D-03
18  4  0.00000000000000000D+00  0.00000000000000000D+00  0.00000000000000000D+00  0.00000000000000000D+00  0.00000000000000000D+00
18  5  2.27856818676890000D-01  0.00000000000000000D+00  0.00000000000000000D+00  1.09911740420621100D-01  0.00000000000000000D+00
18  6  0.00000000000000000D+00  0.00000000000000000D+00  0.00000000000000000D+00  5.60809867409733600D-03  5.45983102881441700D-03
18  7  0.00000000000000000D+00  0.00000000000000000D+00  0.00000000000000000D+00  0.00000000000000000D+00  0.00000000000000000D+00
18  8  1.59583521143492600D-01  0.00000000000000000D+00  0.00000000000000000D+00  9.45955728887604300D-02  0.00000000000000000D+00
18  9  0.00000000000000000D+00  0.00000000000000000D+00  0.00000000000000000D+00 -1.20640006967776800D-02  6.57978051967969400D-03
18 10  0.00000000000000000D+00  0.00000000000000000D+00  0.00000000000000000D+00  0.00000000000000000D+00  0.00000000000000000D+00
18 11  1.55121308492982100D-01  0.00000000000000000D+00  0.00000000000000000D+00  9.32361582280596100D-02  0.00000000000000000D+00
18 12  0.00000000000000000D+00  0.00000000000000000D+00  0.00000000000000000D+00  3.63598007182412300D-03  1.18071605734571800D-02
18 13  0.00000000000000000D+00  0.00000000000000000D+00  0.00000000000000000D+00  0.00000000000000000D+00  0.00000000000000000D+00
18 14  1.55129161583681600D-01  0.00000000000000000D+00  0.00000000000000000D+00  9.32413818909897200D-02  0.00000000000000000D+00
18 15  0.00000000000000000D+00  0.00000000000000000D+00  0.00000000000000000D+00  8.40597822122463700D-03  9.05427825028655100D-03
18 16  0.00000000000000000D+00  0.00000000000000000D+00  0.00000000000000000D+00  0.00000000000000000D+00  0.00000000000000000D+00
18 17  1.59592230451531100D-01  0.00000000000000000D+00  0.00000000000000000D+00  9.46012574863251100D-02  0.00000000000000000D+00
18 18  0.00000000000000000D+00  0.00000000000000000D+00  0.00000000000000000D+00  1.17308807284163000D-02 -7.15760048250961700D-03
18 19  0.00000000000000000D+00  0.00000000000000000D+00  0.00000000000000000D+00  0.00000000000000000D+00  0.00000000000000000D+00
18 20  0.00000000000000000D+00  2.23283581215082600D-01  0.00000000000000000D+00  0.00000000000000000D+00  1.51476735078821500D-01
18 21  0.00000000000000000D+00  0.00000000000000000D+00  9.46357422886347200D-03  0.00000000000000000D+00  0.00000000000000000D+00
18 22  0.00000000000000000D+00  0.00000000000000000D+00 -3.52287534726926500D-05 -1.39589695753200700D-02  0.00000000000000000D+00
18 23  0.00000000000000000D+00  0.00000000000000000D+00  0.00000000000000000D+00 -5.70699915949129900D-04 -1.53181964396710700D-02
18 24  0.00000000000000000D+00  0.00000000000000000D+00  0.00000000000000000D+00  0.00000000000000000D+00  0.00000000000000000D+00
18 25  0.00000000000000000D+00  2.23298811814606500D-01  0.00000000000000000D+00  0.00000000000000000D+00  1.51487112760045800D-01
18 26  0.00000000000000000D+00  0.00000000000000000D+00  9.46465158459024200D-03  0.00000000000000000D+00  0.00000000000000000D+00
18 27  0.00000000000000000D+00  0.00000000000000000D+00 -1.20712506591860800D-02 -7.01168488260563300D-03  0.00000000000000000D+00
18 28  0.00000000000000000D+00  0.00000000000000000D+00  0.00000000000000000D+00 -1.29802184013080000D-02 -8.15510846935890900D-03
18 29  0.00000000000000000D+00  0.00000000000000000D+00  0.00000000000000000D+00  0.00000000000000000D+00  5.38620017262652800D-03
18 30  0.00000000000000000D+00  0.00000000000000000D+00  0.00000000000000000D+00  0.00000000000000000D+00  5.02374897220658800D-03
18 31  0.00000000000000000D+00  0.00000000000000000D+00  0.00000000000000000D+00  0.00000000000000000D+00  5.02388975067215700D-03
18 32  0.00000000000000000D+00  0.00000000000000000D+00  0.00000000000000000D+00  0.00000000000000000D+00  5.38638190061711500D-03
19  1  0.00000000000000000D+00  0.00000000000000000D+00  0.00000000000000000D+00  0.00000000000000000D+00 -2.25143553378998500D-11
19  2 -1.25814059724886900D-01  0.00000000000000000D+00  0.00000000000000000D+00 -6.60956651011045100D-02  0.00000000000000000D+00
19  3  0.00000000000000000D+00  0.00000000000000000D+00  0.00000000000000000D+00 -1.24234539331001700D-02 -2.37953014129040000D-02
19  4  0.00000000000000000D+00  0.00000000000000000D+00  0.00000000000000000D+00 -2.10668161388076900D-11 -1.45378585367667600D-11
19  5 -1.25818873219153200D-01  0.00000000000000000D+00  0.00000000000000000D+00 -6.60969056787799200D-02  0.00000000000000000D+00
19  6  0.00000000000000000D+00  0.00000000000000000D+00  0.00000000000000000D+00 -1.43939623801281000D-02 -2.26582548199728500D-02
19  7  0.00000000000000000D+00  0.00000000000000000D+00  0.00000000000000000D+00  0.00000000000000000D+00  0.00000000000000000D+00
19  8  1.65319895352104800D-01  0.00000000000000000D+00  0.00000000000000000D+00  1.23814517716515700D-01  0.00000000000000000D+00
19  9  0.00000000000000000D+00  0.00000000000000000D+00  0.00000000000000000D+00 -2.04876117779011900D-02 -1.17474222726431700D-02
19 10  0.00000000000000000D+00  0.00000000000000000D+00  0.00000000000000000D+00  0.00000000000000000D+00  1.33542977246422700D-11
19 11  2.52024331396494100D-01  0.00000000000000000D+00  0.00000000000000000D+00  1.72206458277857000D-01  0.00000000000000000D+00
19 12  0.00000000000000000D+00  0.00000000000000000D+00  0.00000000000000000D+00  5.35577719251561900D-04  1.64152554223133100D-02
19 13  0.00000000000000000D+00  0.00000000000000000D+00  0.00000000000000000D+00  1.20894521468152500D-11  0.00000000000000000D+00
19 14  2.52027570126110500D-01  0.00000000000000000D+00  0.00000000000000000D+00  1.72206537080173400D-01  0.00000000000000000D+00
19 15  0.00000000000000000D+00  0.00000000000000000D+00  0.00000000000000000D+00  1.39471281288685800D-02  8.67324313779277800D-03
19 16  0.00000000000000000D+00  0.00000000000000000D+00  0.00000000000000000D+00  0.00000000000000000D+00  0.00000000000000000D+00
19 17  1.65324859170714600D-01  0.00000000000000000D+00  0.00000000000000000D+00  1.23814970403291900D-01  0.00000000000000000D+00
19 18  0.00000000000000000D+00  0.00000000000000000D+00  0.00000000000000000D+00  7.29912697224321700D-05 -2.36170558399169000D-02
19 19  0.00000000000000000D+00 -1.51518852869026900D-11 -1.25779997476940900D-11  0.00000000000000000D+00  0.00000000000000000D+00
19 20  1.41424361369518800D-11 -2.26405875554624100D-01  0.00000000000000000D+00  0.00000000000000000D+00 -1.68096116242778700D-01
19 21  0.00000000000000000D+00  0.00000000000000000D+00 -2.26393209693862500D-02  0.00000000000000000D+00  0.00000000000000000D+00
19 22  0.00000000000000000D+00  0.00000000000000000D+00 -4.19914884220544500D-04  1.01915190956488100D-02  0.00000000000000000D+00
19 23  0.00000000000000000D+00  0.00000000000000000D+00  0.00000000000000000D+00  2.04769748248612100D-03  1.61783391464568200D-02
19 24  0.00000000000000000D+00 -1.41529800268139100D-11 -1.02234382746195900D-11  0.00000000000000000D+00  1.58077785755914200D-11
19 25  1.08925613605857700D-11 -2.26411716425632200D-01  0.00000000000000000D+00  0.00000000000000000D+00 -1.68100001642267500D-01
19 26  0.00000000000000000D+00  0.00000000000000000D+00 -2.26392355194708100D-02  0.00000000000000000D+00  0.00000000000000000D+00
19 27  0.00000000000000000D+00  0.00000000000000000D+00  9.03599174300816200D-03  4.73327434126410600D-03  0.00000000000000000D+00
19 28  0.00000000000000000D+00  0.00000000000000000D+00  0.00000000000000000D+00  1.29861704978308900D-02  9.86403716591934900D-03
19 29  0.00000000000000000D+00  0.00000000000000000D+00  0.00000000000000000D+00  0.00000000000000000D+00  5.16352430787119200D-03
19 30 -1.10565330194336200D-11  0.00000000000000000D+00  0.00000000000000000D+00  0.00000000000000000D+00  8.61968786930074700D-03
19 31  0.00000000000000000D+00  0.00000000000000000D+00  0.00000000000000000D+00  0.00000000000000000D+00  8.61962612960321500D-03
19 32  0.00000000000000000D+00  0.00000000000000000D+00  0.00000000000000000D+00  0.00000000000000000D+00  5.16357798605546800D-03
20  1  5.70945119752618200D-05 -6.51705213613259400D-03  3.35253821889438000D-02 -2.30961844901305000D-02 -2.67106476284796600D-01
20  2  1.14709157915164500D-11 -3.15675644918535100D-03 -3.94822003460443000D-02  0.00000000000000000D+00  1.96385727311544900D-02
20  3 -2.14430605847165400D-02  1.80448785356208500D-03  1.30016626966594600D-03  0.00000000000000000D+00  0.00000000000000000D+00
20  4  5.66584695924085900D-05 -6.50909506338288200D-03  3.35324274392880700D-02 -2.19749758124385200D-01 -1.53574663989275600D-01
20  5  0.00000000000000000D+00 -3.26126739326611400D-02 -2.24780508568788200D-02  0.00000000000000000D+00 -1.21432839942122500D-02
20  6  1.03392553933920100D-02  1.80402860082018900D-03 -1.98916970368000000D-02  0.00000000000000000D+00  0.00000000000000000D+00
20  7 -7.85668295047676400D-03  1.14918020511995300D-01  8.42291017685480700D-02  1.34906666888883800D-02  7.46234084092276100D-02
20  8 -1.45852054757226100D-11 -4.73168810202811900D-03  3.38903255904114700D-02 -1.06552781118335700D-11  2.66276885051748300D-03
20  9  3.24935414272911600D-03 -5.91212299324668000D-03 -1.12602392622188100D-02  0.00000000000000000D+00  0.00000000000000000D+00
20 10 -3.67576005728192500D-04 -2.22676563655973900D-03 -2.07959169158999400D-02 -3.31235697683942600D-02  1.20211348305539800D-01
20 11 -2.24826422110974400D-11 -1.64062469817385200D-02  3.83646576619374000D-02 -1.51052195018178900D-11  4.23569868099602500D-03
20 12 -2.00754151449299200D-03 -2.22815716650288000D-03 -1.38387128328961800D-03  0.00000000000000000D+00  0.00000000000000000D+00
20 13 -3.67682317407875400D-04 -2.22875749774219400D-03 -2.07975122168901300D-02  1.20664230779139100D-01  3.14272130002473100D-02
20 14 -2.40350588558287700D-11  4.14278017139374200D-02  4.97867033745597000D-03 -1.65839990870052600D-11  5.92097726650002300D-04
20 15  1.63614046142764300D-03 -2.22823818807767900D-03 -3.81403517635975100D-03  0.00000000000000000D+00  0.00000000000000000D+00
20 16 -7.85673130454316700D-03  1.14916457348500700D-01  8.42288337088903100D-02  5.78718995010639000D-02  4.90072168990028600D-02
20 17 -1.63633918701160800D-11  3.17127746734258600D-02  1.28537597659530200D-02 -1.23359087455258500D-11  1.15494180659878400D-02
20 18 -5.63745779701117300D-03 -5.91196026897664600D-03 -5.33548534417378600D-03  0.00000000000000000D+00  0.00000000000000000D+00
20 19  4.25278292802156900D-03 -1.73677768068043100D-01 -1.39256366729002100D-01  5.36253116729586500D-03  1.55784505681729400D-02
20 20  1.85078435693177500D-01  2.17712963929306500D-11  1.47317173888082300D-02  8.83801092003420200D-02  1.62093497741371800D-11
20 21  3.24302169285832000D-03  9.17142299188809400D-03  0.00000000000000000D+00  6.83758213867810500D-03 -1.38829588929571400D-02
20 22  7.04537675427905500D-03 -3.53295548159389000D-04  0.00000000000000000D+00  0.00000000000000000D+00 -7.92177005371586200D-04
20 23  5.88359357116354800D-04  2.03817648255316800D-04 -1.53344532151013300D-03  0.00000000000000000D+00  0.00000000000000000D+00
20 24  4.25248207493588100D-03 -1.73671738839122500D-01 -1.39250676960596100D-01  5.36206781647900600D-03  1.52472599193636000D-01
20 25  1.06039368345184100D-01  1.72951362353105100D-11  6.91613550272987500D-02  5.69505324902890200D-02  1.29030789160849100D-11
20 26  6.32020092810900800D-03  7.39469101509346700D-03  0.00000000000000000D+00 -8.43564884946428600D-03  1.39052536660477800D-03
20 27  7.04512348285955800D-03 -1.05376404563834600D-02  0.00000000000000000D+00  0.00000000000000000D+00  1.39354581268985800D-03
20 28 -1.59709364659471500D-03  2.03547833904828100D-04 -7.55941778172683000D-05  0.00000000000000000D+00  0.00000000000000000D+00
20 29  5.56008814905940400D-02  2.69532306201371600D-02 -3.92525239755478100D-03  3.67096609969883500D-03  0.00000000000000000D+00
20 30 -9.43265586764091800D-02 -2.50495389208475700D-02 -1.51250800744073400D-03 -7.04886153721592000D-03  0.00000000000000000D+00
20 31 -9.43252291390336700D-02 -2.50488468673513500D-02 -5.34764508870230300D-03 -4.83491434802785500D-03  0.00000000000000000D+00
20 32  5.56051298124425100D-02  2.69551782217882700D-02  5.14207159695297100D-03 -1.56327866611279900D-03  0.00000000000000000D+00
21  1  0.00000000000000000D+00  0.00000000000000000D+00  0.00000000000000000D+00  0.00000000000000000D+00  0.00000000000000000D+00
21  2  1.60882959499247700D-01  0.00000000000000000D+00  0.00000000000000000D+00  1.02527190203876500D-01  0.00000000000000000D+00
21  3  0.00000000000000000D+00  0.00000000000000000D+00  0.00000000000000000D+00  7.19344945909865000D-04  3.89563251558165500D-02
21  4  0.00000000000000000D+00  0.00000000000000000D+00  0.00000000000000000D+00  0.00000000000000000D+00  0.00000000000000000D+00
21  5 -1.60872486525048300D-01  0.00000000000000000D+00  0.00000000000000000D+00 -1.02520496710736500D-01  0.00000000000000000D+00
21  6  0.00000000000000000D+00  0.00000000000000000D+00  0.00000000000000000D+00 -3.33753297743101900D-02 -2.01042756165402700D-02
21  7  0.00000000000000000D+00  0.00000000000000000D+00  0.00000000000000000D+00  0.00000000000000000D+00  0.00000000000000000D+00
21  8  1.35317745294941300D-01  0.00000000000000000D+00  0.00000000000000000D+00  1.28719008612807700D-01  0.00000000000000000D+00
21  9  0.00000000000000000D+00  0.00000000000000000D+00  0.00000000000000000D+00 -1.08981982893604300D-02 -1.03212238647179600D-02
21 10  0.00000000000000000D+00  0.00000000000000000D+00  0.00000000000000000D+00  0.00000000000000000D+00  0.00000000000000000D+00
21 11  1.19113997503113300D-01  0.00000000000000000D+00  0.00000000000000000D+00  1.13822884915148400D-01  0.00000000000000000D+00
21 12  0.00000000000000000D+00  0.00000000000000000D+00  0.00000000000000000D+00  1.46208258316440100D-02  3.43853138818392200D-03
21 13 -1.93010904785026900D-11  0.00000000000000000D+00  0.00000000000000000D+00  0.00000000000000000D+00  0.00000000000000000D+00
21 14 -1.19109618428372500D-01  0.00000000000000000D+00  0.00000000000000000D+00 -1.13818338913546200D-01  0.00000000000000000D+00
21 15  0.00000000000000000D+00  0.00000000000000000D+00  0.00000000000000000D+00  4.33436367899209400D-03 -1.43808028596503300D-02
21 16  0.00000000000000000D+00  0.00000000000000000D+00  0.00000000000000000D+00  0.00000000000000000D+00  0.00000000000000000D+00
21 17 -1.35313042701912400D-01  0.00000000000000000D+00  0.00000000000000000D+00 -1.28714793815864000D-01  0.00000000000000000D+00
21 18  0.00000000000000000D+00  0.00000000000000000D+00  0.00000000000000000D+00  3.48832505854685200D-03  1.45992321095966400D-02
21 19  0.00000000000000000D+00  0.00000000000000000D+00  0.00000000000000000D+00  0.00000000000000000D+00  0.00000000000000000D+00
21 20  0.00000000000000000D+00  3.54354265077433500D-01  0.00000000000000000D+00  0.00000000000000000D+00  2.61552304063100500D-01
21 21  0.00000000000000000D+00  0.00000000000000000D+00  3.90186817035704200D-02  0.00000000000000000D+00  0.00000000000000000D+00
21 22  0.00000000000000000D+00  0.00000000000000000D+00  1.04114341618729100D-06 -1.53475024336474800D-02  0.00000000000000000D+00
21 23  0.00000000000000000D+00  0.00000000000000000D+00  0.00000000000000000D+00 -2.23605218700410500D-03 -1.87366308826137900D-02
21 24  0.00000000000000000D+00  0.00000000000000000D+00  0.00000000000000000D+00  0.00000000000000000D+00  0.00000000000000000D+00
21 25  0.00000000000000000D+00 -3.54341506993474600D-01  0.00000000000000000D+00  0.00000000000000000D+00 -2.61542912910430100D-01
21 26  0.00000000000000000D+00  0.00000000000000000D+00 -3.90171557500844200D-02  0.00000000000000000D+00  0.00000000000000000D+00
21 27  0.00000000000000000D+00  0.00000000000000000D+00  1.32906259971921300D-02  7.67397467466847300D-03  0.00000000000000000D+00
21 28  0.00000000000000000D+00  0.00000000000000000D+00  0.00000000000000000D+00  1.51062121654947400D-02  1.13058038659948900D-02
21 29  0.00000000000000000D+00  0.00000000000000000D+00  0.00000000000000000D+00  0.00000000000000000D+00  4.47837819719314400D-03
21 30  0.00000000000000000D+00  0.00000000000000000D+00  0.00000000000000000D+00  0.00000000000000000D+00  4.26811844941736600D-03
21 31  0.00000000000000000D+00  0.00000000000000000D+00  0.00000000000000000D+00  0.00000000000000000D+00 -4.26791242447839900D-03
21 32  0.00000000000000000D+00  0.00000000000000000D+00  0.00000000000000000D+00  0.00000000000000000D+00 -4.47817057767702000D-03
22  1  4.11096068962607400D-03 -1.13494735310747800D-01 -6.26689044651870500D-02  1.19777033392947600D-01  7.49999428221269400D-02
22  2  0.00000000000000000D+00 -3.81083562135973300D-03  7.26716834563138400D-03  0.00000000000000000D+00 -1.25877375655654700D-02
22  3  5.72656573796484500D-03  6.86117182760064400D-03 -1.64587925337315900D-02  0.00000000000000000D+00  0.00000000000000000D+00
22  4 -4.11091969203226900D-03  1.13488918988431200D-01  6.26631697950520400D-02 -5.04118621899865600D-03 -1.41230416785883500D-01
22  5  0.00000000000000000D+00 -8.19628844901396600D-03 -3.32637154822313900D-04  0.00000000000000000D+00 -1.34920371388295100D-02
22  6  2.03529423094416600D-02 -6.86090517061213600D-03 -9.31242492813261000D-04  0.00000000000000000D+00  0.00000000000000000D+00
22  7 -1.50508986884517600D-02  2.29981285515360200D-01  2.24831777148887900D-01  1.80753858924936200D-02  6.71165614443439000D-02
22  8  0.00000000000000000D+00 -2.84902693212939000D-02  5.08353309442217300D-02  0.00000000000000000D+00  1.75322689641189300D-03
22  9  6.28946219942698000D-03 -8.04268909583901600D-03 -4.50448293165344800D-03  0.00000000000000000D+00  0.00000000000000000D+00
22 10  1.53914263203838900D-03 -3.80647009315406800D-02 -1.13200621633417500D-01  6.29329853521059200D-02  1.50897821598408400D-01
22 11  0.00000000000000000D+00  2.95311399134319400D-02  1.69982189832926600D-02  0.00000000000000000D+00  1.55314075272819700D-02
22 12 -1.44842887540998100D-02 -1.04711877318215900D-03  1.06004161595989800D-02  0.00000000000000000D+00  0.00000000000000000D+00
22 13 -1.53914920365965300D-03  3.80662910746169700D-02  1.13202395600390600D-01 -9.92010360955630400D-02 -1.29952332004812400D-01
22 14  0.00000000000000000D+00  4.67809571824798100D-05 -3.40715441401646700D-02  0.00000000000000000D+00  1.49290724399688500D-02
22 15 -1.59760342085952700D-02  1.04696176862634600D-03  9.71103208683128100D-03  0.00000000000000000D+00  0.00000000000000000D+00
22 16  1.50510420749541900D-02 -2.29977329415998800D-01 -2.24827903496977400D-01 -4.90827614442861500D-02 -4.92264308143969600D-02
22 17  0.00000000000000000D+00 -5.82676084842942900D-02 -7.55859671723342200D-04  0.00000000000000000D+00 -8.53429821304887100D-03
22 18  4.91680598686594500D-04  8.04261761436233700D-03 -1.70486544032652500D-05  0.00000000000000000D+00  0.00000000000000000D+00
22 19  4.98816955034489900D-04  2.34966625159218300D-02  3.32747993994584800D-02  1.74076949318418700D-02  4.57727724690495900D-02
22 20  7.98719731625696300D-03  0.00000000000000000D+00  3.20705481558699000D-02  1.70019395434738800D-03  0.00000000000000000D+00
22 21  2.05392275209914300D-03 -9.31793117334158200D-03  0.00000000000000000D+00  4.07745205035600100D-04 -7.36905962243985100D-04
22 22  3.29160757208354800D-04 -3.60890070433787600D-03  0.00000000000000000D+00  0.00000000000000000D+00  1.28570744130723800D-03
22 23 -1.94628805355192600D-03  6.60580612244499400D-04 -6.07951594678450200D-03  0.00000000000000000D+00  0.00000000000000000D+00
22 24 -4.98780453582174500D-04 -2.34940633161962800D-02 -3.32728441884448800D-02 -1.74078987775078100D-02  1.59733377139567100D-02
22 25 -4.36362132113803600D-02  0.00000000000000000D+00  1.45657499663187900D-02 -2.86251774550309000D-02  0.00000000000000000D+00
22 26  9.09603042414685100D-03  2.88085086805217600D-03  0.00000000000000000D+00 -2.25647615707438800D-03  2.58567641725525600D-03
22 27 -3.29200260180928300D-04  2.37638649234023700D-03  0.00000000000000000D+00  0.00000000000000000D+00 -3.42239793732866900D-03
22 28  4.08307667163595500D-03 -6.60678734307279600D-04  4.65500652709035200D-03  0.00000000000000000D+00  0.00000000000000000D+00
22 29  1.13228038261245700D-01  3.20731404258419200D-02 -1.15251361621947400D-02  7.51394584258473500D-03  0.00000000000000000D+00
22 30 -1.57067130221529900D-01 -5.97192200664602400D-02  2.01207791834692100D-03 -1.05353402998138600D-02  0.00000000000000000D+00
22 31  1.57064202730381300D-01  5.97190438395448800D-02  1.01293068148227700D-02  3.52613508706253700D-03  0.00000000000000000D+00
22 32 -1.13229079589720400D-01 -3.20741661379715100D-02 -1.22705989915914600D-02  6.22252527670030200D-03  0.00000000000000000D+00
23  1  0.00000000000000000D+00  0.00000000000000000D+00  0.00000000000000000D+00  0.00000000000000000D+00  0.00000000000000000D+00
23  2  1.54923836627954700D-01  0.00000000000000000D+00  0.00000000000000000D+00  7.32281108180682100D-02  0.00000000000000000D+00
23  3  0.00000000000000000D+00  0.00000000000000000D+00  0.00000000000000000D+00 -1.82840105592800200D-02  2.55421412991111800D-03
23  4  0.00000000000000000D+00  0.00000000000000000D+00  0.00000000000000000D+00  0.00000000000000000D+00  0.00000000000000000D+00
23  5 -1.54923488990067100D-01  0.00000000000000000D+00  0.00000000000000000D+00 -7.32274496980137000D-02  0.00000000000000000D+00
23  6  0.00000000000000000D+00  0.00000000000000000D+00  0.00000000000000000D+00 -1.13556342091883900D-02  1.45564468197960800D-02
23  7  0.00000000000000000D+00  0.00000000000000000D+00  0.00000000000000000D+00  0.00000000000000000D+00  0.00000000000000000D+00
23  8 -2.90790233076681400D-01  0.00000000000000000D+00  0.00000000000000000D+00 -2.25010658247708600D-01  0.00000000000000000D+00
23  9  0.00000000000000000D+00  0.00000000000000000D+00  0.00000000000000000D+00  1.69921099741759600D-02 -3.04258656971426900D-03
23 10  0.00000000000000000D+00  0.00000000000000000D+00  0.00000000000000000D+00  0.00000000000000000D+00  0.00000000000000000D+00
23 11 -1.93183703980761700D-01  0.00000000000000000D+00  0.00000000000000000D+00 -1.62832878198664000D-01  0.00000000000000000D+00
23 12  0.00000000000000000D+00  0.00000000000000000D+00  0.00000000000000000D+00 -2.72048246024019700D-02 -6.64580532373719400D-03
23 13  0.00000000000000000D+00  0.00000000000000000D+00  0.00000000000000000D+00  0.00000000000000000D+00  0.00000000000000000D+00
23 14  1.93179149501625700D-01  0.00000000000000000D+00  0.00000000000000000D+00  1.62826024354659600D-01  0.00000000000000000D+00
23 15  0.00000000000000000D+00  0.00000000000000000D+00  0.00000000000000000D+00 -7.85019847459652100D-03  2.68826033003276000D-02
23 16  0.00000000000000000D+00  0.00000000000000000D+00  0.00000000000000000D+00  0.00000000000000000D+00  0.00000000000000000D+00
23 17  2.90787824964354200D-01  0.00000000000000000D+00  0.00000000000000000D+00  2.25006039479508300D-01  0.00000000000000000D+00
23 18  0.00000000000000000D+00  0.00000000000000000D+00  0.00000000000000000D+00  1.11323410206465200D-02 -1.31929398174774000D-02
23 19  0.00000000000000000D+00  0.00000000000000000D+00  0.00000000000000000D+00  0.00000000000000000D+00  0.00000000000000000D+00
23 20  0.00000000000000000D+00  1.19428175830168800D-01  0.00000000000000000D+00  0.00000000000000000D+00  7.66227174347665500D-02
23 21  0.00000000000000000D+00  0.00000000000000000D+00  4.83983029101590400D-03  0.00000000000000000D+00  0.00000000000000000D+00
23 22  0.00000000000000000D+00  0.00000000000000000D+00 -7.74710422050116000D-04 -8.32180815510212000D-03  0.00000000000000000D+00
23 23  0.00000000000000000D+00  0.00000000000000000D+00  0.00000000000000000D+00  1.02565006810864600D-03 -9.83132722759800400D-03
23 24  0.00000000000000000D+00  0.00000000000000000D+00  0.00000000000000000D+00  0.00000000000000000D+00  0.00000000000000000D+00
23 25  0.00000000000000000D+00 -1.19425491944319900D-01  0.00000000000000000D+00  0.00000000000000000D+00 -7.66198550356491800D-02
23 26  0.00000000000000000D+00  0.00000000000000000D+00 -4.83916787687360200D-03  0.00000000000000000D+00  0.00000000000000000D+00
23 27  0.00000000000000000D+00  0.00000000000000000D+00  6.81908047319253600D-03  4.83256974204805400D-03  0.00000000000000000D+00
23 28  0.00000000000000000D+00  0.00000000000000000D+00  0.00000000000000000D+00  9.02625710171536600D-03  4.02816694207793500D-03
23 29  0.00000000000000000D+00  0.00000000000000000D+00  0.00000000000000000D+00  0.00000000000000000D+00 -1.04282760555101400D-02
23 30  0.00000000000000000D+00  0.00000000000000000D+00  0.00000000000000000D+00  0.00000000000000000D+00 -6.61481906947388200D-03
23 31  0.00000000000000000D+00  0.00000000000000000D+00  0.00000000000000000D+00  0.00000000000000000D+00  6.61451917256595600D-03
23 32  0.00000000000000000D+00  0.00000000000000000D+00  0.00000000000000000D+00  0.00000000000000000D+00  1.04280606510771700D-02
24  1 -3.03575459719809100D-03  1.36978921474639300D-01  1.56325905172541100D-01  2.34164134489926800D-01 -1.69163376907676300D-01
24  2  0.00000000000000000D+00  4.75194467662109300D-02 -7.95395831269276600D-02  0.00000000000000000D+00  1.14381285582443800D-02
24  3 -6.29629148547698300D-03 -5.14183707276744300D-03 -1.57375324689011000D-02  0.00000000000000000D+00  0.00000000000000000D+00
24  4 -3.03589056708652900D-03  1.36976071261330000D-01  1.56320159925226000D-01 -2.63591469603631100D-01  1.18190927389663000D-01
24  5  0.00000000000000000D+00 -9.26402496771845000D-02  1.37515331502675900D-03  0.00000000000000000D+00  9.94361602325222200D-03
24  6 -4.80160624943148600D-03 -5.14200977382066500D-03 -1.67336392736779200D-02  0.00000000000000000D+00  0.00000000000000000D+00
24  7  6.34884439047973400D-03 -1.08688129471912800D-01 -1.25055660587844100D-01 -4.88838156254678000D-02  2.81093004871859100D-02
24  8  0.00000000000000000D+00 -1.11366129690095200D-03 -2.01365350281808600D-02  0.00000000000000000D+00 -1.13700100506929400D-02
24  9  9.11302482749453200D-03  2.25698522319841100D-03 -3.66693367502631300D-03  0.00000000000000000D+00  0.00000000000000000D+00
24 10  8.41655434932764000D-04 -2.28220407817715700D-02 -7.74259957172939900D-03  2.60550369197562000D-02 -1.51846737706169700D-01
24 11  0.00000000000000000D+00  1.19274338505583500D-02 -5.40460255658838800D-02  0.00000000000000000D+00 -7.39260925870233000D-03
24 12  5.45457531188059700D-03  1.93803394682175800D-03  6.36169733155991600D-03  0.00000000000000000D+00  0.00000000000000000D+00
24 13  8.41671884427070700D-04 -2.28186406298737600D-02 -7.73524742560090200D-03 -1.44531554821692600D-01 -5.33818481087509600D-02
24 14  0.00000000000000000D+00 -5.27690131123086400D-02 -1.67040571036993900D-02  0.00000000000000000D+00 -2.52906285345832300D-03
24 15  5.91052469571609000D-04  1.93801038388676300D-03  9.60594852948821300D-03  0.00000000000000000D+00  0.00000000000000000D+00
24 16  6.34927765802735300D-03 -1.08694223576626200D-01 -1.25061437143591600D-01  4.87999937796380600D-02 -2.82719948162135900D-02
24 17  0.00000000000000000D+00 -1.68756757828705500D-02 -1.10347582584403900D-02  0.00000000000000000D+00  6.74128816992967900D-03
24 18 -8.99808300274384200D-03  2.25679483281412600D-03  8.41143593819051800D-03  0.00000000000000000D+00  0.00000000000000000D+00
24 19 -4.51268026812647400D-04 -4.25564812811595200D-02 -2.80329770318916600D-02  8.73909670393553800D-03  1.22604214879776400D-01
24 20  5.90491717574111900D-02  0.00000000000000000D+00  7.41033208554520700D-02  3.36172105473029300D-02  0.00000000000000000D+00
24 21 -1.26506710581239200D-03  6.23085755806085600D-03  0.00000000000000000D+00  1.47501259036963400D-03 -3.13271365078018100D-03
24 22  1.65770106041065000D-03 -8.18768590734288800D-03  0.00000000000000000D+00  0.00000000000000000D+00 -1.57143494319067600D-03
24 23 -2.45585478311429100D-05  1.59599349102180000D-03 -8.87362025011912700D-03  0.00000000000000000D+00  0.00000000000000000D+00
24 24 -4.51276582404783800D-04 -4.25549154208223600D-02 -2.80318752650078400D-02  8.73773674339184400D-03 -1.01850198555391600D-02
24 25  1.35704055107270600D-01  0.00000000000000000D+00 -7.95108895088207300D-03  8.09845075856394500D-02  0.00000000000000000D+00
24 26  6.02856499601245300D-03  2.02041369820261900D-03  0.00000000000000000D+00  4.16152188421670900D-03 -5.81914242648206400D-03
24 27  1.65762054226537600D-03 -6.39658389673483700D-03  0.00000000000000000D+00  0.00000000000000000D+00  6.24492056545244200D-03
24 28 -7.84095900551678300D-03  1.59603844006433700D-03 -3.66167216050021900D-03  0.00000000000000000D+00  0.00000000000000000D+00
24 29 -1.06611451589319600D-01 -3.19549912463743700D-02  1.01011238396606400D-02 -3.85040836180067000D-03  0.00000000000000000D+00
24 30  1.17615869423006300D-01  4.12633767756024900D-02  1.57232201121222700D-03  7.61166417236660700D-03  0.00000000000000000D+00
24 31  1.17628463029512600D-01  4.12693940405491800D-02  5.80592049290404100D-03  5.16827581550735200D-03  0.00000000000000000D+00
24 32 -1.06623174075141000D-01 -3.19589953269688400D-02 -8.38658617752622400D-03  6.82246413350031400D-03  0.00000000000000000D+00
25  1 -1.67160177031110900D-03  1.04693046283669600D-01  1.38526828347666500D-01 -1.67412835589566300D-01 -1.65850942508116300D-01
25  2  0.00000000000000000D+00  7.45052041132974000D-03 -6.62737623487110200D-02  0.00000000000000000D+00  1.42061999170634700D-02
25  3 -1.49024469012350700D-02  6.96246984171590800D-04  7.89475265229140300D-03  0.00000000000000000D+00  0.00000000000000000D+00
25  4  1.67202550259420700D-03 -1.04700948488939400D-01 -1.38536782328952800D-01  5.99161222883409600D-02  2.27909814699333400D-01
25  5  0.00000000000000000D+00  6.11237104757090300D-02  2.66911848572249100D-02  0.00000000000000000D+00  1.35439652011962400D-02
25  6 -1.28480829363948900D-02 -6.95882264801375300D-04  1.06116097753957900D-02  0.00000000000000000D+00  0.00000000000000000D+00
25  7 -2.32664604073679100D-03  3.27067008856590900D-02  1.36492754697107500D-02 -1.72968829677559400D-02 -2.69753250016852800D-01
25  8  0.00000000000000000D+00 -9.69824270217103400D-03 -1.23284537902423300D-01  0.00000000000000000D+00  2.09175181110515900D-02
25  9 -2.49931021352026600D-02  4.07558402415098000D-03 -1.04381983882453300D-03  0.00000000000000000D+00  0.00000000000000000D+00
25 10  5.13855338373514300D-04  1.64956568437481400D-03 -2.26933934414653000D-02  1.07792736981100000D-01  1.36418559249424400D-01
25 11  0.00000000000000000D+00  3.47444800074721400D-02  6.59280347595393600D-02  0.00000000000000000D+00  2.50155191453010400D-02
25 12 -2.39017788543336300D-02 -1.11374029096738500D-03  1.54295835456988300D-03  0.00000000000000000D+00  0.00000000000000000D+00
25 13 -5.13654152706609500D-04 -1.64823663603899100D-03  2.26942328007800600D-02 -6.42256184814461000D-02 -1.61559455630320100D-01
25 14  0.00000000000000000D+00 -3.97186486680657900D-02 -6.30549222161794100D-02  0.00000000000000000D+00  1.28256466790770500D-02
25 15 -1.39393453400970200D-02  1.11369866101996400D-03  2.36903082763572400D-02  0.00000000000000000D+00  0.00000000000000000D+00
25 16  2.32645221959607700D-03 -3.27002050330192300D-02 -1.36395332634507000D-02  2.24945406450947700D-01  1.49877725813167500D-01
25 17  0.00000000000000000D+00  1.01914510539835000D-01  7.00488461149612900D-02  0.00000000000000000D+00  1.27274386487706300D-02
25 18 -8.65160951056615600D-03 -4.07582913820455100D-03  2.34800011073528000D-02  0.00000000000000000D+00  0.00000000000000000D+00
25 19 -1.65191512499048300D-04 -2.88375065276351600D-02 -1.24813186469017000D-02  1.26652356254647000D-02 -1.06412862304472900D-01
25 20  9.50418885020561900D-02  0.00000000000000000D+00 -7.41294183137411900D-02  5.29613055493683200D-02  0.00000000000000000D+00
25 21 -1.79235528260671800D-03  6.95131105808964100D-03  0.00000000000000000D+00  2.53734828919101300D-03 -4.82833767040208900D-03
25 22  2.29098938121105000D-03  6.05554305158765200D-03  0.00000000000000000D+00  0.00000000000000000D+00 -1.91822731749983100D-04
25 23  1.55076649020010500D-03 -1.35894375845025300D-03  8.27059755062176100D-03  0.00000000000000000D+00  0.00000000000000000D+00
25 24  1.65259304084746500D-04  2.88403912741944400D-02  1.24824049273688500D-02 -1.26659623495938200D-02 -1.35519557939778300D-01
25 25  4.46140839642171700D-02  0.00000000000000000D+00 -8.29332775152184600D-02  3.77044146429509400D-02  0.00000000000000000D+00
25 26 -6.91619406035277700D-03 -1.92453311703008700D-03  0.00000000000000000D+00  7.52842149923932900D-03 -5.23730107428169000D-03
25 27 -2.29112042495762100D-03  6.56965431235658100D-04  0.00000000000000000D+00  0.00000000000000000D+00  5.08810016358062800D-03
25 28 -6.44704268924476500D-03  1.35894252566414500D-03 -5.00512869441273600D-03  0.00000000000000000D+00  0.00000000000000000D+00
25 29  1.28500887825675500D-01  3.89139159529870500D-02 -1.18519999648632600D-02 -1.48088716591582800D-03  0.00000000000000000D+00
25 30 -1.44084707740852100D-01 -6.79691906267841000D-02  2.52642423921067100D-03 -6.77128207602717200D-03  0.00000000000000000D+00
25 31  1.44080816910159400D-01  6.79696435190692000D-02  7.12682711561652700D-03  1.19822785293379600D-03  0.00000000000000000D+00
25 32 -1.28498457484531300D-01 -3.89142275318480500D-02 -4.64462551022400600D-03  1.10036672692783500D-02  0.00000000000000000D+00
26  1 -1.10506911860393300D-04 -4.24617726986195900D-02 -1.03776580788701000D-02  2.43687583177538300D-01  6.39718867489792200D-02
26  2  0.00000000000000000D+00  6.03339319156515000D-02  3.49456268312155100D-03  0.00000000000000000D+00  5.54596578610770900D-03
26  3 -5.08475456446416200D-03 -4.61211221643657700D-04  1.43808497397523600D-03  0.00000000000000000D+00  0.00000000000000000D+00
26  4 -1.10429944456636800D-04 -4.24601728701514800D-02 -1.03775636475699500D-02 -6.64686898443190100D-02  2.43020114294396200D-01
26  5  0.00000000000000000D+00 -2.71438619745937500D-02  5.39936334091086700D-02  0.00000000000000000D+00 -3.50535244587997300D-03
26  6  3.96648385777313600D-03 -4.61131411893173300D-04 -4.59642129218661600D-03  0.00000000000000000D+00  0.00000000000000000D+00
26  7 -1.12237444611080600D-03  1.97285561047305900D-02 -2.16106254812060500D-02  5.85210423322044900D-02 -2.04359770599068900D-01
26  8  0.00000000000000000D+00  5.63628652155739700D-02 -9.99267745298292300D-02  0.00000000000000000D+00  1.94962514792540900D-02
26  9 -2.30869873741932900D-02  3.59073589493921000D-03 -8.29884555589050300D-03  0.00000000000000000D+00  0.00000000000000000D+00
26 10 -1.20327372441062100D-03  3.11489608928130300D-02  4.17375759254514100D-02 -3.33003916531826200D-02  1.47120430658173300D-01
26 11  0.00000000000000000D+00 -1.46236857005578700D-02  8.02190977129537300D-02  0.00000000000000000D+00  1.26708763296413800D-02
26 12 -1.08413248730613900D-02 -1.82955145657993900D-03 -1.22484196137862300D-02  0.00000000000000000D+00  0.00000000000000000D+00
26 13 -1.20325213597802100D-03  3.11465997778194700D-02  4.17354018218336400D-02  1.44056018568447000D-01  4.47339084885739900D-02
26 14  0.00000000000000000D+00  7.67810003195595600D-02  2.74556787928753600D-02  0.00000000000000000D+00  4.22609092140967600D-03
26 15 -2.39659176781841600D-03 -1.82949915359140500D-03 -1.78804460192689500D-02  0.00000000000000000D+00  0.00000000000000000D+00
26 16 -1.12215032877689100D-03  1.97281048923289000D-02 -2.16131287582692500D-02 -2.06235909321256300D-01 -5.15199288792849500D-02
26 17  0.00000000000000000D+00 -1.14722296709625500D-01 -1.16053446432483200D-03  0.00000000000000000D+00 -6.21191668311392300D-03
26 18  2.62101103988326200D-03  3.59090564323055100D-03 -2.54425386749510900D-02  0.00000000000000000D+00  0.00000000000000000D+00
26 19 -4.65853563943982500D-05  1.23079175360553200D-02  5.79388836344944000D-03  1.81762520116717600D-03  2.01042562194002900D-01
26 20 -1.75665597690598600D-02  0.00000000000000000D+00  1.27778785743365200D-01 -8.40362704098525200D-03  0.00000000000000000D+00
26 21  3.10803650175012000D-03 -2.82802738691268800D-03  0.00000000000000000D+00 -2.72895237732802400D-04  1.19963443382268700D-03
26 22 -9.26739196089973500D-04 -1.04530551017153000D-02  0.00000000000000000D+00  0.00000000000000000D+00  1.01264706511288500D-04
26 23  9.71774743765182600D-06 -1.10982453948830300D-04 -1.04152677740194200D-02  0.00000000000000000D+00  0.00000000000000000D+00
26 24 -4.65748124553814300D-05  1.23076646197996400D-02  5.79264650857983300D-03  1.81703635747129600D-03 -1.15755223703504800D-01
26 25  1.65316536809345800D-01  0.00000000000000000D+00 -7.11802145126121000D-02  1.06452987964944100D-01  0.00000000000000000D+00
26 26 -4.00320701675855400D-03  1.27718458734504800D-03  0.00000000000000000D+00  8.67240448067049300D-03 -7.74563752659820100D-03
26 27 -9.26766954072336600D-04 -4.48840742182960200D-03  0.00000000000000000D+00  0.00000000000000000D+00  7.84506444809449800D-03
26 28 -7.73405913234406200D-03 -1.11005315750466400D-04 -5.25151230680839900D-03  0.00000000000000000D+00  0.00000000000000000D+00
26 29  1.59450217808655100D-01  5.18662449949924800D-02 -1.19026661010291700D-02  1.03630916869173200D-03  0.00000000000000000D+00
26 30 -1.20653680400815100D-01 -4.85887574985759900D-02 -3.07703586269098800D-03 -6.73149901227066600D-03  0.00000000000000000D+00
26 31 -1.20656517539683600D-01 -4.85911134455285900D-02 -4.29065513512833800D-03 -6.03104632158472800D-03  0.00000000000000000D+00
26 32  1.59452126886331000D-01  5.18678468030581000D-02  6.85003718668281000D-03 -9.78904295145837500D-03  0.00000000000000000D+00
27  1 -1.24206022648032200D-03  7.90352393858077800D-02  9.63433186039343600D-02  2.94248297403313000D-02 -6.34956972542560800D-02
27  2  0.00000000000000000D+00 -6.02665440190225800D-02 -4.96718263060346900D-02  0.00000000000000000D+00  2.44819742868787300D-03
27  3 -4.11900155205736400D-03  1.67080412336935500D-03  5.09627602774916800D-02  0.00000000000000000D+00  0.00000000000000000D+00
27  4  1.24210216760479000D-03 -7.90344040427893600D-02 -9.63409978634245700D-02  6.96975971145860600D-02  6.27738571829765000D-03
27  5  0.00000000000000000D+00  1.28734418630971200D-02  7.70322047174991800D-02  0.00000000000000000D+00  4.07043656025051500D-02
27  6 -3.90335439571126600D-02 -1.67082164539260500D-03 -2.21890466914705200D-02  0.00000000000000000D+00  0.00000000000000000D+00
27  7  2.62524044213826200D-03 -3.31033467449960600D-02 -4.10928074324504300D-02 -2.66991351316393200D-02 -9.77793469777804300D-02
27  8  0.00000000000000000D+00  3.07853816026454000D-02 -2.42036199367625400D-04  0.00000000000000000D+00  5.00469164394345200D-03
27  9 -4.95142155784392200D-03 -5.32700860994665200D-05  1.67392936878476700D-03  0.00000000000000000D+00  0.00000000000000000D+00
27 10  4.50346189905475400D-04  1.61409965144064200D-02  4.38330518423279200D-02  3.84158904171092200D-02  3.06965550028230900D-02
27 11  0.00000000000000000D+00  5.98798016090005100D-02  2.51827738161099600D-02  0.00000000000000000D+00  7.38981593821492900D-03
27 12 -7.35967804842523400D-03 -3.01378897895055400D-05  1.68062321764542500D-04  0.00000000000000000D+00  0.00000000000000000D+00
27 13 -4.50268719849948000D-04 -1.61403443590037100D-02 -4.38348896835127600D-02 -7.37007536181912300D-03 -4.86162011788913300D-02
27 14  0.00000000000000000D+00  8.13792394153198400D-03 -6.44478498252328800D-02  0.00000000000000000D+00  3.79718169327977500D-03
27 15 -3.82732545994059600D-03  3.01437666608020600D-05  7.29128472904705200D-03  0.00000000000000000D+00  0.00000000000000000D+00
27 16 -2.62520321393237100D-03  3.31014758845356200D-02  4.10933802645810200D-02  7.13168101450594400D-02  7.20171110262440400D-02
27 17  0.00000000000000000D+00  1.56016955343324600D-02 -2.65411318413966000D-02  0.00000000000000000D+00  3.71711121760991000D-03
27 18 -3.77036619002276900D-03  5.32549724130085600D-05  4.14152601967076800D-03  0.00000000000000000D+00  0.00000000000000000D+00
27 19  1.09048768161863600D-04 -8.47548048666260700D-03 -4.06642440129996100D-03  1.34000058024024700D-02  4.40284575479099400D-01
27 20  5.73266572424509800D-03  0.00000000000000000D+00  3.16004082618985800D-01  2.02486720207003100D-03  0.00000000000000000D+00
27 21  5.26110597296962300D-02  1.03755533650401800D-03  0.00000000000000000D+00 -1.03331086848753300D-03  7.29548399412030300D-04
27 22  3.03762469075387200D-04 -1.08135236587358500D-02  0.00000000000000000D+00  0.00000000000000000D+00 -6.28778066964045700D-03
27 23  4.53874995966690400D-03  1.74903070997353300D-03 -1.21318919454463900D-02  0.00000000000000000D+00  0.00000000000000000D+00
27 24 -1.09054058589549700D-04  8.47550187559302700D-03  4.06626250331909100D-03 -1.33997309256690600D-02  2.15218724341139800D-01
27 25 -3.84144243600303600D-01  0.00000000000000000D+00  1.56278258018443900D-01 -2.74665981842422000D-01  0.00000000000000000D+00
27 26  2.54120737178286000D-02 -4.60792938139324800D-02  0.00000000000000000D+00 -8.39983417014402700D-03  8.70361748513994800D-03
27 27 -3.03783314995946900D-04  4.52336393148990200D-03  0.00000000000000000D+00  0.00000000000000000D+00 -1.09310305194623800D-02
27 28  1.26800781374310100D-02 -1.74904761796866000D-03  6.49676626428430600D-04  0.00000000000000000D+00  0.00000000000000000D+00
27 29 -1.47383699046140100D-04 -7.53930381427421700D-03  3.66586078061749100D-04 -1.40818962670004400D-03  0.00000000000000000D+00
27 30 -2.92535287010708000D-02 -1.98144695783979200D-02  3.24565332402648600D-04 -2.18468884812492600D-04  0.00000000000000000D+00
27 31  2.92523101411146700D-02  1.98141972375236100D-02  3.51447628573372100D-04 -1.71886830986618800D-04  0.00000000000000000D+00
27 32  1.48838671967003200D-04  7.53988515351336700D-03  1.40274196563571800D-03  3.86857506746220000D-04  0.00000000000000000D+00
28  1 -1.01327465989474600D-03  4.11582728867673200D-02  6.37363100306898600D-02  2.15950808658644200D-01 -5.90751813543852100D-02
28  2  0.00000000000000000D+00  1.22187269443114100D-01 -5.31877379939810100D-02  0.00000000000000000D+00  5.36570676678113000D-03
28  3 -7.03272342230795100D-03  1.66701665552682200D-03 -5.52331720569595000D-02  0.00000000000000000D+00  0.00000000000000000D+00
28  4 -1.01330294110326600D-03  4.11590346572631900D-02  6.37369501662370800D-02 -1.59152304926777900D-01  1.57463462729323200D-01
28  5  0.00000000000000000D+00 -1.07161869080042700D-01  7.92113544563507500D-02  0.00000000000000000D+00  3.74977970552233200D-02
28  6 -3.91648303606843900D-02  1.66703330546094600D-03 -3.38062931927947500D-02  0.00000000000000000D+00  0.00000000000000000D+00
28  7  1.99241122053814700D-03 -6.44607072380545800D-02 -1.28788886670115200D-01  1.33480976585387500D-03 -1.63426460548903300D-01
28  8  0.00000000000000000D+00  5.08908045037686600D-02 -8.31490356094116600D-02  0.00000000000000000D+00  8.12109799403978900D-03
28  9 -7.74859713501571200D-03 -3.72500859024095000D-04 -1.11435488207124400D-02  0.00000000000000000D+00  0.00000000000000000D+00
28 10 -2.28743247993095900D-04  1.89271101776139300D-02  6.44748635992863100D-02  5.98126812573326200D-03  3.73986078107218600D-02
28 11  0.00000000000000000D+00  1.83549607838845600D-02  3.57087253630421600D-02  0.00000000000000000D+00  7.46875338026499900D-03
28 12 -7.13673235641722100D-03 -3.32021023847834100D-04 -7.29715010919556800D-03  0.00000000000000000D+00  0.00000000000000000D+00
28 13 -2.28629616386901700D-04  1.89266348576878100D-02  6.44752668397328800D-02  2.93948810543505600D-02  2.38820891971996300D-02
28 14  0.00000000000000000D+00  2.17433398331159300D-02  3.37542201315324000D-02  0.00000000000000000D+00  1.98950245254630500D-03
28 15 -1.65747674505919100D-03 -3.32025707487071400D-04 -1.09513688817358400D-02  0.00000000000000000D+00  0.00000000000000000D+00
28 16  1.99254634998409400D-03 -6.44599809991393100D-02 -1.28791163305264000D-01 -1.42189765306574600D-01 -8.05737007185828600D-02
28 17  0.00000000000000000D+00 -9.74548667193729800D-02  2.48968011508260600D-03  0.00000000000000000D+00  4.57924094315981800D-03
28 18 -4.20675780092721800D-03 -3.72483142232647400D-04 -1.35056047581000200D-02  0.00000000000000000D+00  0.00000000000000000D+00
28 19  7.95276143558651400D-05 -1.16168579820056800D-03  1.21476126452983700D-02  2.47648771282782600D-02 -3.79149899075001400D-01
28 20  3.57029856072735000D-02  0.00000000000000000D+00 -2.98805758529669000D-01  2.04089235945769800D-02  0.00000000000000000D+00
28 21 -6.08241024407968600D-02  2.61878709085223600D-03  0.00000000000000000D+00  2.43151703734018500D-04 -1.00583441438422200D-03
28 22  7.62682710650290600D-04  4.35885657099810400D-03  0.00000000000000000D+00  0.00000000000000000D+00 -1.31306607192969400D-03
28 23  2.98211269161562100D-04  1.01485480276822100D-03  1.10466067245468900D-02  0.00000000000000000D+00  0.00000000000000000D+00
28 24  7.95657647150013100D-05 -1.16173894701577000D-03  1.21471366572561100D-02  2.47642108698541100D-02  2.20522712186862800D-01
28 25 -3.10473906337376100D-01  0.00000000000000000D+00  1.67100521574815400D-01 -2.48547999920912700D-01  0.00000000000000000D+00
28 26  3.26852621529817500D-02 -5.13618807534658600D-02  0.00000000000000000D+00 -3.96297541539835000D-03  3.20025996869322800D-03
28 27  7.62715446705178200D-04  1.55403827583142600D-03  0.00000000000000000D+00  0.00000000000000000D+00 -8.39024333777493000D-03
28 28  7.37546236963688500D-03  1.01478096813810400D-03  6.32688871010666500D-03  0.00000000000000000D+00  0.00000000000000000D+00
28 29  5.21165141521695200D-02  2.62956128341263200D-02 -4.69080965924161400D-04 -1.10886887539195300D-03  0.00000000000000000D+00
28 30 -3.50039958756895300D-02 -2.27709329800016000D-02 -1.13168085341783000D-03 -4.74881345921894400D-04  0.00000000000000000D+00
28 31 -3.50052832761756400D-02 -2.27722107297397000D-02  1.54667413589267100D-04 -1.21751516932277100D-03  0.00000000000000000D+00
28 32  5.21174820140248600D-02  2.62964396559559000D-02 -7.25655025640716900D-04 -9.60906123412595100D-04  0.00000000000000000D+00
29  1  0.00000000000000000D+00  0.00000000000000000D+00  0.00000000000000000D+00  0.00000000000000000D+00  0.00000000000000000D+00
29  2 -2.84308276229054200D-01  0.00000000000000000D+00  0.00000000000000000D+00 -2.78524091971279000D-01  0.00000000000000000D+00
29  3  0.00000000000000000D+00  0.00000000000000000D+00  0.00000000000000000D+00 -8.95197022677593800D-03  3.89411612182188200D-02
29  4  0.00000000000000000D+00  0.00000000000000000D+00  0.00000000000000000D+00  0.00000000000000000D+00  0.00000000000000000D+00
29  5 -2.84300540443449200D-01  0.00000000000000000D+00  0.00000000000000000D+00 -2.78517783972279700D-01  0.00000000000000000D+00
29  6  0.00000000000000000D+00  0.00000000000000000D+00  0.00000000000000000D+00  3.81991811568996700D-02  1.17220397898736900D-02
29  7  0.00000000000000000D+00  0.00000000000000000D+00  0.00000000000000000D+00  0.00000000000000000D+00  0.00000000000000000D+00
29  8 -7.70539986782526500D-02  0.00000000000000000D+00  0.00000000000000000D+00 -6.43867513185207600D-02  0.00000000000000000D+00
29  9  0.00000000000000000D+00  0.00000000000000000D+00  0.00000000000000000D+00 -7.24501201293063700D-03 -2.26378262532317400D-02
29 10  0.00000000000000000D+00  0.00000000000000000D+00  0.00000000000000000D+00  0.00000000000000000D+00  0.00000000000000000D+00
29 11  1.49522764458152000D-01  0.00000000000000000D+00  0.00000000000000000D+00  1.44935013815909800D-01  0.00000000000000000D+00
29 12  0.00000000000000000D+00  0.00000000000000000D+00  0.00000000000000000D+00 -1.08843992876580200D-02  1.50662772921409100D-03
29 13  0.00000000000000000D+00  0.00000000000000000D+00  0.00000000000000000D+00  0.00000000000000000D+00  0.00000000000000000D+00
29 14  1.49523365330323800D-01  0.00000000000000000D+00  0.00000000000000000D+00  1.44936054004462800D-01  0.00000000000000000D+00
29 15  0.00000000000000000D+00  0.00000000000000000D+00  0.00000000000000000D+00  6.74767173339812200D-03 -8.67217270976596700D-03
29 16  0.00000000000000000D+00  0.00000000000000000D+00  0.00000000000000000D+00  0.00000000000000000D+00  0.00000000000000000D+00
29 17 -7.70509193987772700D-02  0.00000000000000000D+00  0.00000000000000000D+00 -6.43849202972830400D-02  0.00000000000000000D+00
29 18  0.00000000000000000D+00  0.00000000000000000D+00  0.00000000000000000D+00 -1.59808698784358400D-02 -1.75955527053754900D-02
29 19  0.00000000000000000D+00  0.00000000000000000D+00  0.00000000000000000D+00  0.00000000000000000D+00  0.00000000000000000D+00
29 20  0.00000000000000000D+00  3.14299942624060900D-01  0.00000000000000000D+00  0.00000000000000000D+00  2.69777820377980900D-01
29 21  0.00000000000000000D+00  0.00000000000000000D+00  5.46103769299398700D-02  0.00000000000000000D+00  0.00000000000000000D+00
29 22  0.00000000000000000D+00  0.00000000000000000D+00 -3.17438264375633400D-04  3.20390152028217600D-03  0.00000000000000000D+00
29 23  0.00000000000000000D+00  0.00000000000000000D+00  0.00000000000000000D+00  2.03462897550901800D-03 -5.13349084641325600D-03
29 24  0.00000000000000000D+00  0.00000000000000000D+00  0.00000000000000000D+00  0.00000000000000000D+00  0.00000000000000000D+00
29 25  0.00000000000000000D+00  3.14295759574085400D-01  0.00000000000000000D+00  0.00000000000000000D+00  2.69775848560745000D-01
29 26  0.00000000000000000D+00  0.00000000000000000D+00  5.46105632589612400D-02  0.00000000000000000D+00  0.00000000000000000D+00
29 27  0.00000000000000000D+00  0.00000000000000000D+00  2.93307102820780600D-03  1.32723551736464500D-03  0.00000000000000000D+00
29 28  0.00000000000000000D+00  0.00000000000000000D+00  0.00000000000000000D+00 -5.46313733089492100D-03 -8.05353090630721600D-04
29 29  0.00000000000000000D+00  0.00000000000000000D+00  0.00000000000000000D+00  0.00000000000000000D+00 -2.38728420919990400D-03
29 30  0.00000000000000000D+00  0.00000000000000000D+00  0.00000000000000000D+00  0.00000000000000000D+00  6.19542388101048000D-03
29 31  0.00000000000000000D+00  0.00000000000000000D+00  0.00000000000000000D+00  0.00000000000000000D+00  6.19540747564455500D-03
29 32  0.00000000000000000D+00  0.00000000000000000D+00  0.00000000000000000D+00  0.00000000000000000D+00 -2.38716081023249700D-03
30  1  0.00000000000000000D+00  0.00000000000000000D+00  0.00000000000000000D+00  0.00000000000000000D+00  0.00000000000000000D+00
30  2  4.05330569038661000D-01  0.00000000000000000D+00  0.00000000000000000D+00  4.66491150895036300D-01  0.00000000000000000D+00
30  3  0.00000000000000000D+00  0.00000000000000000D+00  0.00000000000000000D+00 -1.77996248606456700D-02  1.03597427730352000D-02
30  4  0.00000000000000000D+00  0.00000000000000000D+00  0.00000000000000000D+00  0.00000000000000000D+00  0.00000000000000000D+00
30  5 -4.05332488429073800D-01  0.00000000000000000D+00  0.00000000000000000D+00 -4.66493578188733900D-01  0.00000000000000000D+00
30  6  0.00000000000000000D+00  0.00000000000000000D+00  0.00000000000000000D+00 -1.78710331029986100D-02  1.02345227141126400D-02
30  7  0.00000000000000000D+00  0.00000000000000000D+00  0.00000000000000000D+00  0.00000000000000000D+00  0.00000000000000000D+00
30  8  1.18631352914755100D-02  0.00000000000000000D+00  0.00000000000000000D+00  7.28210260509193400D-02  0.00000000000000000D+00
30  9  0.00000000000000000D+00  0.00000000000000000D+00  0.00000000000000000D+00 -1.70288139071868400D-02 -2.92208282802045800D-02
30 10  0.00000000000000000D+00  0.00000000000000000D+00  0.00000000000000000D+00  0.00000000000000000D+00  0.00000000000000000D+00
30 11  1.45333253819162600D-01  0.00000000000000000D+00  0.00000000000000000D+00  1.88267018768812400D-01  0.00000000000000000D+00
30 12  0.00000000000000000D+00  0.00000000000000000D+00  0.00000000000000000D+00  1.08886927224510000D-02 -1.38490914829642600D-03
30 13  0.00000000000000000D+00  0.00000000000000000D+00  0.00000000000000000D+00  0.00000000000000000D+00  0.00000000000000000D+00
30 14 -1.45327282798852700D-01  0.00000000000000000D+00  0.00000000000000000D+00 -1.88259210539909500D-01  0.00000000000000000D+00
30 15  0.00000000000000000D+00  0.00000000000000000D+00  0.00000000000000000D+00  6.64497006993897500D-03 -8.73743384268881700D-03
30 16  0.00000000000000000D+00  0.00000000000000000D+00  0.00000000000000000D+00  0.00000000000000000D+00  0.00000000000000000D+00
30 17 -1.18710356531460300D-02  0.00000000000000000D+00  0.00000000000000000D+00 -7.28265736233410500D-02  0.00000000000000000D+00
30 18  0.00000000000000000D+00  0.00000000000000000D+00  0.00000000000000000D+00  1.67879585689450500D-02  2.93593901283028000D-02
30 19  0.00000000000000000D+00  0.00000000000000000D+00  0.00000000000000000D+00  0.00000000000000000D+00  0.00000000000000000D+00
30 20  0.00000000000000000D+00 -3.49612509804585600D-01  0.00000000000000000D+00  0.00000000000000000D+00 -1.94442084084630800D-01
30 21  0.00000000000000000D+00  0.00000000000000000D+00  1.79933152535775800D-02  0.00000000000000000D+00  0.00000000000000000D+00
30 22  0.00000000000000000D+00  0.00000000000000000D+00  9.55668791944899300D-04 -1.21774544394785100D-02  0.00000000000000000D+00
30 23  0.00000000000000000D+00  0.00000000000000000D+00  0.00000000000000000D+00  4.53135094442772900D-03 -3.14578661163365500D-02
30 24  0.00000000000000000D+00  0.00000000000000000D+00  0.00000000000000000D+00  0.00000000000000000D+00  0.00000000000000000D+00
30 25  0.00000000000000000D+00  3.49613384287539300D-01  0.00000000000000000D+00  0.00000000000000000D+00  1.94447010176963800D-01
30 26  0.00000000000000000D+00  0.00000000000000000D+00 -1.79888577057099200D-02  0.00000000000000000D+00  0.00000000000000000D+00
30 27  0.00000000000000000D+00  0.00000000000000000D+00  1.10233006335105400D-02  5.26221502155534000D-03  0.00000000000000000D+00
30 28  0.00000000000000000D+00  0.00000000000000000D+00  0.00000000000000000D+00  2.95067933997470400D-02  1.18072664357705000D-02
30 29  0.00000000000000000D+00  0.00000000000000000D+00  0.00000000000000000D+00  0.00000000000000000D+00  7.16003338019403500D-04
30 30  0.00000000000000000D+00  0.00000000000000000D+00  0.00000000000000000D+00  0.00000000000000000D+00  5.63271294424475500D-03
30 31  0.00000000000000000D+00  0.00000000000000000D+00  0.00000000000000000D+00  0.00000000000000000D+00 -5.63243652357849600D-03
30 32  0.00000000000000000D+00  0.00000000000000000D+00  0.00000000000000000D+00  0.00000000000000000D+00 -7.16276834461500300D-04
31  1  0.00000000000000000D+00  0.00000000000000000D+00  0.00000000000000000D+00  0.00000000000000000D+00  0.00000000000000000D+00
31  2 -1.02668326225040000D-01  0.00000000000000000D+00  0.00000000000000000D+00 -9.60711587589589400D-02  0.00000000000000000D+00
31  3  0.00000000000000000D+00  0.00000000000000000D+00  0.00000000000000000D+00 -4.90304809068098000D-02 -1.36519617499404000D-01
31  4  0.00000000000000000D+00  0.00000000000000000D+00  0.00000000000000000D+00  0.00000000000000000D+00  0.00000000000000000D+00
31  5 -1.02682046036829600D-01  0.00000000000000000D+00  0.00000000000000000D+00 -9.60757208281386300D-02  0.00000000000000000D+00
31  6  0.00000000000000000D+00  0.00000000000000000D+00  0.00000000000000000D+00 -9.37017928165462500D-02 -1.10730314616056500D-01
31  7  0.00000000000000000D+00  0.00000000000000000D+00  0.00000000000000000D+00  0.00000000000000000D+00  0.00000000000000000D+00
31  8  2.99176926598633000D-01  0.00000000000000000D+00  0.00000000000000000D+00  3.56176525147752900D-01  0.00000000000000000D+00
31  9  0.00000000000000000D+00  0.00000000000000000D+00  0.00000000000000000D+00 -1.35306173781505700D-03  1.32654030902595200D-02
31 10  0.00000000000000000D+00  0.00000000000000000D+00  0.00000000000000000D+00  0.00000000000000000D+00  0.00000000000000000D+00
31 11 -2.22417886641448000D-01  0.00000000000000000D+00  0.00000000000000000D+00 -2.05536804923144600D-01  0.00000000000000000D+00
31 12  0.00000000000000000D+00  0.00000000000000000D+00  0.00000000000000000D+00  2.40920344879937500D-02  7.67275093888880900D-03
31 13  0.00000000000000000D+00  0.00000000000000000D+00  0.00000000000000000D+00  0.00000000000000000D+00  0.00000000000000000D+00
31 14 -2.22418086258983300D-01  0.00000000000000000D+00  0.00000000000000000D+00 -2.05542350774193100D-01  0.00000000000000000D+00
31 15  0.00000000000000000D+00  0.00000000000000000D+00  0.00000000000000000D+00 -5.40310496809567500D-03  2.47003796826744100D-02
31 16  0.00000000000000000D+00  0.00000000000000000D+00  0.00000000000000000D+00  0.00000000000000000D+00  0.00000000000000000D+00
31 17  2.99171787808741500D-01  0.00000000000000000D+00  0.00000000000000000D+00  3.56177988868527300D-01  0.00000000000000000D+00
31 18  0.00000000000000000D+00  0.00000000000000000D+00  0.00000000000000000D+00  1.21651357108838300D-02  5.46378450315621700D-03
31 19  0.00000000000000000D+00  0.00000000000000000D+00  0.00000000000000000D+00  0.00000000000000000D+00  0.00000000000000000D+00
31 20  0.00000000000000000D+00  3.28075408841706500D-01  0.00000000000000000D+00  0.00000000000000000D+00 -5.42021269922250800D-02
31 21  0.00000000000000000D+00  0.00000000000000000D+00 -1.52184114179871700D-01  0.00000000000000000D+00  0.00000000000000000D+00
31 22  0.00000000000000000D+00  0.00000000000000000D+00  2.74614624894679800D-03  8.81480575600956400D-03  0.00000000000000000D+00
31 23  0.00000000000000000D+00  0.00000000000000000D+00  0.00000000000000000D+00  1.86688122869801300D-03  1.17080940827662500D-01
31 24  0.00000000000000000D+00  0.00000000000000000D+00  0.00000000000000000D+00  0.00000000000000000D+00  0.00000000000000000D+00
31 25  0.00000000000000000D+00  3.28080940793820800D-01  0.00000000000000000D+00  0.00000000000000000D+00 -5.41985487107263700D-02
31 26  0.00000000000000000D+00  0.00000000000000000D+00 -1.52180743241015700D-01  0.00000000000000000D+00  0.00000000000000000D+00
31 27  0.00000000000000000D+00  0.00000000000000000D+00  6.26031396385350900D-03  6.78629685009318000D-03  0.00000000000000000D+00
31 28  0.00000000000000000D+00  0.00000000000000000D+00  0.00000000000000000D+00  1.00456272010752600D-01  6.01679005621563200D-02
31 29  0.00000000000000000D+00  0.00000000000000000D+00  0.00000000000000000D+00  0.00000000000000000D+00  1.07408886736840700D-02
31 30  0.00000000000000000D+00  0.00000000000000000D+00  0.00000000000000000D+00  0.00000000000000000D+00 -8.30236952481824500D-03
31 31  0.00000000000000000D+00  0.00000000000000000D+00  0.00000000000000000D+00  0.00000000000000000D+00 -8.30229609109226800D-03
31 32  0.00000000000000000D+00  0.00000000000000000D+00  0.00000000000000000D+00  0.00000000000000000D+00  1.07405302424347200D-02
32  1  0.00000000000000000D+00  0.00000000000000000D+00  0.00000000000000000D+00  0.00000000000000000D+00  0.00000000000000000D+00
32  2  1.90532502643913400D-02  0.00000000000000000D+00  0.00000000000000000D+00  1.44294913660044900D-01  0.00000000000000000D+00
32  3  0.00000000000000000D+00  0.00000000000000000D+00  0.00000000000000000D+00  5.60898038751636100D-02  1.65401974694717600D-01
32  4  0.00000000000000000D+00  0.00000000000000000D+00  0.00000000000000000D+00  0.00000000000000000D+00  0.00000000000000000D+00
32  5 -1.90739056516542400D-02  0.00000000000000000D+00  0.00000000000000000D+00 -1.44300618677171900D-01  0.00000000000000000D+00
32  6  0.00000000000000000D+00  0.00000000000000000D+00  0.00000000000000000D+00 -1.15169825948574100D-01 -1.31281198626719700D-01
32  7  0.00000000000000000D+00  0.00000000000000000D+00  0.00000000000000000D+00  0.00000000000000000D+00  0.00000000000000000D+00
32  8  3.14914178060447900D-01  0.00000000000000000D+00  0.00000000000000000D+00  3.05569169998017300D-01  0.00000000000000000D+00
32  9  0.00000000000000000D+00  0.00000000000000000D+00  0.00000000000000000D+00  2.58160329596373900D-02  3.32098938720163000D-02
32 10  0.00000000000000000D+00  0.00000000000000000D+00  0.00000000000000000D+00  0.00000000000000000D+00  0.00000000000000000D+00
32 11 -3.52271287027133700D-01  0.00000000000000000D+00  0.00000000000000000D+00 -4.54620103151555000D-01  0.00000000000000000D+00
32 12  0.00000000000000000D+00  0.00000000000000000D+00  0.00000000000000000D+00 -2.46898183436127600D-02  2.20832216037969200D-02
32 13  0.00000000000000000D+00  0.00000000000000000D+00  0.00000000000000000D+00  0.00000000000000000D+00  0.00000000000000000D+00
32 14  3.52267828299839800D-01  0.00000000000000000D+00  0.00000000000000000D+00  4.54620457597684800D-01  0.00000000000000000D+00
32 15  0.00000000000000000D+00  0.00000000000000000D+00  0.00000000000000000D+00 -3.14697285950059100D-02  1.03386700482606000D-02
32 16  0.00000000000000000D+00  0.00000000000000000D+00  0.00000000000000000D+00  0.00000000000000000D+00  0.00000000000000000D+00
32 17 -3.14899176545300800D-01  0.00000000000000000D+00  0.00000000000000000D+00 -3.05573623615470200D-01  0.00000000000000000D+00
32 18  0.00000000000000000D+00  0.00000000000000000D+00  0.00000000000000000D+00 -1.58499623375090700D-02 -3.89639866951142700D-02
32 19  0.00000000000000000D+00  0.00000000000000000D+00  0.00000000000000000D+00  0.00000000000000000D+00  0.00000000000000000D+00
32 20  0.00000000000000000D+00 -2.75074033084037600D-01  0.00000000000000000D+00  0.00000000000000000D+00  1.04584681342453600D-01
32 21  0.00000000000000000D+00  0.00000000000000000D+00  1.81288206598789900D-01  0.00000000000000000D+00  0.00000000000000000D+00
32 22  0.00000000000000000D+00  0.00000000000000000D+00 -1.37865283862197700D-03 -1.61717927222425300D-02  0.00000000000000000D+00
32 23  0.00000000000000000D+00  0.00000000000000000D+00  0.00000000000000000D+00 -1.78954983411658200D-02 -9.86532785795229000D-02
32 24  0.00000000000000000D+00  0.00000000000000000D+00  0.00000000000000000D+00  0.00000000000000000D+00  0.00000000000000000D+00
32 25  0.00000000000000000D+00  2.75054732749350100D-01  0.00000000000000000D+00  0.00000000000000000D+00 -1.04570065050669600D-01
32 26  0.00000000000000000D+00  0.00000000000000000D+00 -1.81269830471594600D-01  0.00000000000000000D+00  0.00000000000000000D+00
32 27  0.00000000000000000D+00  0.00000000000000000D+00  1.33143031931860700D-02  9.28100274181094100D-03  0.00000000000000000D+00
32 28  0.00000000000000000D+00  0.00000000000000000D+00  0.00000000000000000D+00  7.64701413145977700D-02  6.48279958595132000D-02
32 29  0.00000000000000000D+00  0.00000000000000000D+00  0.00000000000000000D+00  0.00000000000000000D+00  1.04535132061987500D-02
32 30  0.00000000000000000D+00  0.00000000000000000D+00  0.00000000000000000D+00  0.00000000000000000D+00 -9.86991838644727700D-03
32 31  0.00000000000000000D+00  0.00000000000000000D+00  0.00000000000000000D+00  0.00000000000000000D+00  9.86978352078581600D-03
32 32  0.00000000000000000D+00  0.00000000000000000D+00  0.00000000000000000D+00  0.00000000000000000D+00 -1.04527994302632500D-02
33  1  0.00000000000000000D+00  0.00000000000000000D+00  0.00000000000000000D+00  0.00000000000000000D+00  0.00000000000000000D+00
33  2 -3.21622294678724700D-01  0.00000000000000000D+00  0.00000000000000000D+00 -1.17595892042802200D-01  0.00000000000000000D+00
33  3  0.00000000000000000D+00  0.00000000000000000D+00  0.00000000000000000D+00 -4.62323132475838100D-02  2.81950835536834400D-01
33  4  0.00000000000000000D+00  0.00000000000000000D+00  0.00000000000000000D+00  0.00000000000000000D+00  0.00000000000000000D+00
33  5 -3.21605967480740700D-01  0.00000000000000000D+00  0.00000000000000000D+00 -1.17602850855446900D-01  0.00000000000000000D+00
33  6  0.00000000000000000D+00  0.00000000000000000D+00  0.00000000000000000D+00  2.67283714030447800D-01  1.00971723535265500D-01
33  7  0.00000000000000000D+00  0.00000000000000000D+00  0.00000000000000000D+00  0.00000000000000000D+00  0.00000000000000000D+00
33  8  1.72701565577151700D-01  0.00000000000000000D+00  0.00000000000000000D+00  2.19233843938157800D-01  0.00000000000000000D+00
33  9  0.00000000000000000D+00  0.00000000000000000D+00  0.00000000000000000D+00  4.31448804332985400D-02  1.16296743781633000D-03
33 10  0.00000000000000000D+00  0.00000000000000000D+00  0.00000000000000000D+00  0.00000000000000000D+00  0.00000000000000000D+00
33 11 -9.86659225962048400D-02  0.00000000000000000D+00  0.00000000000000000D+00 -1.23143369256624000D-01  0.00000000000000000D+00
33 12  0.00000000000000000D+00  0.00000000000000000D+00  0.00000000000000000D+00  3.02420849559748100D-02  5.23978682141829600D-02
33 13  0.00000000000000000D+00  0.00000000000000000D+00  0.00000000000000000D+00  0.00000000000000000D+00  0.00000000000000000D+00
33 14 -9.86892073963173100D-02  0.00000000000000000D+00  0.00000000000000000D+00 -1.23183319456517400D-01  0.00000000000000000D+00
33 15  0.00000000000000000D+00  0.00000000000000000D+00  0.00000000000000000D+00  3.02540216223029500D-02  5.23932044964937300D-02
33 16  0.00000000000000000D+00  0.00000000000000000D+00  0.00000000000000000D+00  0.00000000000000000D+00  0.00000000000000000D+00
33 17  1.72723711779684200D-01  0.00000000000000000D+00  0.00000000000000000D+00  2.19256173296568900D-01  0.00000000000000000D+00
33 18  0.00000000000000000D+00  0.00000000000000000D+00  0.00000000000000000D+00 -2.05697640565383700D-02  3.79474747918865300D-02
33 19  0.00000000000000000D+00  0.00000000000000000D+00  0.00000000000000000D+00  0.00000000000000000D+00  0.00000000000000000D+00
33 20  0.00000000000000000D+00 -3.27756664835592200D-01  0.00000000000000000D+00  0.00000000000000000D+00  2.41731440325448100D-01
33 21  0.00000000000000000D+00  0.00000000000000000D+00  2.16859481909323900D-01  0.00000000000000000D+00  0.00000000000000000D+00
33 22  0.00000000000000000D+00  0.00000000000000000D+00  5.30303147778371100D-03 -1.80256509132682400D-02  0.00000000000000000D+00
33 23  0.00000000000000000D+00  0.00000000000000000D+00  0.00000000000000000D+00  2.42300018802615800D-02 -2.13170637649037700D-01
33 24  0.00000000000000000D+00  0.00000000000000000D+00  0.00000000000000000D+00  0.00000000000000000D+00  0.00000000000000000D+00
33 25  0.00000000000000000D+00 -3.27766693072888900D-01  0.00000000000000000D+00  0.00000000000000000D+00  2.41737846150716000D-01
33 26  0.00000000000000000D+00  0.00000000000000000D+00  2.16864043355192400D-01  0.00000000000000000D+00  0.00000000000000000D+00
33 27  0.00000000000000000D+00  0.00000000000000000D+00 -1.82621615661335300D-02 -4.42246789869566400D-03  0.00000000000000000D+00
33 28  0.00000000000000000D+00  0.00000000000000000D+00  0.00000000000000000D+00 -1.96720748312108000D-01 -8.56242221157718900D-02
33 29  0.00000000000000000D+00  0.00000000000000000D+00  0.00000000000000000D+00  0.00000000000000000D+00  7.49410134320213300D-03
33 30  0.00000000000000000D+00  0.00000000000000000D+00  0.00000000000000000D+00  0.00000000000000000D+00 -2.91681076358128700D-03
33 31  0.00000000000000000D+00  0.00000000000000000D+00  0.00000000000000000D+00  0.00000000000000000D+00 -2.91780595381596000D-03
33 32  0.00000000000000000D+00  0.00000000000000000D+00  0.00000000000000000D+00  0.00000000000000000D+00  7.49500316772386000D-03
34  1  2.95280129494689200D-02 -2.29711200397793900D-01 -2.30517579457042500D+00 -1.15504459296881100D-01  2.19225739475852700D-01
34  2  0.00000000000000000D+00 -1.12983083386120500D+00  7.18149278699022200D-01  0.00000000000000000D+00  7.71567819341672400D-02
34  3  2.59043312793913000D-02 -1.03061113213558200D-01  2.28610985936848800D-02  0.00000000000000000D+00  0.00000000000000000D+00
34  4 -2.95270521610882000D-02  2.29713774413131800D-01  2.30520295086578800D+00 -2.47606682990727700D-01 -9.61414827760908400D-03
34  5  0.00000000000000000D+00 -1.18691307776881700D+00  6.19247061141115500D-01  0.00000000000000000D+00 -2.15736498243466500D-02
34  6 -8.14864652910276400D-02  1.03060115115373900D-01  1.42041929731498700D-02  0.00000000000000000D+00  0.00000000000000000D+00
34  7  1.83167054931785400D-02 -1.01558805965929700D-01 -7.45441776953184100D-01 -5.14837983297918200D-02 -2.24445689608098600D-01
34  8  0.00000000000000000D+00  4.79065862849424300D-01 -1.43820113179199200D-01  0.00000000000000000D+00  5.66061291022736200D-02
34  9  7.43028166178472500D-02 -1.30908945720121000D-01 -1.26536821084346400D-02  0.00000000000000000D+00  0.00000000000000000D+00
34 10  1.32463620330551600D-02  1.12238542116760200D-02  1.33326454888090100D-01  1.00922918525593600D-01 -1.77673012949275200D-02
34 11  0.00000000000000000D+00  4.03894325927608300D-01 -2.26740221598302100D-02  0.00000000000000000D+00  2.77971663730258000D-02
34 12  3.76133682752665100D-03 -3.15585032005532400D-02 -1.93054938255490800D-02  0.00000000000000000D+00  0.00000000000000000D+00
34 13 -1.32454807469596400D-02 -1.12228465466034100D-02 -1.33359936421523400D-01  6.58564638185986800D-02 -7.85106369982047800D-02
34 14  0.00000000000000000D+00  2.21620380598093400D-01 -3.38438906693976700D-01  0.00000000000000000D+00 -2.42514932847174900D-02
34 15 -7.30556779076688800D-03  3.15570610754840000D-02  2.16694956236684200D-02  0.00000000000000000D+00  0.00000000000000000D+00
34 16 -1.83155456080525500D-02  1.01558345420612000D-01  7.45451676365417800D-01  1.68611609775074800D-01  1.56827456588141800D-01
34 17  0.00000000000000000D+00  3.64105430993189300D-01 -3.42954915247638400D-01  0.00000000000000000D+00 -7.93669431398759700D-02
34 18 -5.15390683855343000D-02  1.30906011525410400D-01 -2.52500405075124000D-03  0.00000000000000000D+00  0.00000000000000000D+00
34 19 -8.38405948462190100D-03  3.31621873050000300D-02  1.90702174824146000D-01 -9.67273202647195700D-02  2.56642666905365800D-02
34 20 -9.41076347887865900D-02  0.00000000000000000D+00  1.88634230976696200D-01 -1.86984990390410000D-01  0.00000000000000000D+00
34 21  9.68972938294497100D-02  1.86583432453217800D-02  0.00000000000000000D+00  5.99991396228324200D-03 -6.96583551304175600D-04
34 22 -5.30333041097855100D-03  5.28165546740750200D-03  0.00000000000000000D+00  0.00000000000000000D+00 -4.50907900814104700D-02
34 23  4.22185919217189300D-02  2.87219815969172600D-03  6.49976774674894600D-03  0.00000000000000000D+00  0.00000000000000000D+00
34 24  8.38410803328661100D-03 -3.31611515163930000D-02 -1.90701560957374600D-01  9.67207345240440900D-02  9.43276992050305900D-02
34 25  2.48346937074122000D-02  0.00000000000000000D+00  2.56256986406234100D-01 -6.98407210825285200D-02  0.00000000000000000D+00
34 26  3.22993398308486200D-02 -9.32351962925073700D-02  0.00000000000000000D+00  2.98318620400411100D-03 -8.28681335639703200D-03
34 27  5.30362715239303300D-03  7.08951376951897200D-04  0.00000000000000000D+00  0.00000000000000000D+00 -1.55075223199394400D-02
34 28  1.83800875325325800D-02 -2.87256521259324200D-03 -4.69104474491672800D-02  0.00000000000000000D+00  0.00000000000000000D+00
34 29  5.33551527038939600D-02 -2.66955065510689600D-02  1.76480559777309200D-03 -1.29369609518545700D-02  0.00000000000000000D+00
34 30 -3.95298546131700600D-02 -8.08558970801361200D-02 -5.48785359571307000D-04 -8.50708315526718400D-04  0.00000000000000000D+00
34 31  3.95303248208894800D-02  8.08578189937771800D-02  4.61775048099009200D-04  9.00420021410932500D-04  0.00000000000000000D+00
34 32 -5.33533914280929300D-02  2.66956717835766200D-02  1.20858759926331600D-02  4.94191056616911400D-03  0.00000000000000000D+00
35  1  0.00000000000000000D+00  0.00000000000000000D+00  0.00000000000000000D+00  0.00000000000000000D+00  0.00000000000000000D+00
35  2  4.11444419254691600D-01  0.00000000000000000D+00  0.00000000000000000D+00  7.94276307352947400D-02  0.00000000000000000D+00
35  3  0.00000000000000000D+00  0.00000000000000000D+00  0.00000000000000000D+00 -9.21092346697160600D-02 -3.47897575316018600D-01
35  4  0.00000000000000000D+00  0.00000000000000000D+00  0.00000000000000000D+00  0.00000000000000000D+00  0.00000000000000000D+00
35  5 -4.11444005453380800D-01  0.00000000000000000D+00  0.00000000000000000D+00 -7.94396338672002700D-02  0.00000000000000000D+00
35  6  0.00000000000000000D+00  0.00000000000000000D+00  0.00000000000000000D+00  2.55220517383168500D-01  2.53741645630623600D-01
35  7  0.00000000000000000D+00  0.00000000000000000D+00  0.00000000000000000D+00  0.00000000000000000D+00  0.00000000000000000D+00
35  8  1.17121283780477300D-01  0.00000000000000000D+00  0.00000000000000000D+00  2.71975436086994800D-01  0.00000000000000000D+00
35  9  0.00000000000000000D+00  0.00000000000000000D+00  0.00000000000000000D+00 -3.56705241124064100D-03 -5.88183936391634100D-02
35 10  0.00000000000000000D+00  0.00000000000000000D+00  0.00000000000000000D+00  0.00000000000000000D+00  0.00000000000000000D+00
35 11 -2.00743966256731400D-01  0.00000000000000000D+00  0.00000000000000000D+00 -2.52627549712685900D-01  0.00000000000000000D+00
35 12  0.00000000000000000D+00  0.00000000000000000D+00  0.00000000000000000D+00  4.59823733518020500D-02  1.04965825823395200D-01
35 13  0.00000000000000000D+00  0.00000000000000000D+00  0.00000000000000000D+00  0.00000000000000000D+00  0.00000000000000000D+00
35 14  2.00736264378445100D-01  0.00000000000000000D+00  0.00000000000000000D+00  2.52637887321146300D-01  0.00000000000000000D+00
35 15  0.00000000000000000D+00  0.00000000000000000D+00  0.00000000000000000D+00 -6.78990215288001900D-02 -9.23107411423492000D-02
35 16  0.00000000000000000D+00  0.00000000000000000D+00  0.00000000000000000D+00  0.00000000000000000D+00  0.00000000000000000D+00
35 17 -1.17123897541165900D-01  0.00000000000000000D+00  0.00000000000000000D+00 -2.71978842227946800D-01  0.00000000000000000D+00
35 18  0.00000000000000000D+00  0.00000000000000000D+00  0.00000000000000000D+00  4.91530930147180700D-02  3.25017104660106900D-02
35 19  0.00000000000000000D+00  0.00000000000000000D+00  0.00000000000000000D+00  0.00000000000000000D+00  0.00000000000000000D+00
35 20  0.00000000000000000D+00  2.95752510792332900D-01  0.00000000000000000D+00  0.00000000000000000D+00 -2.22404738676400700D-01
35 21  0.00000000000000000D+00  0.00000000000000000D+00 -2.27703536880156600D-01  0.00000000000000000D+00  0.00000000000000000D+00
35 22  0.00000000000000000D+00  0.00000000000000000D+00  6.61776559577422400D-03  2.22694793890796100D-02  0.00000000000000000D+00
35 23  0.00000000000000000D+00  0.00000000000000000D+00  0.00000000000000000D+00  4.79356386456196100D-02  1.58628576575962000D-01
35 24  0.00000000000000000D+00  0.00000000000000000D+00  0.00000000000000000D+00  0.00000000000000000D+00  0.00000000000000000D+00
35 25  0.00000000000000000D+00 -2.95765847323497700D-01  0.00000000000000000D+00  0.00000000000000000D+00  2.22417060661348800D-01
35 26  0.00000000000000000D+00  0.00000000000000000D+00  2.27711086366026100D-01  0.00000000000000000D+00  0.00000000000000000D+00
35 27  0.00000000000000000D+00  0.00000000000000000D+00 -1.59765228700775700D-02 -1.68675657703360900D-02  0.00000000000000000D+00
35 28  0.00000000000000000D+00  0.00000000000000000D+00  0.00000000000000000D+00 -1.13404218392801200D-01 -1.20842198504325500D-01
35 29  0.00000000000000000D+00  0.00000000000000000D+00  0.00000000000000000D+00  0.00000000000000000D+00  1.81941836875704600D-02
35 30  0.00000000000000000D+00  0.00000000000000000D+00  0.00000000000000000D+00  0.00000000000000000D+00 -8.98267842841370500D-03
35 31  0.00000000000000000D+00  0.00000000000000000D+00  0.00000000000000000D+00  0.00000000000000000D+00  8.98289222005420500D-03
35 32  0.00000000000000000D+00  0.00000000000000000D+00  0.00000000000000000D+00  0.00000000000000000D+00 -1.81943116305565900D-02
36  1  2.97263745237552000D-02  3.44197049991620900D-02 -5.28004885286349100D-02 -2.60141232854351600D-01 -7.44552267245362900D-04
36  2  0.00000000000000000D+00 -3.89438490765643500D+00 -1.72395015270714600D+00  0.00000000000000000D+00  1.21065678218038100D-02
36  3  8.11351686974198100D-02 -9.32417365192247100D-02  8.28762279317950500D-02  0.00000000000000000D+00  0.00000000000000000D+00
36  4 -2.97235696429248300D-02 -3.44150564741329700D-02  5.28514881282880800D-02 -1.29459848974493800D-01  2.25658806499722300D-01
36  5  0.00000000000000000D+00 -4.54620804661448300D-01  4.23451865460007100D+00  0.00000000000000000D+00 -1.70254597119008400D-03
36  6 -9.15282534440698500D-02  9.32307994152610000D-02 -7.59426230935607800D-02  0.00000000000000000D+00  0.00000000000000000D+00
36  7 -4.13136162139581700D-02 -1.18116658291991600D-04  2.31465983455067500D+00  3.15335530346844600D-02  1.74207812644855200D-01
36  8  0.00000000000000000D+00  6.72359980229655600D-01  2.13072840854040400D+00  0.00000000000000000D+00 -4.66578055714530300D-02
36  9 -2.72629522277298600D-02  7.39207577991836800D-02  3.45757115068152500D-02  0.00000000000000000D+00  0.00000000000000000D+00
36 10 -3.03087467102398100D-02 -2.53354087415800500D-02  3.75456482343927200D-01 -1.08271941494756200D-01  1.79774115210305700D-02
36 11  0.00000000000000000D+00  9.70299095492090000D-01  1.13840092480340900D-02  0.00000000000000000D+00 -3.73737167573556500D-02
36 12 -1.47367484829009800D-03  3.88473916056471300D-02  2.17373289075741000D-02  0.00000000000000000D+00  0.00000000000000000D+00
36 13  3.03113676526799700D-02  2.53386851304295200D-02 -3.75584590081008600D-01 -6.97149055610819400D-02  8.47679328709111100D-02
36 14  0.00000000000000000D+00  4.75391438713279700D-01 -8.46002681670544900D-01  0.00000000000000000D+00  2.67548753620807300D-02
36 15  1.20898281495438600D-02 -3.88447035116259000D-02 -2.88190143073178500D-02  0.00000000000000000D+00  0.00000000000000000D+00
36 16  4.13082691987266600D-02  1.11042978389001600D-04 -2.31458068280400700D+00 -1.35088212031379200D-01 -1.14426052667395400D-01
36 17  0.00000000000000000D+00 -1.50890416024090200D+00 -1.64790944554608300D+00  0.00000000000000000D+00  5.80470153432448400D-02
36 18  1.58669174571970800D-02 -7.39139328004412800D-02 -2.69835649074561300D-02  0.00000000000000000D+00  0.00000000000000000D+00
36 19 -1.29289902864635600D-02  6.51446377610945800D-02  8.34910616031065300D-01  4.31668028992872400D-01 -1.10633012242929400D-01
36 20 -5.67671820199401700D-02  0.00000000000000000D+00  5.02843222873960300D-01 -1.16106322843938300D-01  0.00000000000000000D+00
36 21  7.08926195058083400D-01 -1.42052085311427700D-01  0.00000000000000000D+00  1.00725555893638100D-02  1.00453919935906400D-02
36 22 -2.01179475829541000D-02  6.84769740567673800D-03  0.00000000000000000D+00  0.00000000000000000D+00 -1.10297956881978100D-02
36 23 -3.48973773950708400D-02  4.59271730832686300D-02  6.74396552923102200D-02  0.00000000000000000D+00  0.00000000000000000D+00
36 24  1.29291226943755600D-02 -6.51415887043615000D-02 -8.34910280818519400D-01 -4.31692813360958300D-01 -6.16284209018705000D-03
36 25  1.24178215042061700D-01  0.00000000000000000D+00  3.51997913291120300D-01 -3.77372938265705500D-01  0.00000000000000000D+00
36 26  4.77535368256178400D-01 -5.42852322519935300D-01  0.00000000000000000D+00 -4.91714379201150000D-03 -1.52019345039815200D-02
36 27  2.01190782959926700D-02 -3.40795483109744300D-03  0.00000000000000000D+00  0.00000000000000000D+00  7.95201292352565700D-02
36 28 -3.35893261026131400D-02 -4.59308031326434800D-02 -2.17795829124409700D-02  0.00000000000000000D+00  0.00000000000000000D+00
36 29 -1.17261872912588900D-01 -5.67532751490895700D-02 -1.33469541069156200D-02 -1.52439483304510700D-02  0.00000000000000000D+00
36 30  1.47781004496249400D-02  9.18440509176501200D-02 -2.52558775161465700D-02  5.09406702659536400D-03  0.00000000000000000D+00
36 31 -1.47741384449016600D-02 -9.18509511182271600D-02 -1.70403820855888300D-02  1.93234673653329000D-02  0.00000000000000000D+00
36 32  1.17262833146980500D-01  5.67730856566541300D-02  6.52733960241536200D-03  1.91833412152478300D-02  0.00000000000000000D+00
37  1  0.00000000000000000D+00  0.00000000000000000D+00  2.78076928105782200D-11  0.00000000000000000D+00  0.00000000000000000D+00
37  2 -1.22220575977275300D-02  0.00000000000000000D+00  0.00000000000000000D+00 -4.31072669602533400D-02  0.00000000000000000D+00
37  3  0.00000000000000000D+00  0.00000000000000000D+00  0.00000000000000000D+00  5.86271750019867900D-01  2.12744730895541600D-01
37  4  0.00000000000000000D+00  0.00000000000000000D+00  3.34345476616775600D-11  0.00000000000000000D+00  0.00000000000000000D+00
37  5 -1.22407463873827400D-02  0.00000000000000000D+00 -1.78021304625317600D-11 -4.30899345371796600D-02  0.00000000000000000D+00
37  6  0.00000000000000000D+00  0.00000000000000000D+00  0.00000000000000000D+00 -1.08940340929384900D-01  6.14058213281405100D-01
37  7  0.00000000000000000D+00  0.00000000000000000D+00 -2.21021052614493100D-11  0.00000000000000000D+00  0.00000000000000000D+00
37  8  5.09919760319719100D-02 -1.00455328238442900D-11 -2.03552985284439600D-11  1.71459783710711800D-01  0.00000000000000000D+00
37  9  0.00000000000000000D+00  0.00000000000000000D+00  0.00000000000000000D+00 -6.76527262989703700D-02 -4.00514832441124600D-02
37 10  0.00000000000000000D+00  0.00000000000000000D+00  0.00000000000000000D+00  0.00000000000000000D+00  0.00000000000000000D+00
37 11 -9.36927936596207400D-02 -1.28236961337273700D-11  0.00000000000000000D+00 -5.89037216652467900D-03  0.00000000000000000D+00
37 12  0.00000000000000000D+00  0.00000000000000000D+00  0.00000000000000000D+00  1.05536516090817200D-01  1.08170054525438700D-01
37 13  0.00000000000000000D+00  0.00000000000000000D+00 -2.02533112643646500D-11  0.00000000000000000D+00  0.00000000000000000D+00
37 14 -9.36875278049749100D-02  0.00000000000000000D+00  0.00000000000000000D+00 -5.89714835966195100D-03  0.00000000000000000D+00
37 15  0.00000000000000000D+00  0.00000000000000000D+00  0.00000000000000000D+00  4.08922448691435800D-02  1.45485791352877400D-01
37 16  0.00000000000000000D+00  0.00000000000000000D+00 -1.07940183898669100D-11  0.00000000000000000D+00  0.00000000000000000D+00
37 17  5.10080403011868900D-02  0.00000000000000000D+00 -1.38121941310933000D-11  1.71454868536403600D-01  0.00000000000000000D+00
37 18  0.00000000000000000D+00  0.00000000000000000D+00  0.00000000000000000D+00 -8.51498238395718000D-04 -7.86041736583495100D-02
37 19  0.00000000000000000D+00  0.00000000000000000D+00 -1.03036578217794500D-11  0.00000000000000000D+00  0.00000000000000000D+00
37 20  0.00000000000000000D+00  1.61385068305237800D-02  0.00000000000000000D+00  0.00000000000000000D+00 -5.78122697328203100D-02
37 21  0.00000000000000000D+00  0.00000000000000000D+00 -9.02515589576026000D-02  0.00000000000000000D+00  0.00000000000000000D+00
37 22  0.00000000000000000D+00  0.00000000000000000D+00 -6.73375839986107300D-02  2.75620352768488300D-02  0.00000000000000000D+00
37 23  0.00000000000000000D+00  0.00000000000000000D+00  0.00000000000000000D+00  1.03881117728852000D-02  6.88959825309457100D-02
37 24  0.00000000000000000D+00  0.00000000000000000D+00  0.00000000000000000D+00  0.00000000000000000D+00  0.00000000000000000D+00
37 25  0.00000000000000000D+00  1.61377325905366800D-02  0.00000000000000000D+00  0.00000000000000000D+00 -5.78172014789716400D-02
37 26  0.00000000000000000D+00  0.00000000000000000D+00 -9.02445936251195000D-02  0.00000000000000000D+00  0.00000000000000000D+00
37 27  0.00000000000000000D+00  0.00000000000000000D+00  5.75407948002660100D-02 -4.45281143471507600D-02  0.00000000000000000D+00
37 28  0.00000000000000000D+00  0.00000000000000000D+00  0.00000000000000000D+00  5.44681645471460100D-02  4.34462562197963100D-02
37 29  0.00000000000000000D+00  0.00000000000000000D+00  0.00000000000000000D+00  0.00000000000000000D+00  3.47648819094977100D-02
37 30  0.00000000000000000D+00  0.00000000000000000D+00  0.00000000000000000D+00  0.00000000000000000D+00 -5.50895256288971000D-03
37 31  0.00000000000000000D+00  0.00000000000000000D+00  0.00000000000000000D+00  0.00000000000000000D+00 -5.50953765609125300D-03
37 32  0.00000000000000000D+00  0.00000000000000000D+00  0.00000000000000000D+00  0.00000000000000000D+00  3.47660956701070200D-02
38  1  2.08281767908109400D-02 -3.90208623252855900D-02 -1.45786410514198100D+00  1.38717043487573800D-01  5.31609372393512900D-02
38  2  0.00000000000000000D+00  1.33994032434063200D+00  7.66838677297717300D-01  0.00000000000000000D+00 -2.21667157501817600D-02
38  3 -5.26494260372119200D-02  7.48161417873938300D-02 -1.35720349280172900D-02  0.00000000000000000D+00  0.00000000000000000D+00
38  4  2.08268953399185700D-02 -3.90176249470368900D-02 -1.45782402712292400D+00 -2.33425605387021200D-02  1.46713391885496700D-01
38  5  0.00000000000000000D+00 -6.08098187113459700D-03  1.54391320636681400D+00  0.00000000000000000D+00 -3.48495309507328400D-02
38  6 -3.99727361975580700D-02  7.48222671482910700D-02 -2.20260072966988500D-02  0.00000000000000000D+00  0.00000000000000000D+00
38  7  5.78594874770760000D-03  1.55490048732120600D-01  1.42654365873320000D+00  1.30193396142359500D-02  3.02238856749012100D-01
38  8  0.00000000000000000D+00  2.37004425116544600D-01  9.19628647357891500D-01  0.00000000000000000D+00 -7.14057552942096200D-02
38  9 -5.78522354350291900D-02  1.29257990729238600D-01  4.50994877228093300D-02  0.00000000000000000D+00  0.00000000000000000D+00
38 10 -5.01241360460993400D-02 -1.22445196806393900D-01  2.33268424054506700D-01 -2.18594141372352600D-02 -2.34662906368365200D-02
38 11  0.00000000000000000D+00  1.65089106748026600D-01  1.46673025204119100D-01  0.00000000000000000D+00 -2.96612654318416300D-02
38 12 -4.08011401690621300D-02  7.04624056009047300D-02  2.66235987773941000D-02  0.00000000000000000D+00  0.00000000000000000D+00
38 13 -5.01229492688659000D-02 -1.22445409888886700D-01  2.33247410295209200D-01 -9.38958315372049100D-03 -3.06626325149602200D-02
38 14  0.00000000000000000D+00  4.44470455899089300D-02  2.16298169306640000D-01  0.00000000000000000D+00 -5.79860863416403900D-02
38 15 -1.24755744349979600D-02  7.04616607766383700D-02  7.73829310432427200D-03  0.00000000000000000D+00  0.00000000000000000D+00
38 16  5.78802285208175600D-03  1.55496817816258000D-01  1.42651484026944000D+00  2.55220049436199200D-01  1.62424173597191200D-01
38 17  0.00000000000000000D+00  6.77834936339965600D-01  6.65116301743372700D-01  0.00000000000000000D+00 -9.50714641555594600D-02
38 18 -3.41880761197423000D-02  1.29259540275301700D-01  2.93195839155395300D-02  0.00000000000000000D+00  0.00000000000000000D+00
38 19 -4.27180716792387700D-03 -7.19784653340467700D-02 -2.59766225285554400D-01  1.56421083592720400D-01  8.79723748828680900D-02
38 20  7.15317190275826900D-02  0.00000000000000000D+00 -4.19544458933889600D-01 -8.82155091511127800D-03  0.00000000000000000D+00
38 21 -3.62317442219857200D-01 -2.46443483603165900D-02  0.00000000000000000D+00  1.80621426035164200D-02 -1.63857182819988700D-02
38 22 -1.67642432151751000D-03 -2.36995678039549100D-02  0.00000000000000000D+00  0.00000000000000000D+00 -1.41498586396109200D-01
38 23  6.92179643499700600D-02  7.22806220461395700D-02  5.94985649840688400D-02  0.00000000000000000D+00  0.00000000000000000D+00
38 24 -4.27219810588049300D-03 -7.19811245943571400D-02 -2.59770443008114000D-01  1.56433066599079700D-01  1.79538554662585200D-02
38 25  1.11952995205098300D-01  0.00000000000000000D+00  2.02175389503332900D-01 -3.67741278641970100D-01  0.00000000000000000D+00
38 26  1.59845025151847200D-01 -3.26088256440878700D-01  0.00000000000000000D+00  1.00056404666538500D-02 -8.33010983000713800D-03
38 27 -1.67553063664684900D-03 -2.90717048470536400D-02  0.00000000000000000D+00  0.00000000000000000D+00 -2.81090315973249000D-02
38 28 -4.41718416700257300D-02  7.22808732673505400D-02  1.35110849251820000D-01  0.00000000000000000D+00  0.00000000000000000D+00
38 29 -1.39239186905859900D-01 -1.70166603816618900D-01 -7.20258140064875400D-03  4.41615313493480500D-03  0.00000000000000000D+00
38 30  6.60232921423290300D-02  1.95738019005791800D-01 -2.05086453105897400D-03  1.29922148392534300D-02  0.00000000000000000D+00
38 31  6.60251099643688600D-02  1.95737919463587400D-01  1.22760649373857300D-02  4.72180270010304200D-03  0.00000000000000000D+00
38 32 -1.39239386272374300D-01 -1.70164656688390500D-01  7.42603711625709000D-03 -4.02858378233553500D-03  0.00000000000000000D+00
39  1  7.16148223315140500D-02  9.52651334108582500D-02  6.55481316702697200D-01  3.84622246425561700D-01 -4.06990476099348300D-02
39  2  0.00000000000000000D+00 -9.97446076308510300D-01  3.60220719772111600D-01  0.00000000000000000D+00  1.81031510732371900D-01
39  3  9.72379696538715800D-02 -2.78269480386243000D-01 -1.02213604332100800D-02  0.00000000000000000D+00  0.00000000000000000D+00
39  4  7.16152627424963000D-02  9.52646999975040700D-02  6.55480100737507100D-01 -2.27581604706154700D-01  3.12707409612328100D-01
39  5  0.00000000000000000D+00  8.10810093291525200D-01 -6.83876729614067500D-01  0.00000000000000000D+00  1.25866014706955900D-01
39  6  1.52409577787462700D-01 -2.78275592494418700D-01 -4.70094172863912700D-02  0.00000000000000000D+00  0.00000000000000000D+00
39  7 -6.42253861597603100D-02 -3.45063234726084100D-02  1.76739838455945000D-01  3.40400483963120400D-02  5.08377632508439200D-02
39  8  0.00000000000000000D+00 -8.11132885658480200D-01 -2.05646382143927600D-01  0.00000000000000000D+00 -8.70427524813689000D-02
39  9 -1.14781209871078700D-01  2.01823962352447100D-01 -6.81964759304774400D-02  0.00000000000000000D+00  0.00000000000000000D+00
39 10  1.12219237552496500D-03 -5.95191336456470700D-02 -7.36105519126019400D-01 -5.18174930747683600D-02 -4.33096748730002500D-02
39 11  0.00000000000000000D+00 -2.63115204838627700D-01 -4.45390841474993700D-02  0.00000000000000000D+00  4.75169253399981900D-03
39 12 -5.54825635089690100D-02  5.07308709749689600D-02  1.51751307523609100D-02  0.00000000000000000D+00  0.00000000000000000D+00
39 13  1.12310782449676200D-03 -5.95181745903196800D-02 -7.36134975591339200D-01 -1.15883522172015700D-02 -6.65340795827869100D-02
39 14  0.00000000000000000D+00  9.29728545585530900D-02 -2.50091141534733700D-01  0.00000000000000000D+00 -5.18017525902112300D-02
39 15  1.06977338454170100D-03  5.07319792056699600D-02 -2.25361062099717600D-02  0.00000000000000000D+00  0.00000000000000000D+00
39 16 -6.42267946004397300D-02 -3.45031562536223600D-02  1.76926736293069100D-01  2.70099198892115800D-02  5.49115616232502700D-02
39 17  0.00000000000000000D+00  2.27646316111958400D-01 -8.05180848302394900D-01  0.00000000000000000D+00 -5.66936965886206600D-02
39 18 -1.45134968242182200D-01  2.01828664830803200D-01 -4.79567437811090500D-02  0.00000000000000000D+00  0.00000000000000000D+00
39 19  2.33580751614284400D-02  1.05001297712238700D-01 -9.97447170797953100D-02 -4.74614638542444300D-01 -2.04077556574006500D-01
39 20 -7.26286336886814400D-02  0.00000000000000000D+00  3.54652234379079300D-01  6.45626480027806900D-02  0.00000000000000000D+00
39 21  2.44077375842979100D-01  1.70659807311330200D-01  0.00000000000000000D+00 -9.70499581565114300D-03  3.94982916862651900D-03
39 22  5.75516664702466500D-03  2.28855034678257000D-02  0.00000000000000000D+00  0.00000000000000000D+00  1.14444925344429200D-01
39 23 -2.33053318670251800D-02 -9.11395934774043000D-02 -8.50052482138885500D-02  0.00000000000000000D+00  0.00000000000000000D+00
39 24  2.33578614135805400D-02  1.05005035651099000D-01 -9.97115862178974000D-02 -4.74603859609855000D-01  3.91618586465995500D-02
39 25 -2.13049582381604100D-01  0.00000000000000000D+00 -1.21468409560620200D-01  3.39438832090414000D-01  0.00000000000000000D+00
39 26  2.57105621162780700D-02  2.96732668227222300D-01  0.00000000000000000D+00 -1.66303894028133900D-02  1.08769754438526000D-02
39 27  5.75341395896095100D-03  1.82669836542260500D-02  0.00000000000000000D+00  0.00000000000000000D+00  7.49059039915340000D-02
39 28  1.62330562714197700D-02 -9.11389602629537300D-02 -1.11372553587128400D-01  0.00000000000000000D+00  0.00000000000000000D+00
39 29  3.03098041938235900D-02  3.11574624026476400D-01  8.16283564432117000D-04  1.66513442853617000D-02  0.00000000000000000D+00
39 30  8.39981913202383900D-02  6.20878112108920300D-02 -2.35524858217591400D-03  1.41404636490947400D-02  0.00000000000000000D+00
39 31  8.39992259348968900D-02  6.20893177320552200D-02  1.34248280833326600D-02  5.03004224267452100D-03  0.00000000000000000D+00
39 32  3.03018986887638500D-02  3.11567620034942900D-01  1.40111137309846900D-02  9.03350366116471200D-03  0.00000000000000000D+00
40  1  0.00000000000000000D+00  0.00000000000000000D+00 -1.50286975328429000D-11  0.00000000000000000D+00  0.00000000000000000D+00
40  2  3.38243796360695100D-01  2.18246982939450900D-11  3.58216964135739700D-11 -3.48741599052845600D-01  0.00000000000000000D+00
40  3  0.00000000000000000D+00  0.00000000000000000D+00  0.00000000000000000D+00  7.67970055114241700D-01  5.44101722542969000D-02
40  4  0.00000000000000000D+00  0.00000000000000000D+00  1.10333580750520800D-11  0.00000000000000000D+00  0.00000000000000000D+00
40  5 -3.38245267567206600D-01 -2.63131790264217600D-11 -3.41323192281062800D-11  3.48744275677555800D-01  0.00000000000000000D+00
40  6  0.00000000000000000D+00  0.00000000000000000D+00  0.00000000000000000D+00  3.36946937322195200D-01 -6.92271649386124200D-01
40  7  0.00000000000000000D+00  0.00000000000000000D+00 -2.32805547732559600D-11  0.00000000000000000D+00  0.00000000000000000D+00
40  8 -2.10542234915589500D-01  0.00000000000000000D+00 -2.46693989438179800D-11 -5.71721674374538000D-02  0.00000000000000000D+00
40  9  0.00000000000000000D+00  0.00000000000000000D+00  0.00000000000000000D+00 -8.02741597765482500D-03 -7.92797110263250400D-02
40 10  0.00000000000000000D+00  0.00000000000000000D+00  2.06854539078107900D-11  0.00000000000000000D+00  0.00000000000000000D+00
40 11  7.57682707390122300D-02 -1.84732236822685400D-11  0.00000000000000000D+00 -6.46779390574909900D-02  0.00000000000000000D+00
40 12  0.00000000000000000D+00  0.00000000000000000D+00  0.00000000000000000D+00 -1.43255412637623800D-02 -1.79400625968231600D-02
40 13  0.00000000000000000D+00  0.00000000000000000D+00 -2.35648596499253900D-11  0.00000000000000000D+00  0.00000000000000000D+00
40 14 -7.57475369480133200D-02 -2.01453056866827800D-11  0.00000000000000000D+00  6.46646427935862900D-02  0.00000000000000000D+00
40 15  0.00000000000000000D+00  0.00000000000000000D+00  0.00000000000000000D+00  8.36523145222551800D-03  2.13644203711027000D-02
40 16  0.00000000000000000D+00  0.00000000000000000D+00  3.06854327618749600D-11  0.00000000000000000D+00  0.00000000000000000D+00
40 17  2.10544699103551100D-01  2.94353936354649200D-11  0.00000000000000000D+00  5.71706244321138800D-02  0.00000000000000000D+00
40 18  0.00000000000000000D+00  0.00000000000000000D+00  0.00000000000000000D+00  6.46318055752674600D-02  4.66195866186474500D-02
40 19  0.00000000000000000D+00  0.00000000000000000D+00 -1.83416239885222200D-11 -1.59292821713228600D-11  0.00000000000000000D+00
40 20  0.00000000000000000D+00 -3.11556341014748700D-02  0.00000000000000000D+00  0.00000000000000000D+00  7.26801698028007500D-02
40 21  0.00000000000000000D+00  0.00000000000000000D+00 -6.11197799345198800D-02  0.00000000000000000D+00  0.00000000000000000D+00
40 22  0.00000000000000000D+00  0.00000000000000000D+00 -3.37223703794900500D-02  2.55946249951002200D-02  0.00000000000000000D+00
40 23  0.00000000000000000D+00  0.00000000000000000D+00  0.00000000000000000D+00  7.83083127438466800D-02  2.13961223909283700D-02
40 24  0.00000000000000000D+00  0.00000000000000000D+00  1.77560248650985100D-11  1.80817690906530400D-11  0.00000000000000000D+00
40 25  0.00000000000000000D+00  3.11521824419887900D-02  0.00000000000000000D+00  0.00000000000000000D+00 -7.26746071564872600D-02
40 26  0.00000000000000000D+00  0.00000000000000000D+00  6.11172607395085000D-02  0.00000000000000000D+00  0.00000000000000000D+00
40 27  0.00000000000000000D+00  0.00000000000000000D+00 -3.90291836997558500D-02  1.64041950521423700D-02  0.00000000000000000D+00
40 28  0.00000000000000000D+00  0.00000000000000000D+00  0.00000000000000000D+00  2.06261599335489500D-02 -7.85121865267572300D-02
40 29  0.00000000000000000D+00  0.00000000000000000D+00  0.00000000000000000D+00  0.00000000000000000D+00 -2.81515696630120000D-02
40 30  0.00000000000000000D+00  0.00000000000000000D+00  0.00000000000000000D+00  0.00000000000000000D+00  5.06174302543229700D-03
40 31  0.00000000000000000D+00  0.00000000000000000D+00  0.00000000000000000D+00  0.00000000000000000D+00 -5.06191111073164500D-03
40 32  0.00000000000000000D+00  0.00000000000000000D+00  0.00000000000000000D+00  0.00000000000000000D+00  2.81513834535707800D-02
41  1  0.00000000000000000D+00  0.00000000000000000D+00  1.31522565985234200D-11  0.00000000000000000D+00  0.00000000000000000D+00
41  2 -3.46295041068386800D-02  1.17622253881992100D-11 -1.81560844854743800D-11  7.96630600690385900D-02  0.00000000000000000D+00
41  3  0.00000000000000000D+00  0.00000000000000000D+00  0.00000000000000000D+00  1.61548407528229300D-01  7.73836804969797600D-02
41  4  0.00000000000000000D+00  0.00000000000000000D+00 -3.12271357666756600D-11  0.00000000000000000D+00  0.00000000000000000D+00
41  5 -3.46203117524897100D-02  1.66417734267632800D-11  0.00000000000000000D+00  7.96094733220825700D-02  0.00000000000000000D+00
41  6  0.00000000000000000D+00  0.00000000000000000D+00  0.00000000000000000D+00 -1.37919656498283900D-02  1.78621805207128900D-01
41  7  0.00000000000000000D+00  0.00000000000000000D+00  0.00000000000000000D+00  0.00000000000000000D+00  0.00000000000000000D+00
41  8  2.34280155773144500D-01  0.00000000000000000D+00  0.00000000000000000D+00 -8.05197860329749500D-03  0.00000000000000000D+00
41  9  0.00000000000000000D+00  0.00000000000000000D+00  0.00000000000000000D+00  3.96427975085214200D-01  2.11515263483187800D-02
41 10  0.00000000000000000D+00  0.00000000000000000D+00  2.96912291566408400D-11  0.00000000000000000D+00  0.00000000000000000D+00
41 11  3.69111542522995800D-01 -1.06555769361757200D-11  1.06172045260736300D-11 -2.55224258301520800D-01  0.00000000000000000D+00
41 12  0.00000000000000000D+00  0.00000000000000000D+00  0.00000000000000000D+00 -1.75986842525814700D-01 -2.17219445985626300D-01
41 13  0.00000000000000000D+00  0.00000000000000000D+00 -1.84479326480558700D-11  0.00000000000000000D+00  0.00000000000000000D+00
41 14  3.69068017078523700D-01 -2.10510705103838400D-11  0.00000000000000000D+00 -2.55182782084826500D-01  0.00000000000000000D+00
41 15  0.00000000000000000D+00  0.00000000000000000D+00  0.00000000000000000D+00 -1.00083899645046700D-01 -2.61006116634049500D-01
41 16  0.00000000000000000D+00  0.00000000000000000D+00  0.00000000000000000D+00  0.00000000000000000D+00  0.00000000000000000D+00
41 17  2.34242183733015300D-01  0.00000000000000000D+00  0.00000000000000000D+00 -8.04844861251157200D-03  0.00000000000000000D+00
41 18  0.00000000000000000D+00  0.00000000000000000D+00  0.00000000000000000D+00 -1.79895749358930400D-01  3.53806050920093700D-01
41 19  0.00000000000000000D+00  0.00000000000000000D+00  0.00000000000000000D+00  0.00000000000000000D+00  0.00000000000000000D+00
41 20  0.00000000000000000D+00  3.06589777797398600D-02  0.00000000000000000D+00  0.00000000000000000D+00 -2.58036895612554100D-02
41 21  0.00000000000000000D+00  0.00000000000000000D+00 -1.63242474616033500D-01  0.00000000000000000D+00  0.00000000000000000D+00
41 22  0.00000000000000000D+00  0.00000000000000000D+00  4.01138745171544100D-03  4.61509150476183800D-03  0.00000000000000000D+00
41 23  0.00000000000000000D+00  0.00000000000000000D+00  0.00000000000000000D+00  2.06027747241552700D-02 -2.53234327273136400D-02
41 24  0.00000000000000000D+00  0.00000000000000000D+00  0.00000000000000000D+00  0.00000000000000000D+00  0.00000000000000000D+00
41 25  0.00000000000000000D+00  3.06423786623420500D-02  0.00000000000000000D+00  0.00000000000000000D+00 -2.57712371932408900D-02
41 26  0.00000000000000000D+00  0.00000000000000000D+00 -1.63239041839110500D-01  0.00000000000000000D+00  0.00000000000000000D+00
41 27  0.00000000000000000D+00  0.00000000000000000D+00  1.98911970043034500D-03  5.78471032313873700D-03  0.00000000000000000D+00
41 28  0.00000000000000000D+00  0.00000000000000000D+00  0.00000000000000000D+00 -3.22436301351803800D-02  5.17201562727848600D-03
41 29  0.00000000000000000D+00  0.00000000000000000D+00  0.00000000000000000D+00  0.00000000000000000D+00  4.84660609873567600D-02
41 30  0.00000000000000000D+00  0.00000000000000000D+00  0.00000000000000000D+00  0.00000000000000000D+00 -5.54188700429565600D-03
41 31  0.00000000000000000D+00  0.00000000000000000D+00  0.00000000000000000D+00  0.00000000000000000D+00 -5.54459163772711900D-03
41 32  0.00000000000000000D+00  0.00000000000000000D+00  0.00000000000000000D+00  0.00000000000000000D+00  4.84580040708598700D-02
42  1  0.00000000000000000D+00  0.00000000000000000D+00  0.00000000000000000D+00  0.00000000000000000D+00  0.00000000000000000D+00
42  2  1.54198872109432800D-03  3.64858049358802100D-11 -1.07862695295103900D-11 -2.64014329081766800D-01  0.00000000000000000D+00
42  3  0.00000000000000000D+00  0.00000000000000000D+00  0.00000000000000000D+00  1.46488581818073500D-02 -3.42891446687081000D-02
42  4  0.00000000000000000D+00  0.00000000000000000D+00 -2.88374558296016300D-11  0.00000000000000000D+00  0.00000000000000000D+00
42  5 -1.54748724194676700D-03  1.45587093400345100D-11  0.00000000000000000D+00  2.64028370882022700D-01  0.00000000000000000D+00
42  6  0.00000000000000000D+00  0.00000000000000000D+00  0.00000000000000000D+00  3.70182322665531300D-02  4.47921951385626900D-03
42  7  0.00000000000000000D+00  0.00000000000000000D+00  2.21297151569834000D-11  0.00000000000000000D+00  0.00000000000000000D+00
42  8 -1.57407606018542500D-01  0.00000000000000000D+00  0.00000000000000000D+00  5.41046425649742400D-04  0.00000000000000000D+00
42  9  0.00000000000000000D+00  0.00000000000000000D+00  0.00000000000000000D+00 -5.56952676122458400D-01  2.81915185188161700D-03
42 10  0.00000000000000000D+00  0.00000000000000000D+00 -1.85784961094220000D-11  0.00000000000000000D+00  0.00000000000000000D+00
42 11 -3.14770532649051200D-01  0.00000000000000000D+00  0.00000000000000000D+00  2.59858466277252700D-01  0.00000000000000000D+00
42 12  0.00000000000000000D+00  0.00000000000000000D+00  0.00000000000000000D+00  8.92225336365904700D-02  1.96011845007635400D-01
42 13  0.00000000000000000D+00  0.00000000000000000D+00  0.00000000000000000D+00  0.00000000000000000D+00  0.00000000000000000D+00
42 14  3.14825989628917800D-01  1.34884814447226600D-11  0.00000000000000000D+00 -2.59896516054794600D-01  0.00000000000000000D+00
42 15  0.00000000000000000D+00  0.00000000000000000D+00  0.00000000000000000D+00 -1.25138969950618200D-01 -1.75331207716336100D-01
42 16  0.00000000000000000D+00  0.00000000000000000D+00  2.85849133076593900D-11  0.00000000000000000D+00  0.00000000000000000D+00
42 17  1.57429998749859600D-01  0.00000000000000000D+00  2.14900038826625000D-11 -5.30780760614147800D-04  0.00000000000000000D+00
42 18  0.00000000000000000D+00  0.00000000000000000D+00  0.00000000000000000D+00 -2.80997691122004200D-01  4.80950059990421600D-01
42 19  0.00000000000000000D+00  0.00000000000000000D+00  0.00000000000000000D+00  0.00000000000000000D+00  0.00000000000000000D+00
42 20  0.00000000000000000D+00 -8.42418840129319400D-02  0.00000000000000000D+00  0.00000000000000000D+00  1.95896309517562000D-01
42 21  0.00000000000000000D+00  0.00000000000000000D+00 -3.02032598814016700D-03  0.00000000000000000D+00  0.00000000000000000D+00
42 22  0.00000000000000000D+00  0.00000000000000000D+00  3.03118690975662200D-02 -3.92757408969157300D-04  0.00000000000000000D+00
42 23  0.00000000000000000D+00  0.00000000000000000D+00  0.00000000000000000D+00  3.30390853014468000D-03 -6.89708331372280400D-02
42 24  0.00000000000000000D+00  0.00000000000000000D+00  0.00000000000000000D+00  0.00000000000000000D+00  0.00000000000000000D+00
42 25  0.00000000000000000D+00  8.42468449443765900D-02  0.00000000000000000D+00  0.00000000000000000D+00 -1.95900404147799700D-01
42 26  0.00000000000000000D+00  0.00000000000000000D+00  2.99450363679641300D-03  0.00000000000000000D+00  0.00000000000000000D+00
42 27  0.00000000000000000D+00  0.00000000000000000D+00  1.54983083033903900D-02 -2.60509211202840100D-02  0.00000000000000000D+00
42 28  0.00000000000000000D+00  0.00000000000000000D+00  0.00000000000000000D+00  6.13753930381796600D-02  3.16297279501179700D-02
42 29  0.00000000000000000D+00  0.00000000000000000D+00  0.00000000000000000D+00  0.00000000000000000D+00 -4.83516609723186500D-02
42 30  0.00000000000000000D+00  0.00000000000000000D+00  0.00000000000000000D+00  0.00000000000000000D+00 -2.31656361430751800D-02
42 31  0.00000000000000000D+00  0.00000000000000000D+00  0.00000000000000000D+00  0.00000000000000000D+00  2.31635676014181800D-02
42 32  0.00000000000000000D+00  0.00000000000000000D+00  0.00000000000000000D+00  0.00000000000000000D+00  4.83585190546628900D-02
43  1  0.00000000000000000D+00  0.00000000000000000D+00  6.43192914352419400D-11  0.00000000000000000D+00  0.00000000000000000D+00
43  2  4.87021932142909500D-02 -4.08803842180995800D-11 -2.52444601288971600D-11  6.83344764243716100D-02  0.00000000000000000D+00
43  3  1.02078117146786600D-11  0.00000000000000000D+00  0.00000000000000000D+00  1.62084301121108400D-02  1.73793600639360800D-01
43  4  0.00000000000000000D+00  0.00000000000000000D+00 -1.52516900286210400D-11  0.00000000000000000D+00  0.00000000000000000D+00
43  5  4.86994790504794700D-02  2.44679736670460700D-11  1.10929334364799400D-11  6.83566053714062100D-02  0.00000000000000000D+00
43  6  0.00000000000000000D+00  0.00000000000000000D+00  0.00000000000000000D+00  1.42396569666204100D-01  1.00944644563287400D-01
43  7  0.00000000000000000D+00  0.00000000000000000D+00  1.22206575671297600D-11  0.00000000000000000D+00  0.00000000000000000D+00
43  8  5.56202348876837500D-01  0.00000000000000000D+00  0.00000000000000000D+00 -5.84417764389163200D-01  1.12041995169731000D-11
43  9  0.00000000000000000D+00  0.00000000000000000D+00  0.00000000000000000D+00 -2.58044167436230500D-01  2.35512252884210900D-01
43 10  0.00000000000000000D+00  0.00000000000000000D+00  2.65079870390493100D-11  0.00000000000000000D+00  0.00000000000000000D+00
43 11 -1.82737811874625200D-01 -2.88810780486833900D-11  2.32707503813009100D-11  2.31496164942317800D-01  0.00000000000000000D+00
43 12  0.00000000000000000D+00  0.00000000000000000D+00  0.00000000000000000D+00 -1.76037706860074000D-01 -3.01842450474764500D-02
43 13  0.00000000000000000D+00  0.00000000000000000D+00 -5.80665892998933900D-11  0.00000000000000000D+00  0.00000000000000000D+00
43 14 -1.82749490578609100D-01 -2.27490490345088700D-11  0.00000000000000000D+00  2.31516809696655900D-01  0.00000000000000000D+00
43 15  0.00000000000000000D+00  0.00000000000000000D+00  0.00000000000000000D+00  6.19031475097219300D-02 -1.67537805955960200D-01
43 16  0.00000000000000000D+00  0.00000000000000000D+00 -5.35296480923451800D-11  0.00000000000000000D+00  0.00000000000000000D+00
43 17  5.56198173266874200D-01 -1.57224510195004800D-11 -2.67535524182976700D-11 -5.84407429377161400D-01  0.00000000000000000D+00
43 18  0.00000000000000000D+00  0.00000000000000000D+00  0.00000000000000000D+00  3.32991030711387000D-01 -1.05663190366959600D-01
43 19  0.00000000000000000D+00  0.00000000000000000D+00  0.00000000000000000D+00  0.00000000000000000D+00  0.00000000000000000D+00
43 20  0.00000000000000000D+00  6.25121522927745000D-03  1.27478218767863600D-11  1.47539904962227500D-11 -1.03287833068238900D-01
43 21  0.00000000000000000D+00  0.00000000000000000D+00  1.45633964838223100D-02  0.00000000000000000D+00  0.00000000000000000D+00
43 22  0.00000000000000000D+00  0.00000000000000000D+00  9.05790681769022400D-03  1.01124074418867000D-02  0.00000000000000000D+00
43 23 -1.09871916235561800D-11  0.00000000000000000D+00  0.00000000000000000D+00  2.45736627052238600D-01  2.40533899550777500D-02
43 24  0.00000000000000000D+00  0.00000000000000000D+00  0.00000000000000000D+00  0.00000000000000000D+00  0.00000000000000000D+00
43 25  0.00000000000000000D+00  6.25241673371475100D-03  0.00000000000000000D+00  0.00000000000000000D+00 -1.03295793630680500D-01
43 26  0.00000000000000000D+00  0.00000000000000000D+00  1.45628754232377600D-02  0.00000000000000000D+00  0.00000000000000000D+00
43 27  0.00000000000000000D+00  0.00000000000000000D+00  4.22537770738747300D-03  1.29021132607022300D-02  0.00000000000000000D+00
43 28  0.00000000000000000D+00  0.00000000000000000D+00  0.00000000000000000D+00 -1.02059783018887000D-01  2.24827923497174400D-01
43 29  0.00000000000000000D+00  0.00000000000000000D+00  0.00000000000000000D+00  0.00000000000000000D+00 -1.56434104010068000D-03
43 30  0.00000000000000000D+00  1.37923517633010200D-11  0.00000000000000000D+00  0.00000000000000000D+00 -7.27713967997524600D-04
43 31  0.00000000000000000D+00  0.00000000000000000D+00  0.00000000000000000D+00  0.00000000000000000D+00 -7.27607046058379700D-04
43 32  0.00000000000000000D+00  1.03901779602605600D-11  0.00000000000000000D+00  0.00000000000000000D+00 -1.56359703912625200D-03
44  1 -1.97021397406861700D-11 -3.58958802439149800D-11  6.98182100454141000D-11  0.00000000000000000D+00  0.00000000000000000D+00
44  2 -1.73598616540363200D-01  2.14815052832797000D-10 -6.02903952287600500D-11  2.16327212365095000D-01 -1.54864670843526100D-11
44  3  0.00000000000000000D+00  0.00000000000000000D+00 -3.39048977226651600D-11  6.73776354382592700D-02 -2.41152132582892500D-01
44  4 -1.11524554783846700D-11 -2.08645946215953400D-11 -1.98255571696779800D-10  0.00000000000000000D+00  1.70916074501518900D-11
44  5 -1.73604554251090500D-01  9.61935338915361400D-11 -9.17004371283707600D-11  2.16343228879569500D-01  1.38498655307395200D-11
44  6 -2.05116172779470700D-11  0.00000000000000000D+00  0.00000000000000000D+00 -2.42505727533743900D-01 -6.22537712115332900D-02
44  7  0.00000000000000000D+00  0.00000000000000000D+00  2.13910185580798100D-11  0.00000000000000000D+00  0.00000000000000000D+00
44  8  3.57092603287415200D-01  0.00000000000000000D+00  0.00000000000000000D+00 -5.65266484064485100D-01 -1.90564021374679800D-11
44  9  2.67506482980719300D-11  0.00000000000000000D+00  1.19592831455870000D-11 -5.60698706134977900D-02 -1.88623300091296200D-01
44 10  0.00000000000000000D+00 -1.28542712596361200D-11 -7.47487914445099200D-11  0.00000000000000000D+00 -1.09227731375860000D-11
44 11 -4.72853992001025600D-02  3.91452344354266400D-11 -2.37274926654723600D-11  1.05443380716851500D-01  3.01729386059965000D-11
44 12 -1.70664804229196200D-11 -1.31064581830768300D-11  4.04640568206060900D-11 -1.24323013668209000D-01 -8.87696862873477300D-03
44 13 -1.00657488245553300D-11 -2.12185352257419200D-11  1.60180915745520800D-10  0.00000000000000000D+00 -1.02781095296510200D-11
44 14 -4.72912335653967200D-02  6.46730752545762500D-11  3.54858663624552400D-11  1.05452557920019000D-01 -1.09523662723049600D-11
44 15  2.17581944211916800D-11 -1.08058281488867500D-11 -1.53354133134114700D-11  5.44881190183309700D-02 -1.12101048526115500D-01
44 16  0.00000000000000000D+00  0.00000000000000000D+00  7.07912524552794200D-11  0.00000000000000000D+00  0.00000000000000000D+00
44 17  3.57089790388328600D-01 -2.00684100760417400D-11  1.16817308857063400D-10 -5.65258659501521400D-01  0.00000000000000000D+00
44 18 -1.67684361404014200D-11  1.34490004470838800D-11  1.69948201458998000D-11 -1.35302629373164400D-01 -1.42873384973185800D-01
44 19  0.00000000000000000D+00 -1.31658165040336100D-11  2.38194073077754500D-11  2.96707881120028700D-11  0.00000000000000000D+00
44 20  0.00000000000000000D+00  4.84378747414759600D-04 -1.12828415860414300D-11 -1.88906649586461400D-11 -4.00553695604639500D-02
44 21 -1.36981667157527400D-11  0.00000000000000000D+00  2.72873160391282200D-01  0.00000000000000000D+00 -2.03094366799589700D-11
44 22  2.28137186879712500D-11  0.00000000000000000D+00 -2.33432267621088300D-01  4.77728942175503600D-04  0.00000000000000000D+00
44 23  2.36072633985231400D-11 -1.83668763635217000D-11  1.91343838913434400D-11 -3.30082023231898700D-01 -2.15975294314708300D-03
44 24 -1.09297835820585100D-11 -2.57839073366852300D-11  3.66300864329412600D-11  0.00000000000000000D+00  1.60072080612301100D-11
44 25  0.00000000000000000D+00  4.80981255728947700D-04 -3.91722581715221700D-11  0.00000000000000000D+00 -4.00567619839566100D-02
44 26  0.00000000000000000D+00  0.00000000000000000D+00  2.72867580203520100D-01  0.00000000000000000D+00  0.00000000000000000D+00
44 27  0.00000000000000000D+00 -1.24833652584279000D-11  1.17147638006038500D-01 -2.01899657764891300D-01  1.04756556497226200D-11
44 28 -1.23180252298669800D-11  0.00000000000000000D+00  3.49926926854991100D-11  1.63196563609637300D-01 -2.86915588089477000D-01
44 29 -1.26744576094630300D-11 -2.11713179450012300D-11  0.00000000000000000D+00 -1.01295320451112800D-11  3.78320762887126700D-02
44 30 -1.14930633505271000D-11  1.08600846193623800D-11 -2.74606030318410500D-11  0.00000000000000000D+00 -6.09781086934282300D-03
44 31  0.00000000000000000D+00  2.16423741832965300D-11  0.00000000000000000D+00  0.00000000000000000D+00 -6.09874250360909300D-03
44 32  0.00000000000000000D+00 -7.06209472801983400D-11 -1.17902958168811000D-11  0.00000000000000000D+00  3.78320679174040500D-02
45  1  0.00000000000000000D+00  0.00000000000000000D+00  1.72178590614804200D-10 -1.17723610180535100D-11  1.82166363778789700D-11
45  2  1.51850927509523900D-01  9.41870439867463000D-11  0.00000000000000000D+00 -7.07624323502860600D-01  0.00000000000000000D+00
45  3  0.00000000000000000D+00 -1.47909465399435300D-11  2.86651075681834100D-11  3.28534151917907800D-02 -2.38756667391316300D-01
45  4  0.00000000000000000D+00  1.31324975093423300D-11  2.23051298839100800D-11  1.99932677132266000D-11  0.00000000000000000D+00
45  5 -1.51849482688647100D-01  5.06973362835778900D-11 -4.02619096540163900D-11  7.07608232644484900D-01  0.00000000000000000D+00
45  6  2.29001834017939200D-11 -1.36232421575293800D-11  1.79962940292080000D-11  2.23182171832275500D-01  9.09485435517353000D-02
45  7  0.00000000000000000D+00  0.00000000000000000D+00 -5.54446233918764300D-11  0.00000000000000000D+00  0.00000000000000000D+00
45  8  6.27041892708694000D-01  4.27458747507248900D-11 -5.52684139679000600D-11 -8.56517907489473300D-01  0.00000000000000000D+00
45  9  0.00000000000000000D+00  0.00000000000000000D+00  0.00000000000000000D+00 -2.99678181330228800D-01  1.06067891265910200D-01
45 10  0.00000000000000000D+00 -1.08001011104595100D-11  0.00000000000000000D+00  0.00000000000000000D+00  0.00000000000000000D+00
45 11  1.28734843957445300D-01  0.00000000000000000D+00  6.81279583944005000D-11  1.04852333768721200D-01  0.00000000000000000D+00
45 12  0.00000000000000000D+00  0.00000000000000000D+00  0.00000000000000000D+00 -3.27174829247211000D-01 -5.49313256564547900D-02
45 13  0.00000000000000000D+00  0.00000000000000000D+00 -2.55845610866434400D-11 -1.25691129787191300D-11  1.53058441620453700D-11
45 14 -1.28717508160419400D-01  5.89775685977356800D-11 -2.03935043215153500D-11 -1.04871704050343300D-01  0.00000000000000000D+00
45 15  0.00000000000000000D+00  0.00000000000000000D+00  0.00000000000000000D+00 -1.16077991424271000D-01  3.10809127782578400D-01
45 16  0.00000000000000000D+00 -1.75634650437288000D-11  5.20663537595276100D-11  0.00000000000000000D+00  0.00000000000000000D+00
45 17 -6.27061518419271200D-01 -7.19176644591266300D-11  2.01830267269630700D-11  8.56549148150927900D-01  0.00000000000000000D+00
45 18  0.00000000000000000D+00  0.00000000000000000D+00  0.00000000000000000D+00 -2.41715162815446600D-01  2.06456738774685000D-01
45 19  1.44980509940191000D-11  3.04968003000030400D-11 -6.78873220899137700D-11 -4.90341151847301700D-11  0.00000000000000000D+00
45 20 -1.01774600497893900D-11  8.70048098215480500D-03 -2.67836588319627100D-11  6.58270775775934000D-11  2.25482960682181400D-01
45 21 -1.67695997588985800D-11  1.37634317345136800D-11  3.32231592629361200D-02  0.00000000000000000D+00  0.00000000000000000D+00
45 22  0.00000000000000000D+00 -1.45017189853842500D-11 -1.33907270115655700D-03  1.25520734193605400D-02  0.00000000000000000D+00
45 23  0.00000000000000000D+00  0.00000000000000000D+00  1.51676282627793000D-11  9.14893049300504400D-03 -7.73373225077659800D-02
45 24  1.03487162915436400D-11  2.29829128207388500D-11 -4.71220397169215200D-11 -3.27201507646454900D-11  1.07600078309444500D-11
45 25  0.00000000000000000D+00 -8.71140176100527700D-03  2.90222432194504800D-11  1.21774748513646200D-11 -2.25465756704438400D-01
45 26  0.00000000000000000D+00  1.70202965244272600D-11 -3.32222400729087100D-02  1.06205826604140000D-11 -1.52588563395015900D-11
45 27  0.00000000000000000D+00  0.00000000000000000D+00 -1.15363415578567100D-02 -5.12212074645045400D-03  0.00000000000000000D+00
45 28 -1.45465818072629300D-11  0.00000000000000000D+00  0.00000000000000000D+00  7.15376830954471500D-02  3.07607530446767200D-02
45 29  0.00000000000000000D+00 -3.08801181881516600D-11  0.00000000000000000D+00  0.00000000000000000D+00  4.07582078647467400D-02
45 30  0.00000000000000000D+00  3.97475671226475100D-11  0.00000000000000000D+00  0.00000000000000000D+00  7.34775295167077700D-02
45 31  0.00000000000000000D+00  3.32991521184219300D-11 -1.22404192721932000D-11  1.98795883040921800D-11 -7.34720986048995700D-02
45 32 -1.70188038978574800D-11 -3.53515392419790800D-11  0.00000000000000000D+00  0.00000000000000000D+00 -4.07600296710984600D-02
46  1  0.00000000000000000D+00  1.20208689705006300D-11  3.09654606265774000D-10 -5.59800794326009900D-11 -3.88201353713487000D-11
46  2  1.74672208588542800D-01 -2.77753130887745200D-10  2.31981114004065500D-10  2.75352348092522800D-01  0.00000000000000000D+00
46  3  7.86305952352326100D-11 -7.94009327251399000D-11  1.37869498919630000D-10 -1.67816574222355100D-01  1.89161321121746000D-01
46  4 -1.08928832169279800D-11 -4.32397431524720200D-11 -1.55062166288392400D-10 -7.77440691724529000D-11 -8.47959365715074300D-11
46  5  1.74656004909237300D-01 -2.39714141104095700D-10  6.41682913200096300D-10  2.75391548082152400D-01 -1.14725583638579800D-10
46  6  8.84236428728995000D-11  2.63019407656803500D-11  0.00000000000000000D+00  2.47669996622485800D-01 -5.07183452271190400D-02
46  7 -8.76344120499615400D-11 -1.99927838109143200D-10  7.57083194227769500D-10  0.00000000000000000D+00  1.92045064051999300D-11
46  8  9.31762081847182600D-02 -2.03824904065498300D-11  3.15013222366877400D-10 -2.58820238139161100D-01  5.24921620726389500D-11
46  9 -3.94061209061235800D-11 -1.30860411665156900D-11  2.46608246346882600D-11 -5.08385532503644900D-02 -3.41592260760953700D-01
46 10  0.00000000000000000D+00  0.00000000000000000D+00 -1.45665432234399800D-10  2.87449314985484800D-11 -1.24494107082510100D-11
46 11  1.05130451047715000D-01 -2.67809574929744900D-11 -1.62770176321202600D-10 -1.26791110382292000D-01 -1.08266323409940100D-11
46 12  1.04208143187709700D-11  0.00000000000000000D+00 -2.50922231537856100D-11 -1.59424616271391700D-01  3.60380344737480000D-01
46 13  0.00000000000000000D+00  2.83337152145316000D-11  9.72770995075743200D-11 -2.49487265373501500D-11  5.75481305238902900D-11
46 14  1.05103299164753700D-01  1.19555355309757500D-10  3.69260092873487900D-11 -1.26730523837412600D-01  3.13317299768510400D-11
46 15 -1.35716171738836400D-11 -1.77601128029675400D-11  5.60990506355546700D-11  3.91826157751652300D-01  4.21893058747438200D-02
46 16 -5.63514042157968300D-11 -1.67359732440488900D-10 -1.60123794399400800D-10 -1.71676012872659100D-11  4.12621077353125700D-11
46 17  9.31499090340536900D-02 -5.63679776627580900D-11 -9.51621692669671600D-11 -2.58803968685428100D-01 -5.12764234834966300D-11
46 18  2.77321397390892000D-11  2.35442837444074300D-11 -1.03842656098574100D-10 -2.70396966415538900D-01 -2.14826189379389800D-01
46 19  8.70914081312374200D-11  1.95627504021482900D-10 -4.05618872229640900D-10 -2.95386970671388300D-10  0.00000000000000000D+00
46 20  0.00000000000000000D+00  1.39088856621326600D-01 -6.59704536969540200D-11  1.23171475815160100D-10 -3.39769134316268200D-01
46 21  1.04367330651217900D-11  2.11064753137517400D-10 -7.79386229193941600D-02  0.00000000000000000D+00  0.00000000000000000D+00
46 22  0.00000000000000000D+00  3.01686591553811100D-11  2.98717300406586200D-01 -1.47744040092257500D-02  4.92406302869203000D-11
46 23 -5.03022149012223900D-11  0.00000000000000000D+00 -6.69010723707170900D-11 -2.67995845498733300D-01  8.78193806769800300D-02
46 24  5.39884453079568800D-11  1.21072764444028800D-10 -1.42610949572482800D-10  1.32152621857766400D-10 -1.23351262957389900D-10
46 25 -2.00547265542489600D-11  1.39083003314027400D-01  1.23907236986916300D-10 -1.94650045955340400D-10 -3.39752393268545600D-01
46 26  3.81679800592006600D-11  3.42134002955145500D-11 -7.79328954121840100D-02  4.76099094467474600D-11 -4.72562760628811300D-11
46 27  0.00000000000000000D+00  3.78390331656929200D-11 -1.62144091654732900D-01  2.51226279089027100D-01 -4.18049375608774100D-11
46 28  9.23616542998832100D-11 -5.05567167390058200D-11  4.86462038098942200D-11  2.10073834092868500D-01 -1.88184050312968000D-01
46 29  0.00000000000000000D+00  3.00824254528735300D-11 -7.30823579960671200D-11 -2.67224028769505600D-11  4.92283131204808600D-02
46 30 -5.44786870709180300D-11  0.00000000000000000D+00  7.66096919892944100D-11  1.18836100345552600D-11 -5.94661096084436600D-02
46 31 -1.27048936321288200D-11  4.04388712936523300D-11 -3.54451651134133500D-11  0.00000000000000000D+00 -5.94661642840720200D-02
46 32  2.71379450283019200D-11  1.15039588820449600D-10 -3.85009516551250800D-11 -5.50676893195213800D-11  4.92234686949103200D-02
47  1 -4.68055711461820200D-11 -1.08666867720112200D-10  0.00000000000000000D+00  9.09399046695547100D-11 -2.63932294666914900D-11
47  2  1.04963728486001900D-01  1.24038355694069100D-09  1.03803580822535200D-09 -6.29455693670209600D-02 -4.06778145597438800D-11
47  3  8.33679290753428700D-11 -4.26901145155987600D-11  5.91792954428746200D-11 -2.99849619452093700D-01  4.67757955879791600D-01
47  4 -5.95626267927428600D-11 -1.21152265980467800D-10 -1.49660318154767200D-10 -8.36430762025629000D-11  1.10710717932274200D-11
47  5 -1.04996596414374800D-01 -2.34647566799868300D-10 -1.85680673791138200D-09  6.29116940376163200D-02 -1.18050219068971600D-10
47  6  1.15853608187568100D-11  1.06464858250214200D-10 -6.33279685907043600D-11 -5.55058834250811600D-01  2.57453497529560200D-02
47  7  1.18186334953711600D-11  3.60146026493533300D-11 -7.01313825825858500D-10 -1.52618517848059200D-11 -1.56694282493150500D-11
47  8  3.13832886540693500D-02 -5.25273427079295000D-10 -1.00820966893917500D-09  7.36398838229030800D-02 -1.46049733608009900D-11
47  9 -2.62472809700239500D-11  4.08522543308246000D-11 -2.74554147443375300D-11 -5.94269471039259500D-02 -5.80602513502166300D-02
47 10 -1.63726720869304900D-11 -4.52677291509017700D-11  3.04023080104881800D-10 -5.95429585435439200D-11  2.14099928369380600D-11
47 11  1.23169824936819700D-01 -9.15305910076767900D-10 -7.52289342116671600D-11 -3.51100012122918200D-01  2.98870777592159400D-11
47 12  0.00000000000000000D+00 -2.07183402240278600D-11 -1.45156995601580000D-11 -3.54047289004794300D-02 -1.29060300400067100D-01
47 13  0.00000000000000000D+00  0.00000000000000000D+00 -3.98108077638537500D-10  1.61322419606744600D-11 -1.05851812536761300D-11
47 14 -1.23173982534281700D-01 -8.55505933815938100D-10  5.00469481073136100D-10  3.51109027657323400D-01 -1.31935092667121300D-11
47 15  6.26341142390845000D-11 -4.94406049723715000D-11  7.91945740682766400D-11  9.39971217753576400D-02  9.51932627146750800D-02
47 16 -3.98804380360025100D-11 -6.14703559782463300D-11  7.72073525042333300D-10 -1.53037728277236700D-11  1.59944712234803500D-11
47 17 -3.13914679964055500D-02  1.12236403962200000D-09  4.74231918753420100D-10 -7.36106345982527900D-02  5.05167380868244700D-11
47 18  4.37266507898371200D-11 -9.42433888766620300D-11  4.08685651906100000D-11  2.05955791289881600D-02  8.05153597577469200D-02
47 19  2.99507414212032900D-11  5.17299387739724900D-11 -5.02633384071287100D-10 -4.72209455377986500D-10  5.99258791913740400D-11
47 20  0.00000000000000000D+00  4.27555258248103300D-02 -2.35002241473908200D-10  8.02181116370506000D-11 -2.25414902704373100D-01
47 21 -3.73377556051527100D-11  2.62678961972483600D-10 -1.11139123973106900D-01  5.42475174803951800D-11 -2.98088541899511000D-11
47 22 -2.44386632904442200D-11  6.92260813001317100D-11  5.01728942085087400D-01  2.83897342934768600D-02  1.34974594795658000D-11
47 23  1.16484548397588400D-11 -2.51459143193245500D-11  2.60223752019532700D-11  1.37204205141573800D-01  1.17611674219757100D-01
47 24 -8.89990580087780200D-11 -1.67628005457833500D-10  8.03823224538021400D-10  6.28981658596392600D-10  1.53378448563058100D-11
47 25 -3.31008874982705100D-11 -4.27808930421428300D-02 -4.39197015885148700D-10 -6.15414061799598700D-11  2.25477371122488500D-01
47 26 -1.89285245540835600D-10  3.65214889976312400D-11  1.11149390927080700D-01  3.20816955034995200D-11 -1.13161062271411500D-10
47 27  8.10793667679120500D-11  5.08814975194906800D-11  2.26353273950438400D-01 -4.48724334469671400D-01  9.22674119047590300D-11
47 28 -8.08304417838997000D-11 -1.14369701208593800D-11  2.42202607033428600D-11 -3.32614347682143700D-02 -1.77608346333100400D-01
47 29  5.67986607126505100D-11  0.00000000000000000D+00 -3.22833297223452900D-11  1.49550631107016500D-10  9.92496584755670100D-04
47 30 -6.34357401152006900D-11 -1.67214886361274800D-10  9.86960478558289600D-11 -2.40785450240334800D-11 -3.22786871276062800D-02
47 31 -8.02878968056489000D-11 -1.34579588246761000D-10 -1.32898539481837200D-11 -8.93411194511356800D-11  3.22886874549945200D-02
47 32  7.88722629685662700D-11  3.61571517214881400D-10 -6.02053169221734300D-11 -3.97995365361966800D-11 -1.00006182129717000D-03
48  1 -2.47157094505143500D-10 -4.55288873747872600D-10  1.01251825885883400D-09 -1.57986473631161000D-10  0.00000000000000000D+00
48  2  5.34061590104716200D-02 -1.91677565666706200D-09 -9.64593953535662600D-10 -3.98366037640940900D-01  2.92972529193129300D-11
48  3  7.73576234241495300D-11 -1.06654876343463900D-10  9.01511592527185900D-11  9.33918491998364900D-03 -2.03832924689738300D-01
48  4 -5.07029359517355800D-11 -1.56778943217446700D-10 -8.44472368048142300D-10  9.62200432159789900D-11 -5.40377454258211700D-11
48  5  5.33980979810194600D-02 -1.05734768223818500D-09  3.14821357266830300D-09 -3.98345508480170600D-01  1.27756823627559900D-10
48  6 -1.65504099601375400D-10  3.77472759738164700D-11 -8.48317991052911400D-11 -1.81190096918073800D-01 -9.38402835436683300D-02
48  7 -1.22066041693684900D-10 -1.68049606446475400D-10  2.35023372916107200D-09 -1.31035415733735400D-11  1.65174315064220200D-10
48  8 -8.98113712098348000D-02  3.03099028830141500D-10  2.09493426679356600D-09  2.71886988550113100D-01 -2.01359612588447400D-11
48  9 -3.37535302412572200D-11  5.38894915001024600D-11  2.68601702283535400D-10  1.92393671638433400D-01  1.09441131877824500D-01
48 10  5.32053549681978400D-11  5.95386190780425600D-11 -1.13878168606736500D-09 -2.36601314950006300D-11 -2.83120712504994400D-11
48 11  2.77876845734467600D-01  1.19129658174430400D-09 -1.23392788207669600D-09 -1.86302398708813300D-01  1.38290528429335600D-10
48 12  4.79756217587259500D-11 -1.86266150188060800D-10  2.12362253562047200D-10 -1.40611745453437600D-02  1.86627722946953200D-01
48 13 -9.00965205693972600D-11 -1.06205711127514700D-10  2.88655349621074300D-09  2.13482397490755400D-10  1.17880639881775700D-10
48 14  2.77859592671490100D-01  1.19564708325128500D-09  2.98883224036493500D-10 -1.86281455643209800D-01  6.28449178587638600D-11
48 15  1.95817156315850000D-10 -2.58662074174615900D-10  2.70157957817772000D-10  1.68656014182425400D-01  8.11417837802354300D-02
48 16  8.59401463212816000D-11  9.68526584453502100D-11 -2.93376815872516500D-09 -6.73736309011465100D-11  1.51215847781487800D-10
48 17 -8.98243358417857900D-02 -1.49524841351829900D-09  8.14941945747703600D-11  2.71901331224818100D-01 -3.91983526556196600D-10
48 18 -1.14683207983747000D-10  5.06666734539944100D-10  0.00000000000000000D+00 -1.44677459800643900D-03  2.21331963690955000D-01
48 19 -5.58127317072702900D-11 -1.06356657856915600D-10  4.00752651589139200D-10 -2.99611212818362900D-10 -2.35838627157026500D-10
48 20  1.96304558948601900D-10  2.21373965086442100D-03  3.01391122371403500D-10 -2.14936275245399000D-10  1.01000655055533400D-01
48 21  2.86791984554516500D-10  3.45057606936062400D-10  2.48702261688588100D-01 -1.61615360259094300D-10  2.03957235984235800D-10
48 22 -4.23418757251421600D-11 -1.22555515591997900D-10 -3.46034035770163000D-01  3.94376822569893600D-02 -3.21591759278052600D-10
48 23  2.72699449888246300D-11  2.94321814289227200D-10  6.98718540751069900D-11  4.18699359792471600D-01 -9.44874182982774600D-02
48 24  8.82703495508271900D-11  1.95198068852543000D-10 -3.40401916438094200D-10 -3.04345598960535500D-10 -2.03280962315538200D-10
48 25  0.00000000000000000D+00  2.21965260244829000D-03  4.55232976555556100D-10 -4.00715687741905300D-10  1.00991359816084300D-01
48 26  2.71146767290288200D-10  1.62305985360537100D-10  2.48707091028540100D-01  1.29821641497229800D-10  0.00000000000000000D+00
48 27 -1.26140665862095700D-10  0.00000000000000000D+00  2.07197141890905600D-01 -2.79931222897869800D-01 -2.99443717230506800D-10
48 28  4.06672498274757200D-11  2.58776467403031100D-10  3.66633172623708700D-10 -2.91214148859389700D-01  3.15330659507653600D-01
48 29 -2.06873400632247600D-10  6.57325728861352100D-10 -1.71746085844739000D-10 -9.03206830176742200D-11 -1.42546720517372800D-01
48 30 -2.21991181910765600D-10 -1.32630023095832800D-10 -1.21838737972349000D-10  1.18766350140029900D-10 -3.39899490352020800D-01
48 31  5.35520539334959400D-11 -2.44426424180028400D-11 -6.00349940405439100D-11 -6.67044348445336300D-11 -3.39891514402864500D-01
48 32  2.70396635674137100D-10 -3.01179775288676000D-10 -2.09254728024905200D-10 -9.73015866276259300D-11 -1.42538333259274300D-01
49  1  1.40513567638441900D-01  2.73207528628416300D-01  5.23020784563677600D-02  6.00214358627879200D-02  1.53531638806690700D-01
49  2  9.79589012128766100D-02  7.56852564856469900D-01 -7.85728557093668600D-01 -1.43503100099203800D-01  6.12452805357171300D-02
49  3 -1.10880557223716500D-01  4.96352766879993700D-02  3.38202035105995300D-02 -1.85879221153277300D-02  1.38335736508161700D-01
49  4  1.20352188920628900D-01  2.10667870398152100D-01 -6.64811877518806900D-01  7.67912053304051400D-02  3.24294928012849200D-02
49  5 -1.01895980440400500D-01  5.39730216800145800D-01  1.43666069168807300D-01 -9.93614016910707900D-03 -2.06193733339836300D-02
49  6  1.48870552853791800D-03  1.91306678054461200D-02 -6.95137210953627500D-02 -1.09066671649027900D-01  5.85658470095471700D-02
49  7  1.32541878610248800D-02  2.35486650178402600D-02  2.46844158064796000D-01 -9.55357604955224400D-02  1.17091961794599700D-01
49  8 -8.76632391700780900D-02  3.51931824769857200D-01 -6.58719359476429200D-02  2.57617158329773700D-01 -1.33684913700660700D-01
49  9  9.02702583375955300D-02  4.34146553630654900D-02 -1.00005864533816700D-01 -1.23106722082955700D-01  1.24594701531408900D-01
49 10  6.46192862213921100D-02  1.05061870723189900D-01 -2.75788714436466300D-02  5.94844050999508300D-03 -9.48551075149332800D-03
49 11 -2.03175149217851700D-01  5.03597580943776400D-02  2.84381429014061600D-01 -9.54063628653792800D-02 -8.97419251822262200D-03
49 12  1.05307304603055300D-01 -9.63331120848324000D-02 -2.04821206281446700D-01 -1.36072781212764700D-01 -1.19325376275500900D-01
49 13  3.11885336625299900D-02  7.92457656614171100D-02 -5.15336357064407900D-02  7.84226514755958700D-03 -7.36387436980922400D-02
49 14  6.60881207973749500D-03  9.58360594354523000D-02  1.20865986720585400D-01  1.44683412906038400D-01  2.06874040032760800D-01
49 15 -2.38337158032983800D-01  3.14631180002230000D-02 -7.34949494573552100D-02  1.78899673376240300D-01 -2.70274095710296400D-02
49 16 -1.02520699389721400D-02 -3.19068425638983300D-02  2.54553471972587000D-01  6.95964866597895400D-02 -5.98039014072124900D-02
49 17 -2.28934426270797200D-02 -3.36213005912858200D-01  4.62119322078410600D-01 -1.22387432178883500D-02 -1.21532693255049100D-02
49 18 -1.64700820825604600D-02  2.86233514080652300D-02 -2.26707069464883200D-03  6.95763325108425900D-03  3.33041204203404700D-02
49 19  7.62277631446211200D-02  2.05826243953552700D-01  1.82915285862923500D-01  1.59287537586627700D-01  1.63055402331416300D-02
49 20  7.97584173579972700D-02  6.16378967445656700D-02 -1.10806629067658800D-01  8.51014616364066900D-02 -7.99330873692600700D-02
49 21 -1.01603985647751000D-01 -3.44103466769108900D-01 -8.40928056930603900D-02 -5.84048770518843800D-02  3.94086019023173100D-02
49 22  1.89962751495670700D-02  1.03369977069504000D-01 -7.75836570533619700D-02 -1.38179879102001800D-02  1.01781753319971400D-01
49 23 -2.37021597257143400D-01  1.35239843937172000D-01  1.86601653470333100D-01 -1.33298203917610800D-01 -3.74543686687935500D-02
49 24  1.10231483397098500D-01  2.74727690187221400D-01 -2.60418560523432800D-01 -5.30880482017966700D-01 -4.17290772828132500D-03
49 25  1.16642638701881100D-01 -4.61343266020434200D-02  1.21242420256384900D-01  2.55479073154911700D-02  7.31300376914713800D-02
49 26  8.17992384336711800D-02 -5.94098815085742100D-02  1.02515561869205800D-01 -1.24771788189584200D-01  2.89605622033415700D-02
49 27  9.58112259862426400D-02 -2.67342095743647400D-02  6.15813353792067000D-02  5.31846216942576700D-02 -8.69548431565608100D-02
49 28 -8.98991558913604800D-02  1.76853999047921300D-01 -3.95522949974106600D-02 -7.13806325872703200D-02  5.27542669288684600D-02
49 29 -1.35000886971398200D-01 -1.42184416477139300D-01 -2.11387347193190500D-02 -7.51899224462636400D-02  5.92926026036716400D-02
49 30  9.91011814911008900D-02  2.28692328020084800D-01  3.04830573453761400D-02 -1.91399192952763900D-01  1.81851699281307300D-01
49 31  7.95050932696564900D-02  5.90983213874807200D-02 -6.15067157955566700D-03  1.15225106935323500D-01 -1.76944002090638800D-01
49 32 -2.30899762643477000D-01 -1.71985618204097800D-01  5.85443982331907400D-02 -2.59206804876405800D-02  9.36759849517260200D-02
50  1  2.50873234612750300D-02  8.26272241356765000D-02  8.17817872285966300D-01  7.10713942752382900D-02  8.57124702033206900D-02
50  2 -7.74126330296847800D-02 -2.69481611747580700D-01 -7.83691347230942800D-01  1.16090506312513900D-02 -4.74927188119505700D-04
50  3 -1.05199396862682100D-01  1.05674324050801900D-01 -1.54982222418075500D-01 -9.03500573448157300D-03 -1.32561055050214500D-02
50  4 -2.84763379617687100D-02 -1.79781760993434700D-02  3.39088242457340600D-01  4.04262968611638600D-02  4.41711327101249700D-02
50  5 -1.00335859475283700D-01  9.49164973293910700D-01  1.40329982906442500D-01  1.85037168201235100D-01  8.14452257507055800D-02
50  6  2.39509666640247100D-03 -8.38403224171079800D-02 -1.04051856607627600D-01 -1.03037215918195000D-01 -6.86570306093336100D-02
50  7 -5.77074653998930000D-02 -8.93162159779418400D-02  3.06433365252699900D-01 -3.76636188961832800D-02 -2.07297986976360700D-01
50  8  7.27020290818358500D-03 -4.86837512924047100D-01 -9.84548217016735600D-02 -1.71242672364331800D-01 -6.26231106674136900D-02
50  9 -1.85954850520458200D-02  8.12185957194596600D-02  6.75777119209885900D-02 -1.12980942405752800D-02 -5.92830651563228000D-02
50 10  1.46558867389824400D-02 -5.36007641685280800D-02 -1.47935640536176900D+00  7.06284261460616000D-02 -9.51274090274581300D-02
50 11 -7.68747398630687100D-02  2.96723486998808800D-01 -7.47319476509327900D-02  8.26135827763257900D-02 -1.46096465836233900D-02
50 12 -5.35112344786192900D-02  6.81208810622430800D-02  1.64232004507126600D-01  3.29689565300576700D-02 -6.18125955686951200D-02
50 13 -1.34147396103440600D-01 -2.15024417086048700D-01  1.07834239458568600D+00  1.97123723575540000D-02 -8.64862958819879200D-02
50 14  2.53538889661831800D-02  9.58199277959858000D-01 -1.23418179964865800D-01  1.38563830269473800D-01 -1.23831764352438100D-01
50 15  2.14079007008696100D-01 -9.02472426562585100D-02 -1.28920647342046600D-01  3.40466688877537300D-02  8.09114468842965000D-02
50 16 -1.51338864894570500D-03  1.50634111034721300D-02 -6.90246919940537200D-01 -6.61814525884374300D-02 -2.58676789891390000D-02
50 17  5.53761003282806500D-03 -7.68431050736991100D-01  6.14823614741647600D-02 -1.24039260483444100D-01 -2.53692873402111000D-01
50 18  2.18182286847322000D-01  3.55105865547895200D-02  8.54371351653892800D-02 -2.44958955715638400D-02  1.25011317041430200D-01
50 19  5.41250176971320300D-02  1.16168919081386200D-01  2.26755228952696400D-02  3.76301928092797200D-01  7.80713724325764400D-03
50 20  7.89772017742189200D-02 -8.05884801805214500D-03  1.26816045164669300D-01  7.62328062868388300D-03  4.37335749093609000D-02
50 21  6.26942100527234100D-02 -1.74994119659580900D-01 -3.95542606737924200D-02 -1.07227921033114400D-01  5.63250928433491900D-02
50 22  5.09028281897649300D-02  1.43466528687957300D-01  4.49838238572934600D-02  1.01424760026038500D-01  1.02838560671194300D-01
50 23 -7.58045390815159200D-02 -2.70340215896789900D-02  1.21531090348160100D-01 -3.50177528539807600D-04 -7.84791016448532900D-02
50 24  4.50849451604560100D-02  4.44774350267444400D-02 -6.07779239205827700D-01 -3.08226484894880900D-01 -1.23608039572872900D-01
50 25  1.62253220573528000D-01 -1.43912602622443700D-02  2.75588224967997500D-01  8.33328820451465800D-02  3.52652556329129700D-02
50 26  1.67646406179613100D-01  4.34431174157387000D-02  1.06358464842892200D-02 -2.20775026420419900D-01  2.58882943770143800D-01
50 27 -3.81079173497237100D-02  1.50334037482713300D-01 -5.95646940815301500D-02  1.38702881182842700D-01 -1.55204377390309700D-02
50 28  4.43458787727556400D-02 -2.88254410337246200D-02  1.02480409074710600D-01 -1.76936282868221100D-03 -2.65113301425648600D-02
50 29 -3.94157224420883700D-02  4.71099635278541300D-02 -1.28058726175963800D-01  5.98346780793366500D-02  1.01675122665008200D-01
50 30  1.86943598380600600D-01  8.20216221501654500D-02 -1.53009435836394500D-01 -8.19991022867238300D-02 -8.35836328293945200D-03
50 31  8.13935506965684900D-02  1.38735876874350800D-01  1.65127763564576300D-01 -6.81047547597339200D-02 -1.22244091370037100D-01
50 32  5.56223312305543400D-02 -4.38288007890958700D-01  8.04168428135273200D-02  4.07602135945266400D-02 -8.84065340517211800D-03
51  1 -6.70879169299021100D-02 -1.36135270699994200D-01 -2.06517167177437400D-01 -1.22867550049779100D-01 -1.59943791081924300D-02
51  2 -3.84811514220096700D-02  1.58884987797848700D+00  5.56174171968189100D-01  1.89245524183150700D-01 -1.85690993927259900D-02
51  3  3.48609475093593400D-02 -1.62918481166331700D-02  8.60498353258484400D-02 -5.76052409608519400D-02  1.19863394722201900D-02
51  4 -2.69491620683165900D-02 -2.73004471547847000D-02 -5.87923199451189200D-02 -4.29011455446034800D-02 -1.68755206419704000D-01
51  5 -1.63860047231456600D-01  2.07454854866479800D-01 -1.35045674293315100D+00 -2.57311270583790100D-02 -6.64289319884248800D-02
51  6  5.74331665022863400D-02  8.99576548613844300D-03 -3.04151479718521600D-02 -1.53527604277039800D-01  1.17529080346885200D-02
51  7 -1.04545320512852300D-02 -3.32913266174829900D-02 -6.99154378027388300D-01 -9.51712790465328300D-02 -1.24957647137980000D-01
51  8 -6.03975735794512400D-02  3.46898286050561600D-02 -6.99322095782725400D-01  7.75617678792888500D-02  1.74129980198703000D-01
51  9 -1.41539440419904100D-01 -3.25905397787993000D-02 -2.38669590616126000D-01  6.61214265303859400D-02  1.65808275253360300D-01
51 10  3.69701279097178300D-02  9.40962923417025100D-02  1.14220684423390400D-01 -5.04391033354220400D-02 -4.77434707723952100D-02
51 11 -8.73532961803362600D-02 -3.36155854035505800D-01  3.03365866474672700D-01  5.33231437612773100D-02  1.02264060480337800D-01
51 12 -1.63313038051792000D-01  6.10489775714537500D-02  8.20576549998272100D-02 -6.41219064628430900D-02  6.64095199484851000D-02
51 13  3.73622498050888500D-02  7.96492954339865500D-02 -1.79965904636342400D-01 -1.75826662030861800D-01  6.05744718938868000D-02
51 14 -6.39061877709733200D-02 -3.38554357307543500D-01  2.96064225376524800D-01  1.08409399716333800D-01 -6.39888662292575300D-02
51 15  8.36705370646884800D-02 -1.96816708354303200D-02 -1.78459387327322600D-01  7.72244563625654600D-02  7.38392766075178200D-02
51 16 -1.24557480306584700D-01 -2.32249190224660300D-01  1.25556602399579900D+00  1.37220332543296700D-01 -1.72049948311878200D-02
51 17 -7.90614123104209400D-03  5.10684310151983800D-01  9.13338514347648100D-01 -1.46421687752721400D-01  1.01388821585562200D-01
51 18  1.43078394491821600D-01 -2.44467216077384200D-01 -1.66512150629446200D-01 -1.66013251454648700D-01  3.72133920462048400D-02
51 19  6.65205106579857800D-02  1.50280161322970000D-01 -3.58830178137232400D-01 -2.09552948439176900D-01  1.34680544249147700D-02
51 20 -4.09492403125177400D-03  1.48381967542540000D-01 -2.05068745592133700D-01  9.40307159865593400D-02 -1.90620012426099200D-01
51 21 -1.47755049473805400D-01 -3.06560144360590100D-03 -1.42808858915348500D-01  4.47174806192112600D-02  9.16877797072433200D-02
51 22 -1.36405260326454700D-01 -3.15448520286181900D-02 -6.15078438821461700D-02 -2.59256749046209700D-01 -7.34220407845652400D-02
51 23  2.04547031185826200D-01 -1.31124990401260700D-01 -3.29658765446438800D-02 -5.06458610949180900D-02  7.58668519380073900D-03
51 24  3.16519949465681500D-02  9.97249847475446100D-02  1.99142165611773600D-01  1.09480694172092000D-01  3.93209076243033500D-02
51 25 -3.40717893208719200D-02 -3.03371499961067400D-02 -1.76309722811531600D-01  1.21947033672782500D-01  9.04460988977460500D-02
51 26 -1.19360060349316500D-01  6.04374025131772100D-03  1.19395367490034800D-01  1.74619831550762200D-01  1.35659715958423000D-01
51 27 -3.10279547509185100D-01  1.12494297409062300D-01 -4.91771405906548900D-02  3.17047496011725300D-02  2.72000905759533600D-01
51 28 -7.78650619969687000D-02 -1.94135843762564900D-01 -1.84513526538363400D-01 -4.98302385191762800D-02  6.00173185183906300D-02
51 29 -4.29838635587160300D-02 -2.09105134327321400D-01  1.46396778507628800D-01 -2.18644079459495800D-02 -2.17033142743516600D-02
51 30  3.45441602032189200D-04  2.08894783687841800D-01 -2.18988906329025100D-01 -3.32894367099127200D-02  8.78843244893271600D-02
51 31 -7.80408501542227800D-02  1.21388524434864000D-01 -5.63508515078440100D-03 -6.25054893461438500D-03  1.24551371113162700D-02
51 32 -2.48519719493577000D-01 -3.43512883008002100D-02  6.50423341284691000D-02 -4.70468510942010300D-02 -1.15590559953637200D-02
52  1 -2.69011451572302200D-02 -5.23493948502812800D-02 -6.90952360555721200D-01 -3.43192476846197200D-02 -6.53766709042504500D-02
52  2 -7.30485402207739600D-02  4.96336150285785500D-01  5.95321963867238200D-01  9.43892777213864000D-02 -1.01812499606535200D-01
52  3  1.09842381164536000D-02  9.08282614900819500D-02  3.10121416894087000D-01 -4.10594466026518300D-04 -6.72533575623364400D-02
52  4  1.16619324733870800D-01  1.38521698306471200D-01 -3.37196672538803400D-01 -9.19545081212004300D-02  1.07684787870854600D-02
52  5 -9.92982624469292000D-03 -5.39791685949818900D-01 -3.98652080216345600D-01 -1.86599266544587600D-01  4.85818923991867300D-02
52  6  1.24574255450430500D-01 -1.73156147849617600D-01 -1.76088719470709500D-01 -5.14268906279685300D-02  6.15818361436770600D-02
52  7 -6.11812493766999700D-02 -1.41171051170468200D-01  1.99560571465677000D-01 -9.09227023387639000D-02  4.44256900523698700D-02
52  8 -1.98598978506036900D-02 -4.12976336452010000D-01  2.75820888173501700D-02  3.14510938291151700D-02  1.75484539542407000D-01
52  9 -4.68003052170477800D-02 -1.28684234325359500D-01  1.56754848925624100D-01  3.54134509362695700D-02  1.98920736487435000D-01
52 10  5.57657232284503000D-02  6.59288260853182200D-02 -7.73907915362078500D-01  2.01097214302260600D-01 -4.28371062964593600D-02
52 11 -6.77973374559900400D-02 -2.61026815948409800D-01 -4.36587697720505000D-01  1.24367111894960700D-01  6.32863078535279000D-02
52 12 -5.56983560833760300D-02 -7.58795177015279900D-03 -4.21105590736431200D-02 -1.75494117613577300D-03  5.14911874111260900D-02
52 13  3.93422470511910400D-02  1.73682080090809800D-01  6.15148200513489400D-02  8.54996798954804500D-02 -2.16063908087112300D-01
52 14 -5.38091273794217700D-03 -2.79144117683528000D-01  2.10646276629455600D-02 -4.98687875969612800D-02 -6.75903761319592600D-02
52 15  3.40862850493673000D-02  3.35040910825921400D-02  3.02637296156935400D-02  2.26738512328766700D-02 -2.94666493049013800D-02
52 16 -6.47289997765977700D-02 -1.23226883489585100D-01  6.93523286994140100D-01 -2.46691824206167900D-01 -1.58962570673425800D-02
52 17 -2.26529769547373000D-02  8.44568687105975800D-01  8.83561543660818900D-02  2.41573610118172800D-02 -7.29891883670546300D-02
52 18  1.39924810840622400D-01 -6.69356224735677800D-02 -1.00653352295223600D-01 -7.21061814884638600D-02 -2.44350741424728200D-02
52 19  4.35384972931634800D-02  9.98770703789296600D-02 -2.23839671010557600D-01 -2.19625853709709900D-01  4.03754627333873400D-02
52 20  3.25563073770379000D-02  1.02625530613122400D-01 -3.13923840902223800D-01 -1.21910247279578200D-01 -7.85540906428106000D-02
52 21  8.42372813050618100D-02  2.44301221284514000D-01 -7.65776996395033700D-02  1.09980233641462300D-01  6.18758570923501000D-03
52 22 -1.16167819350697600D-01  1.46148136363775500D-01 -4.38920350135896900D-02 -1.58479982035309200D-01  1.85208942787309500D-01
52 23  4.38793645167188200D-02 -2.29088307304028300D-01  1.13409147969013200D-01  1.37813599189236600D-02 -1.17721322598257900D-01
52 24  7.42110757034221400D-03  4.14023350694064000D-02  3.14527681850220100D-01  3.67609967446395700D-01 -9.92165039217599900D-02
52 25 -1.85799620224708300D-02 -3.75857771469977600D-02 -7.49095188979191400D-02 -8.40531628243789500D-02  7.73291225284813400D-02
52 26 -1.88401158556199200D-01 -9.98691082701218800D-02  9.94861307765243800D-02 -8.14161734940304600D-02 -9.37169731119765800D-02
52 27  1.75133146606007100D-01 -9.05443912455038000D-02 -8.37434745184247500D-02 -2.37404318577244700D-03 -1.60596529141814600D-01
52 28 -1.09466343756571900D-01  2.70062872898386400D-01 -2.43737492900782300D-01  7.53492583011334700D-02 -5.21963744739516200D-02
52 29 -2.18615830515983600D-03  3.98066558219816700D-01  1.55076063641380700D-02  1.73938933610783300D-01  2.84795877671503500D-02
52 30 -7.82693297693319300D-02  4.33952436670654900D-02  1.19080365927993100D-01  9.79260569220744600D-02  2.40867075245271200D-02
52 31 -2.34604396928017400D-01 -2.98093539141508600D-02  1.12209893439813400D-01 -2.92094516556100900D-01 -2.56495510711739400D-02
52 32 -2.76976015928042000D-02  3.69054685554193300D-01 -8.55441436457545200D-02 -8.96172055303238600D-02 -2.10980557167720500D-02
53  1 -4.24259778997558600D-02 -1.08566576149387400D-01  5.28462926186316900D-01  7.67269787704217200D-03 -9.32491428657733800D-02
53  2  2.44359293730844100D-01  1.14007880172870500D-02 -3.39187446181764400D-01 -2.80368710015914300D-01  1.66732649892520600D-03
53  3  1.34096594621906800D-01 -1.35763921120832300D-01 -1.83972460185779600D-01 -2.06991430148905200D-02  2.10690993772091500D-01
53  4  7.60527154013763400D-03 -2.77768032901899000D-02 -1.13158542921889700D+00  1.06500238905100400D-01 -9.33497777833964300D-02
53  5 -9.32946078549220200D-02  4.63215350671284200D-01  1.54899884970596400D+00 -3.98581652056562600D-02  1.29067442831137200D-01
53  6 -6.24017032638325100D-02 -6.66657395673040500D-02  1.37724824397583800D-01 -2.04525902926602700D-01 -2.43580791069957700D-02
53  7 -2.50367731398281800D-02 -4.78833496717030300D-02  1.10553122083942200D+00  1.90188080664488800D-01 -1.38974244825912100D-02
53  8 -1.96974406645487100D-02  5.35262353445292000D-01  1.05828756593891700D+00  2.41308128267612400D-01  3.20643907011933900D-02
53  9  2.48653279690162600D-01 -2.80717670391356000D-01 -8.97028615719751600D-03 -8.36044387742968700D-02  2.62819978404373300D-02
53 10 -1.20497559997129200D-01 -2.38734371925913700D-01  3.49607521596244600D-01  1.43497148168521700D-01 -5.45723196849559600D-02
53 11  3.31012573241874200D-03  6.14503869015730100D-01  4.42151924423762400D-01 -3.07419775983584300D-01 -1.35180921234700800D-02
53 12 -8.25970146944770300D-02  9.61151068179486000D-02 -9.50687861849859500D-02  2.11870131360182800D-03 -1.23860299383047600D-01
53 13 -3.36213621584584200D-02 -4.90039623918480500D-02  2.50040555899451400D-01  3.20360476981869400D-02 -2.19545149017431000D-02
53 14  4.20006490656631600D-02  3.97361210865154500D-01 -9.87576995356840200D-02  2.01664849231312900D-01 -1.40797138248991800D-01
53 15  5.87443239437355600D-02  8.20528143052560300D-02 -1.02377633369017700D-01  1.60037017145331300D-01  5.47578389479979500D-02
53 16  8.93170391266755900D-02  2.17394245522207900D-01 -1.67663476761237900D-01 -2.37489832558440000D-02  1.28194983739289500D-01
53 17  4.97921244768428300D-02 -5.11089262713514800D-01  2.83875571263976800D-03 -9.45357130208067500D-02  2.15461940498423000D-01
53 18 -1.15876878721762900D-01 -9.95850617766601800D-02  1.33512385247583500D-02  6.90883366976076500D-02  3.56618650460437400D-02
53 19 -5.82571876763029800D-02 -1.38991185167688000D-01  8.91103465880161800D-02  9.28543347078279000D-02 -1.78087933649532800D-01
53 20 -6.93150946515791700D-02 -1.52323929498130000D-01  1.78091281803236300D-01  6.81156546112771700D-02  1.76397193332399600D-01
53 21 -1.82656952190205600D-01 -6.55198924720520000D-03 -9.33781806264319900D-02 -4.96139681513830200D-02  7.52085285601757900D-02
53 22 -2.55945604087923800D-02 -8.23269313061523000D-02  1.96674690597312200D-02  2.59137535285812100D-01  9.09056340849030000D-02
53 23 -1.11704698811819700D-01  2.07990647269167500D-02  2.89454741710403500D-02 -2.50500856553706500D-01  6.33991688630478100D-02
53 24 -2.42566390598370600D-02 -1.14273708797499800D-01 -4.60426060254265200D-01 -1.77279672062546600D-01 -4.42944305363866100D-02
53 25 -4.45455218780590100D-02 -1.53754672187461700D-01  2.80223971825367800D-01  3.68598046192465500D-02  3.24339776124011600D-01
53 26  1.64355987392508300D-01  3.85971335534060700D-02 -1.22878920245679400D-02  1.98738666011221200D-01 -1.70972821908027200D-02
53 27 -1.81641383820418800D-01  5.70622559623671600D-02  1.61893994807825200D-01  1.60642252834333900D-01 -3.22648465679528800D-02
53 28  5.33861805403915600D-02 -2.11213339724385800D-02  1.03695326678387800D-01 -2.27579513374434200D-01  1.69590976212647300D-02
53 29 -2.44798740344308900D-01 -1.78235843489579600D-01  3.14588174610847600D-01 -7.91559232121976400D-02 -5.43071681874373900D-02
53 30 -1.93401371581758100D-02  4.24219918923604200D-01  3.79311089111356200D-02  1.17124481917410400D-01  1.21623782922628100D-01
53 31  2.58729753756997100D-02  2.24857105069366400D-01  1.31433571720838400D-01  1.40800862533206900D-02 -8.04664935315431300D-02
53 32 -8.72232672137757800D-02 -4.24499168692022500D-01 -1.45721476186937700D-01  8.85249987788452300D-02  1.36917345982152500D-01
54  1 -1.71252553963765400D-01 -2.44349066409018700D-01  1.02517302260466500D+00  6.42264112985682200D-02  1.30525198607651400D-01
54  2  1.31693701483759100D-02  2.44081130632685500D-01  8.54514708405994700D-01  2.00738373140856100D-02  2.03630675978054700D-01
54  3  9.25478540492879900D-02 -2.96178530027342900D-01  3.60228980304115000D-01 -2.43375436230262900D-02 -3.00828290078306500D-02
54  4 -9.26241112696587800D-02 -9.32049822991365300D-02  4.89839269949865600D-01  7.73422853577951500D-02  4.96994191593496900D-02
54  5  2.08761777017416100D-02 -5.73277153109379700D-01 -5.82920666547333100D-01 -2.82721831349541100D-03 -8.94337254914501500D-02
54  6  5.46556767055246700D-02  3.47780487859252300D-02 -2.48078969106377100D-02  4.94058048120897500D-02  8.34278803759929100D-02
54  7  9.49176795926623100D-02  1.84467898127461000D-01 -1.23710413310752000D+00 -7.00710122247918400D-02  1.37920707656634800D-01
54  8 -5.38271522086106200D-03  1.06992431473102400D+00 -1.02505640434031800D+00  7.34234939850570000D-02 -1.27257200051963600D-01
54  9  8.42459835822263700D-02  4.30112164697370500D-02 -2.42792775710903600D-01  6.40637009522580000D-02  9.17942700113791900D-02
54 10 -7.09781153567211300D-02 -8.29007323515134800D-02  2.41501413644811600D+00  5.88566379458174300D-02 -1.84012452201797000D-01
54 11  1.56650769230819700D-01 -7.96597775714892400D-01  1.38545321150511400D+00 -1.67885070427414400D-02  8.62815434592447600D-02
54 12 -2.45938983707664200D-03 -8.38221536221685200D-02 -3.11898378587784700D-01 -8.05273272142034100D-02  9.67598796589490100D-02
54 13  4.63346574517784100D-02  3.48856477290147500D-02 -1.85411202217237600D+00 -9.03813222331123600D-02  4.26427590212566800D-02
54 14 -9.31869308105120900D-02 -1.13198633164525400D+00  2.49901663496693800D-01 -8.04715025892121800D-02 -1.56611555087353200D-01
54 15  1.02568011772827400D-01  5.40435433145270600D-02  7.93532929408771700D-02 -1.15102292765477600D-01  4.87572905413352400D-02
54 16 -2.62069318307263500D-02 -6.67747776419581300D-02  1.65791453587356900D-01 -1.44067121797539700D-01 -1.15522944924618700D-01
54 17  2.00618892569705100D-02  4.35990009929976400D-01 -3.60290980051048800D-01  8.63986332950005000D-03  7.78948882267296200D-02
54 18 -1.22748894065426600D-01  4.48540058386967200D-02  2.24639166994832900D-03 -5.98478271015722400D-02 -6.37693454915225200D-02
54 19  1.25353048944079200D-01  2.44850745212495500D-01 -9.50910834130799600D-01 -5.23837919698669400D-01  3.97784178205346300D-02
54 20  1.66224423050222600D-01  2.92111521626043900D-02 -2.24226013780032100D-01  2.79573782212340200D-01 -2.67776382265971700D-02
54 21 -2.69032456008677600D-01  1.73107651084394500D-01 -2.65758119621810800D-02  7.99226283690040700D-03  7.21240085933453900D-02
54 22 -8.01162714302450200D-02  1.39840358182065200D-01 -1.01979266390039500D-02 -1.54110823180665700D-01 -5.06920815060530700D-02
54 23  1.44674082481502700D-01 -9.39820009754489100D-02  2.81439417560309900D-01 -2.81998982044605300D-02  2.75417492810995300D-02
54 24 -7.45810675457182200D-02 -1.74648148829225200D-01  4.37280799305126200D-01  3.88675322318726500D-01  1.15527755924702400D-01
54 25  1.52481918933612800D-01  5.04030927041736900D-03 -8.94534088084393100D-02 -1.90605221705901400D-01 -6.51652143646476900D-02
54 26 -1.50174418008098200D-01 -4.24934222390008900D-02  3.52014634630360100D-02  3.93019784649526000D-02 -3.03986569304723000D-03
54 27 -3.62621127719055100D-02  9.10650769422027800D-02  5.94318542713552800D-03 -2.24805925488326400D-02 -6.41143206275693000D-02
54 28  1.85225751518168300D-01 -1.21111430890599100D-01  3.48383865534745300D-01  8.29807155963398800D-02  6.46971578899247200D-02
54 29 -2.94964324883685600D-01 -5.13550737117192900D-01 -1.66249300764078200D-01  1.71445727698142200D-01 -1.12128055615900800D-01
54 30 -1.81964984050517000D-01  3.09244052104869500D-01  1.94625399135687200D-01 -1.42677149100332500D-01 -1.36341447088028700D-01
54 31 -1.30947345353463500D-02 -1.54780735563355100D-01 -3.08107564092985600D-02 -1.97162519432032900D-01  2.04920339671203300D-01
54 32  1.95265256185331600D-01  2.36142626365278700D-02 -1.12114365191103400D-01 -6.59089339365570800D-02 -4.27102289549162300D-02
55  1 -1.16348478269562500D-01 -2.29516849440881300D-01  1.26244222704112200D+00  6.33158459532943000D-02 -4.54993241524298100D-02
55  2  2.05973519941613100D-02 -3.43956268483008400D-01 -3.25584740806174400D-01  2.15075964587562600D-02  3.27066587606561400D-01
55  3 -2.15797509435448700D-01 -1.11269078171112600D-01  1.64209930603541600D-01 -4.54903291789660400D-02 -6.07257295617451200D-02
55  4 -4.54498723985986300D-02 -6.03526823166178800D-02  4.47263272444133400D-01 -2.90524035703505700D-02 -2.65578401727022300D-02
55  5  1.40342225854367200D-02  8.86018661054431400D-01 -1.22132737997916400D+00 -1.38757781774035000D-01 -7.87655750175835100D-02
55  6  5.98011627502009400D-02  1.89644122673820600D-02 -5.45819033943176000D-02  1.35454867991325600D-01  8.74145601045232300D-02
55  7  2.90212523696968100D-02  4.02699684807914700D-02 -1.02306100211993900D+00 -9.52182060808261100D-02 -6.61062531871772600D-02
55  8 -7.81781938156705900D-02 -4.35269153690459900D-01 -7.12378923863500500D-01  1.53207983908258700D-01  8.36527786816292200D-02
55  9 -2.23213610273210800D-03 -8.14206425788968600D-02 -1.12790280861171400D-01 -3.22625105993992100D-02  1.26790495636349900D-01
55 10 -6.01411001880436700D-02 -1.66503281152838600D-01  2.31929567965129600D-01 -1.51137312204832500D-02  1.65947034053973800D-01
55 11 -1.65045626199804600D-01 -5.72134181936282500D-01  2.97066944241389600D-01  1.19310604815688100D-01  3.56177525805980700D-02
55 12  7.79739413675980100D-02 -1.13591693948196100D-01 -7.27269630036177500D-02 -6.27587961358153200D-02 -1.57856382155218500D-02
55 13  4.44613426807615500D-02  5.95439798340092900D-02 -1.20249853147118600D+00 -1.52839625132913400D-02  1.70644873227840800D-01
55 14  7.71728584765718900D-04 -6.68492693199317800D-01 -3.57342551686184000D-01  8.36686817279970000D-02 -3.95767643753203600D-02
55 15  9.41030462254169300D-02 -5.45262818500956000D-02  7.68534113865056300D-02  5.41062010998251200D-02  8.00768685927743100D-02
55 16  5.71128821335311800D-02  1.33150035675558600D-01 -5.53255734985369000D-01 -2.23536802446723200D-01 -3.96272434859786000D-02
55 17  1.14748292637877200D-02  2.86637895878723700D-01 -7.08681248020862500D-01 -1.61656084431948100D-01  1.61314663190630700D-01
55 18 -1.45764425498469000D-01 -1.55502376921616000D-02 -1.32853446755542800D-02  1.37309076241863400D-02  2.71823111106908700D-02
55 19  7.97185253935227800D-02  1.89559267648011700D-01 -1.52135568671727100D-01  2.43349714101454200D-01 -7.28608076457491800D-02
55 20 -8.11140819049037200D-03 -1.09528270863872600D-01  9.91678110007749600D-02 -1.39218861051298000D-01  1.84216051852764100D-01
55 21  5.48933958805782000D-02 -1.00414019661395300D-01  3.61096759196620000D-03 -8.84117527396067200D-02  2.45039456328906300D-03
55 22  8.59613581763177800D-02  9.44411393450047300D-02 -1.17874058970295500D-01  1.86557284563766600D-01 -3.29530509063939200D-02
55 23 -4.30489276291794000D-02  7.60019785355733800D-02 -1.95020029465086200D-01  7.55267100488243300D-02 -8.60853897912334500D-02
55 24  4.61504859176405700D-02  9.42838857989974200D-02 -2.09992386084950500D-01  5.86838548379417400D-02 -1.18808659292330000D-02
55 25  4.76775979005009400D-02  9.31000203963892600D-02 -1.67335883703002200D-01  1.81385097587648100D-01 -4.93835375739178400D-02
55 26 -6.45934468068633500D-02  9.58336486319217600D-02 -2.45267527657094200D-01 -6.13110846061584200D-02  1.55741782544866100D-01
55 27 -9.44306979387076900D-02 -1.53000665398730900D-02  6.39405615437907600D-02 -3.16677953650748500D-01  3.04705639470464200D-01
55 28 -1.53854037256343800D-01 -1.50851602214120400D-01 -4.54733345580471000D-02 -1.37555339884568100D-01 -1.19514012656662800D-01
55 29 -1.19121009850227000D-01  3.61972723200121900D-01 -7.74376726199536800D-02  4.68597855182562400D-02  9.47827910256716100D-02
55 30 -1.60481166718124200D-01  4.18104018688455000D-01  4.52444231031722300D-02 -3.64339777604832000D-02  7.59335470787349800D-02
55 31 -3.01750416355123900D-01  3.99678587618302200D-04  2.22672127096770200D-01  7.06665860068904500D-02 -1.13083975290419100D-01
55 32  1.31482236900315900D-01  2.83775953390259700D-01  9.23344351808325600D-03  1.25069254448611300D-01  9.20179120792043300D-02
56  1 -2.28708545748338900D-01 -4.17010874650526500D-01  1.29146609267292200D+00 -1.57523005047547500D-01 -6.47808412023575300D-04
56  2  4.20766072640243300D-02 -7.88251989218895200D-01 -9.83898968704656300D-01  1.15744589586546200D-01  1.45320608873728800D-01
56  3  8.56825999960743100D-03 -1.53888868873337500D-01  2.39104544195777000D-01 -1.78304183827766800D-02 -4.48671625356073600D-03
56  4 -7.00472254524244400D-02 -1.34919232690185400D-01 -2.79578277336946000D-01  1.33026793872352200D-01  9.82611667312155600D-02
56  5  6.45732791084476000D-02 -3.35871543725200800D-01  9.79552898287572400D-01 -2.68603100911485300D-01 -1.07857156641066600D-01
56  6  6.64608411144653600D-02  4.13963155266016100D-02 -3.20642205830451600D-02 -7.28415842308621800D-02 -1.31789300728766500D-01
56  7  5.07419545542805100D-03  2.77255004791229600D-02  1.43851617708339900D-01 -4.33913122812848700D-02  1.96077059267022400D-01
56  8  2.25657587882021200D-02  3.96950481493437900D-01  4.29438417015260800D-01  3.76172478334466000D-01  6.17721380139911900D-03
56  9  5.25760551782518100D-02 -5.87532689796503400D-02  2.51732843523948300D-01 -1.58684634712943400D-01 -2.86654946599504800D-01
56 10  1.82158824388582800D-02  6.41627894037631700D-02  2.67673669370754300D-01 -7.69778641227808500D-02  2.06323597903925500D-02
56 11  1.10788916435504100D-01  4.78926798241598800D-01 -2.07857771468714600D-01 -4.32997856099270900D-01  1.00531586009140300D-01
56 12 -6.44750006374704800D-02 -3.60565853716694400D-02  2.19845912314650600D-01 -1.60803950994891400D-01 -1.17403627346663500D-01
56 13  2.71525212769100900D-02  1.12146994071410900D-01  5.71652883309733900D-01  1.63251672762094400D-02 -1.07460696372189800D-01
56 14  3.37604683615299100D-02  7.62490329376067100D-02 -1.56573469678330500D-01 -7.82286743036467300D-02  4.06836681431261800D-02
56 15  5.77792117900867800D-02 -9.84628799332138800D-02  2.30615407908378500D-01  1.93403622858295400D-03 -9.55463291781660200D-02
56 16  1.77858770011652500D-01  3.80255801122338300D-01 -1.88712208892974800D+00 -7.98580712187431700D-02  4.12194352313896800D-02
56 17  1.65611943829301400D-03 -1.14544925139846800D+00 -6.23060199594510000D-01  3.22549272284678000D-02 -1.75201544406656800D-01
56 18  7.33274688824114000D-02  1.01874075524245700D-01  1.30805442859579800D-02 -5.22997558171377000D-03 -2.07028364344053000D-01
56 19 -4.60474681298338300D-02 -7.60227112602638300D-02  3.34579340887813200D-01  1.86257089219212000D-01 -1.97862120636910600D-01
56 20  2.77055327474391400D-02 -5.70309620098961000D-02  7.46852253674253500D-02 -4.62659246591778100D-02  5.45386445741427700D-03
56 21  2.36060208377647800D-02 -2.32155083140244800D-01  5.48341889544593900D-02  1.12930722674047500D-01 -1.57239823758488000D-01
56 22  4.43091010844403400D-02  6.25061008216800800D-02  5.24773617292148200D-02  1.07658020548420300D-01 -4.13238453512550000D-02
56 23  1.85419829208723900D-01 -1.44095983857469100D-01  8.02629337071366500D-02  6.77054349988969600D-02  9.78952559319982300D-02
56 24  1.96351424008136400D-01  4.74930572394415000D-01 -4.62963580716216700D-01 -2.00551384167794000D-01  1.64877123565834500D-01
56 25  4.29308899172093600D-02 -3.12413862480650600D-02  1.28363137789614800D-01 -1.77592092681392000D-01  1.31358082583355200D-01
56 26 -1.74699398321194700D-01 -8.02870790023463400D-02  4.26672546277871600D-02 -9.95381778368097500D-02  3.13758843750952200D-03
56 27  9.64005893992998000D-02 -5.77863462988997500D-02 -9.39367015689043900D-02 -6.82888103865261600D-03 -5.22968146871808600D-02
56 28  2.06417221053144200D-01 -1.54120406365963300D-01  1.66895417548500000D-01 -7.66370558014492800D-02  8.53961230648520700D-02
56 29  8.32924731950422500D-03  1.46263125573554300D-01  5.15933982877827600D-02 -4.12877332968446900D-02 -2.03995218276505400D-01
56 30  3.42866152546107500D-02 -3.01705731712950700D-01  2.17836781928410300D-02 -7.94358233201320900D-02  6.69509737453175700D-02
56 31 -3.14608202423740200D-01 -2.42046523203406500D-01 -5.08479286149790700D-02 -2.24428230529710200D-04  9.57403845158906800D-02
56 32  9.65795831640027200D-02 -2.58185489032825300D-01  1.83132848580378100D-01  1.07721283794603500D-01  7.98527416951200900D-02
57  1  1.08376416880397400D-02  3.94966140450651600D-02 -3.08869266185284900D-01 -9.55067127802036200D-02 -2.12542070295994500D-02
57  2 -7.33588455146003700D-02 -2.95870584568697700D+00  6.88698877685932800D-02 -1.98921179995138300D-01 -1.93998756873417500D-01
57  3  9.87228870687281200D-02  9.52758698046893300D-02 -1.43852342488510300D-01  3.78991154082118200D-02 -1.22727866054523400D-02
57  4 -1.47952428787713100D-01 -2.75776968178651200D-01  1.11621964477693200D+00 -1.45265461274033500D-01  2.88605556459116200D-03
57  5  2.40303546420573100D-03 -8.90388026713293900D-01  2.51354360353444500D+00  4.13427247818372300D-01  1.08962110285311800D-01
57  6 -1.10987262078405100D-02 -9.78633840774709200D-02  5.76804524995163500D-02  1.37139044156699500D-01  3.82012361727380000D-02
57  7 -9.40901225809254900D-02 -1.37127285870246400D-01  1.19235574363710000D+00 -8.62354872324759300D-02  1.83418447330839200D-01
57  8  2.03984014268758200D-02  2.57565810869240700D-01  9.58527356365880600D-01 -2.18807549220611300D-01  5.12739385869007500D-05
57  9  1.44441257464587500D-01 -1.44492531403174400D-01  2.01623269997842300D-01  2.43209344130878300D-02 -1.44471148482646300D-02
57 10  5.89321216757858800D-02  8.30459742330373100D-02 -2.96622812615644200D-01 -8.15868426011639900D-02 -7.59094933678954600D-02
57 11  5.59194167314773400D-02  8.11040350295260700D-01 -3.80539101040086200D-01  2.85080569898057300D-02  6.68474695632371700D-02
57 12  2.59802353947235000D-02 -9.28277049579605100D-02  2.30995932506474800D-01  1.00856047370682300D-01  1.01213060458121000D-02
57 13  1.31735000729203600D-01  3.00384909537391500D-01 -3.68601969496174900D-01 -5.53301747655274600D-03 -2.53272534366118900D-01
57 14  1.13982603203192300D-02  6.05861651653916400D-01 -7.10309678041681400D-01  1.01746315628044900D-01  8.44600591656869700D-02
57 15 -1.57074953254168900D-01  7.26148940884803500D-02  3.25767412633752000D-01  3.38660719605855000D-02  1.40562921432796300D-01
57 16  8.30685954156442200D-02  1.10299961644360700D-01 -1.29457765607344800D+00  3.24769054918162000D-01 -1.02406683330768500D-01
57 17 -5.20626921247716600D-03 -1.17642661987960800D+00 -1.95755628304890200D+00 -9.68277485604788700D-03  1.03616195913175500D-01
57 18 -2.19557155548517300D-01  1.15940959635343200D-01 -2.04930227015515900D-01  1.35240269938108700D-01  1.99718614754759200D-01
57 19  1.51846243423057200D-02  3.79681251493027800D-02 -1.49424106617925300D-01  4.00704843059148000D-01 -1.67340108723186400D-02
57 20  1.39051845470816600D-01 -7.79756821049674300D-02  4.82588087439700600D-01 -2.47774664986595800D-01  2.28038077652023300D-01
57 21  2.01302429737539500D-02 -1.46731771374661300D-01 -1.08620527618071700D-01  1.82603021799370500D-01 -2.07525889901677000D-01
57 22  2.49228681023065300D-02  1.96298852573562800D-01 -8.34643227557112100D-02  6.21575498416184500D-02 -4.47634858328982500D-02
57 23  1.78246554905542100D-01 -1.33483069072644000D-01 -1.46573030764492200D-01 -3.72427678917199100D-02 -1.43955804327035800D-01
57 24  6.94362106992168200D-02  1.57383265485819900D-01 -6.11074585095430300D-01  1.80579575603141700D-02  2.64629335269494700D-02
57 25  6.09734956347948600D-02 -2.94922740811453600D-03  1.59856641238703300D-01 -2.82373850337674800D-01 -1.06696986720840100D-01
57 26  1.40946073901458300D-01 -3.91240464604758700D-01 -1.84864835888809900D-01  1.43420083872786400D-01 -1.60638278961755900D-01
57 27  1.72181950889690700D-02  1.20185349039517300D-01  6.37903545191307700D-02 -5.83512280148176700D-02 -7.79238728776774300D-03
57 28  3.19442542111575800D-01 -3.11650154823808000D-01  5.81639412993475400D-02  1.38655019033338800D-01  5.24250783131219400D-02
57 29  2.29376250276181700D-01 -2.72401126781636900D-01 -2.87086627525474800D-01 -1.90130236245061600D-02  5.04305369782155400D-02
57 30  7.52775988720977600D-02 -2.25698723375939100D-01 -1.49878145294540500D-01 -2.34526912376874600D-01 -7.01733641983069800D-02
57 31 -8.80278258049473800D-02 -2.84061223880904300D-01 -1.69976055749492500D-01 -1.70389597215348500D-01  3.30731846549661400D-02
57 32  7.01087733785634600D-02  2.83984337331680200D-01  1.58721751870604200D-01 -6.27232298751739800D-02 -3.00124883325922400D-02
58  1  2.46971747956508900D-01  5.54866366230680500D-01 -1.56916755229662400D-01  2.85468570452545300D-03 -2.00502619613418200D-01
58  2  0.00000000000000000D+00  2.88971577667562500D-01  1.20172538115403600D-01  0.00000000000000000D+00 -3.33932368523914100D-02
58  3 -3.50894101573754200D-02  6.84826470097667600D-02 -5.63940299692440500D-03  0.00000000000000000D+00  0.00000000000000000D+00
58  4  2.46973197181475200D-01  5.54867953310651200D-01 -1.56913987248146700D-01 -1.75058248815465100D-01 -9.77977087590280900D-02
58  5  0.00000000000000000D+00 -4.04528695323065300D-02  3.10355388386141900D-01  0.00000000000000000D+00 -3.04366757637674100D-02
58  6 -3.80470501332119100D-02  6.84837258969793100D-02 -3.66616813770977500D-03  0.00000000000000000D+00  0.00000000000000000D+00
58  7  1.67299347644944700D-01  3.93795060723946000D-01  1.47414948805677800D-02 -1.17805648863108300D-01  1.60093389205811000D-01
58  8  0.00000000000000000D+00  3.65889178814774000D-01 -5.79563271003800700D-02  0.00000000000000000D+00 -1.44232867101444500D-02
58  9  2.45508648032980100D-02 -1.01275780931538000D-02  5.47282640787766900D-02  0.00000000000000000D+00  0.00000000000000000D+00
58 10  1.08559867432185300D-01  2.78934547368988500D-01  1.47406683907451400D-01  8.64108081886218900D-03  2.01490349318047300D-01
58 11  0.00000000000000000D+00  3.34110553299641900D-02 -1.96170264332549200D-01  0.00000000000000000D+00  2.83198550685215500D-02
58 12 -4.46526730068901000D-02  1.63328179383684300D-02 -5.80323652629762800D-03  0.00000000000000000D+00  0.00000000000000000D+00
58 13  1.08561523199388800D-01  2.78937216638517900D-01  1.47406940615264800D-01  1.70163453113482800D-01  1.08245262023266800D-01
58 14  0.00000000000000000D+00 -1.86589239037803500D-01 -6.91739611110227000D-02  0.00000000000000000D+00 -2.20515103901738300D-02
58 15  5.71745136742271400D-03  1.63340590227508600D-02 -3.93903518064643000D-02  0.00000000000000000D+00  0.00000000000000000D+00
58 16  1.67299977104880500D-01  3.93795601701054700D-01  1.47210039800509500D-02  1.97549049190988200D-01 -2.19555789681453600D-02
58 17  0.00000000000000000D+00 -2.33173384578207500D-01  2.87868828206747800D-01  0.00000000000000000D+00 -2.62486367512071300D-02
58 18  3.63757278355947800D-02 -1.01270910843879600D-02  4.68438625913165500D-02  0.00000000000000000D+00  0.00000000000000000D+00
58 19  3.94567336465240000D-02  9.60677010279860500D-02 -2.18793019607860600D-02 -1.75296466954555600D-01  1.06735726508951000D-01
58 20 -1.32327829627178800D-01  0.00000000000000000D+00 -1.10054942954363500D-01  1.14559379538893500D-01  0.00000000000000000D+00
58 21 -1.33146575740407800D-01  3.74897002931472700D-01  0.00000000000000000D+00  4.50294053760149900D-03 -1.00517762478848800D-02
58 22  5.54883571028367800D-03 -5.82321242684421300D-03  0.00000000000000000D+00  0.00000000000000000D+00 -7.15365402721649900D-03
58 23 -9.33983977360413600D-02  1.00552051763258100D-01  4.45756042295822300D-02  0.00000000000000000D+00  0.00000000000000000D+00
58 24  3.94577876031980300D-02  9.60698988299055300D-02 -2.18817111800479400D-02 -1.75299358008393500D-01 -1.67969090751468400D-01
58 25  2.62534966361692100D-02  0.00000000000000000D+00  1.54247600386989500D-01 -3.80165421667513900D-02  0.00000000000000000D+00
58 26  3.91236262938930700D-01  7.21823107520999700D-02  0.00000000000000000D+00 -2.04403299712976000D-03 -3.50520341311577800D-03
58 27  5.54923641024562100D-03 -1.01888712712706500D-02  0.00000000000000000D+00  0.00000000000000000D+00 -1.05266355232944700D-01
58 28  4.71306241499577300D-03  1.00553292817948900D-01 -2.08476216545131500D-02  0.00000000000000000D+00  0.00000000000000000D+00
58 29  2.84815110248025200D-02 -2.32826461074696600D-01  1.49848752253186900D-02 -2.15093035222419500D-02  0.00000000000000000D+00
58 30 -4.15057655554841600D-02 -1.24166168620297000D-01 -2.05292171733288000D-03 -2.31600561912345400D-02  0.00000000000000000D+00
58 31 -4.15047328680513900D-02 -1.24167749927918700D-01 -1.90294299695588800D-02 -1.33593532031965800D-02  0.00000000000000000D+00
58 32  2.84823518475469500D-02 -2.32825231367478500D-01 -2.61198135136763200D-02  2.21950312579625400D-03  0.00000000000000000D+00
59  1 -1.17558191199109500D-01 -2.61393539187604200D-01 -1.12264817981297000D+00  1.50679962758746800D-01 -1.75622523107684500D-01
59  2  1.26522715780144700D-01 -1.60358940588360400D+00 -5.38399434589346800D-01 -8.46088326777880800D-02 -1.59440615206775100D-01
59  3 -2.68573964745640500D-02  1.86298011681339800D-01  1.74764227612856500D-01 -2.50171813084620600D-02  1.80166173840311300D-01
59  4 -1.74586573043463900D-01 -3.06287848123340500D-01 -3.21746152506508700D-01 -2.91749563441745500D-01  1.20956828731699800D-01
59  5 -8.63838991128948700D-02 -2.77350438539259300D-01  3.17491798782272600D+00 -1.00249280154250300D-01  1.50062731502016200D-02
59  6  2.14605148150283100D-01 -2.29611421300484200D-01  1.47456498983945000D-01 -1.42975830361737600D-01  1.69450574002451900D-02
59  7 -1.78896324832197500D-01 -4.03446313132856300D-01  2.01702534457492800D+00 -6.90334524641283300D-02  9.66224858268562400D-02
59  8 -4.99092631606468200D-03  2.68605321268131600D-01  2.09237250730153700D+00  1.82671800177980900D-01  2.17402825236999400D-02
59  9  3.34936423616960600D-02 -5.52339248853961100D-02  7.93015315773421100D-02  7.97251500567016000D-02  1.33864173424997500D-01
59 10  1.54482258055322800D-02  1.90103613785322300D-02 -9.45762408871353000D-01  2.00028095225940200D-01 -4.12934494972058500D-02
59 11  2.74982426678586700D-01  1.35838569724164200D+00 -6.57261058460936700D-01 -3.23153618456969200D-01 -1.63177411712858900D-01
59 12  1.67063959385643800D-01 -3.88654767278387000D-03  7.24644392742501600D-02  1.44844034900123500D-01  7.05619124236435000D-02
59 13  8.53750288490965900D-02  2.94190719393281700D-01  1.19545610361354000D-02 -1.26206391336579500D-01  1.32215532152837300D-01
59 14 -5.32954668216719100D-02  1.30149059049878700D+00 -1.74496643135034000D+00  1.01463298952098600D-01  1.27077682091751700D-01
59 15 -9.25609049170507000D-02 -3.45167771747022200D-02 -1.32039085590102500D-01 -1.72696712164895600D-02 -6.56662818737165400D-03
59 16 -1.11992981315667300D-01 -3.07090359243457300D-01  7.20045969056639900D-01  4.31779640877048300D-02  8.17277891609717600D-02
59 17  5.55799383386548200D-02 -4.47978811358058200D-01 -1.21324354633058200D+00 -3.11040638213611000D-02 -9.18398487317802400D-02
59 18  1.03700386215215500D-01 -1.18605374834344500D-02  7.32726833973940700D-03  4.13773252653212400D-02 -4.86593461551386800D-02
59 19 -2.41534710434915500D-02 -1.35014160559955500D-02  4.82254989520348700D-01  5.34605884779038700D-01  1.54167698676704900D-01
59 20 -3.13832712903017200D-02  2.01656451201052800D-02 -2.08777065299611600D-01 -3.75307459142195000D-01 -1.17896486938726100D-01
59 21  1.83717488054336900D-01 -1.37625258856632500D-01  7.54899042165259700D-02 -1.43589565128788400D-01 -4.39697585918516800D-03
59 22  1.47986540987973600D-01 -1.00945964645800400D-01 -9.09821202801459900D-02  8.81099444113101600D-02  8.06921245388898500D-02
59 23  2.52689887921107500D-01 -3.33382012459997200D-01  2.58007539500635000D-01 -1.22632153891702100D-01  1.98502931004971400D-02
59 24  2.18815618243189600D-02  3.78875213886614000D-02 -6.08351125758398600D-01 -5.21991990943027800D-01 -7.74009557519320800D-02
59 25  1.62321658655486000D-01 -2.75859449012047400D-02  3.59405188287364700D-01 -6.81534666874157800D-01  1.88550346679775200D-01
59 26  3.37245458409744600D-01  4.21669165079962200D-03 -1.36729076413823300D-01 -2.30923511678614400D-01  7.24822315117561000D-02
59 27  1.58441280166857800D-01 -8.51206645290462600D-03 -3.18880538772146700D-02 -7.53476767737051700D-02 -5.24487503095858000D-02
59 28  3.04621653802564600D-01 -2.52172903492978600D-01  4.07906219450029400D-01 -1.57618513467993500D-01 -6.14572805110172900D-02
59 29  2.52408691961439200D-01  1.53011810456885900D-01 -1.68869222943745400D-01 -1.49638549164894100D-01 -2.07792886797574200D-01
59 30 -1.11533103894863200D-01 -1.02669094036800300D-01  6.86338040645768400D-02 -9.23349813570160200D-02 -4.86158452185432300D-02
59 31 -6.95565693713151200D-02  4.50085141195136300D-02 -1.74311507997545500D-01  2.95406322582455900D-01  1.57973711791972600D-01
59 32  1.33429132646911700D-01  4.69212337948085700D-02  1.41062994204371100D-01  7.14808850052796900D-02 -3.05063636268266000D-02
60  1 -2.04879113486538800D-01 -4.85173668620314000D-01 -5.07604754761622000D-01  3.45113923485491000D-02 -3.31025383429672100D-01
60  2 -5.91790655358419200D-02 -9.04952029728864000D-01 -1.93349387410453900D-01 -5.08331566514634500D-01 -1.06012606813772900D-03
60  3 -3.56829136800623100D-02  3.67430397482001500D-02 -1.52724265253320700D-01  3.65502371512107400D-02 -1.28903698476989700D-01
60  4 -1.63738703064878500D-01 -3.71558407770799900D-01  2.66043424229714300D-01 -2.37618530342358200D-01 -6.12785182966497900D-02
60  5 -2.07522964745279200D-02  3.18020888760244500D-01  1.12744296202924800D+00  4.32927675130074900D-01  6.92409455388506600D-02
60  6 -1.92622686102123900D-01  1.23381740563273000D-01 -4.09050858021435500D-02  1.02968632441942300D-01 -8.83075038361785800D-03
60  7  1.48331446415677800D-01  3.27460007346251100D-01  5.10934395161774500D-01  3.42332259331053100D-02  1.40969063411783400D-01
60  8  5.14611612422450900D-02 -5.85197329440970900D-01  5.68082269662808600D-01 -2.35863164107739100D-01 -9.46944969863713200D-02
60  9  6.23051855323122300D-02  3.23893114540595800D-02 -1.51383279350146400D-01 -8.52516580351506100D-02 -1.41150750257229500D-01
60 10  1.77103653136300300D-01  3.96880105597016100D-01 -7.36574137813889400D-01  4.08911104591656000D-02  1.18960768628900000D-02
60 11 -8.20735448594073200D-02  6.30713905478686000D-02 -6.22873929521875600D-01  1.53951181551164700D-01 -2.30264258730268600D-01
60 12 -2.23327256794995500D-02  2.52596984409768100D-01 -3.76775041977108300D-02  7.67381774410442200D-02 -1.53774399158701100D-01
60 13 -6.94779770003488700D-02 -1.20365585379680200D-01  8.62350946025361900D-01  1.11224709241444300D-01  6.44946895674355000D-02
60 14  2.54982203164628100D-01  1.17425118602361200D-01  3.26814148091877300D-01 -2.47538554465936900D-01 -1.78480720683652600D-01
60 15  1.91345795350017700D-01 -1.28650746663656900D-02 -1.30375824932104400D-01  2.88709490670223200D-03  6.82246741395181300D-02
60 16  4.26850702295517100D-02  6.20571729582067900D-02 -1.24444502877385000D+00  2.14085183145348900D-01  1.59502041426804300D-01
60 17  2.68906500039398100D-03 -3.70592092139876200D-02 -3.37137365412026700D-01  2.16670739480989900D-01  1.23820378735464300D-01
60 18  5.54567341255692800D-02 -1.79277112861033000D-01  1.43031778591858100D-01  1.13618595971568600D-01  8.05316360474460500D-02
60 19  1.76501770248167000D-02  1.11211211125181300D-01  2.34612056279238500D-01  4.92016524595040900D-01  9.52911608246055400D-02
60 20 -1.41712334321885900D-02 -1.27794047076847200D-02  7.02000877540885600D-02 -4.92327092247605200D-01  2.21193122407230700D-01
60 21  1.44730257220741200D-02 -3.57796668668797700D-01  7.67097292649633200D-02 -2.96858255408240900D-01  2.19760032207824300D-01
60 22  7.70982232004165000D-02 -4.85657047410725700D-03  2.07244069369389000D-02  8.45567136180359300D-02  1.55336355797551600D-01
60 23  1.78653624220651100D-01 -3.33989980018203300D-01 -2.02268034129366800D-01 -2.21924884766079000D-02 -3.35208532076679100D-01
60 24 -2.81452172831037700D-02 -2.08236997466501400D-02 -1.90044341247896800D-02 -6.05707158045116400D-01 -1.19051322774139200D-02
60 25  2.33042976513737300D-02  6.09469439395403800D-02  7.76773248712295500D-03 -2.02650653398169000D-01 -1.94783596650708100D-01
60 26 -1.23311561303945200D-01 -6.42879021319872100D-02 -8.57166461447617200D-02 -1.86278661307637500D-03 -1.47466469261189700D-02
60 27  1.66094335391955400D-02 -5.44233214435324600D-02  1.36298207289242800D-01  7.76199701271733200D-03  2.02683299629681000D-02
60 28  1.69036161098262200D-01 -1.89304491061230300D-01  6.41461419937395400D-02 -1.23532688390962700D-02 -1.75607067144675300D-02
60 29  6.62678454661239900D-03  5.64555556693808200D-01 -1.46530348687670100D-01  3.24235741434030300D-02  1.86734148300466600D-02
60 30 -1.68421725213578600D-02 -3.09212604702668400D-01  8.56476786503873500D-02 -5.26020042119614600D-03  4.52473131148522200D-02
60 31  2.93498286390047000D-01 -2.45122932952666900D-01  7.31373390924119800D-02 -1.30048353363968200D-01 -1.52815855474459500D-01
60 32  4.44201207465977400D-01 -1.14976587655527400D-01 -1.08843496849914200D-02  1.35071917097220100D-01 -1.20519812993311000D-01
61  1 -3.69323733315560600D-02 -1.57632841211787200D-02 -1.81043816421833600D+00 -6.26839603498347800D-02 -7.18032727230189500D-02
61  2  1.16860497686760200D-01 -1.77320248126423600D+00  4.16813410101420800D-01 -4.92874265252826100D-01  1.92740251456009200D-01
61  3 -2.00434189557392500D-01  7.69393810138315800D-03 -7.23260836595259100D-02 -1.69522225887691400D-02 -1.46205933815251300D-02
61  4  5.19801681117528800D-02  1.10723707419953000D-01  1.48933855239674600D-01  1.39373161492708400D-01 -1.24304517705626400D-01
61  5  1.64564707498340300D-01 -1.88014786343575200D+00  1.45928839642239500D+00  4.31195307639161200D-01  1.39482410002002300D-01
61  6  2.23839201032195600D-02 -1.61866330105221400D-01  1.66081430990378000D-01  1.72958918875157900D-01 -2.14091328328358000D-04
61  7 -1.17970521649554900D-02 -1.99341957242088200D-02  7.88098006112624500D-01  7.06230396058696400D-02 -5.90929419569602200D-02
61  8  3.01667854649906700D-02  5.35321404032066600D-01  8.91280528651172000D-01 -8.30719676280983900D-02  2.17379821913012000D-01
61  9 -2.08632197493047300D-01 -8.74762441996420100D-03 -4.26778635783426800D-02 -1.58004615552091400D-01 -3.44543102966062100D-01
61 10 -6.23981193203297600D-02 -1.17226487728236000D-01  1.52913548989577000D+00 -3.38579006385170000D-02 -1.00740462441000400D-01
61 11 -1.08719148770653700D-01 -1.88943096817194600D-01  2.26351822497854700D-01  8.29587882317391500D-02  3.13832769709001800D-04
61 12  5.88373132917109500D-02 -5.91511460614206300D-02 -3.44783429395827300D-01 -1.98662649760898900D-01 -1.54605327641220300D-01
61 13  3.07191120069600600D-01  6.64036601223946000D-01 -1.94252181868780800D+00 -8.19198759306069100D-02 -7.64947261835040000D-02
61 14  8.35885763199977800D-02 -1.08361373485195300D+00 -2.22811016598930200D-01 -2.64996462176762100D-01 -1.09404465597012900D-01
61 15 -1.04878086188982400D-02  1.19892274215911100D-01 -1.29981217026386100D-01 -5.62140633469576700D-02 -2.28554244810047600D-02
61 16  5.14892471049424700D-02  7.77695797188795700D-02 -2.78432971828526900D-01 -1.37541284894483100D-01 -1.18967465470193700D-01
61 17 -7.80518499176157200D-03  5.29942131153361800D-01 -9.99293020582223800D-01  3.32573506870866000D-01  3.75538553875912500D-03
61 18 -2.14176108197304200D-01  2.10420722658544500D-01 -3.08954201664010600D-02  4.10515615203466900D-02 -2.75151172925396100D-03
61 19 -1.66041452582789600D-02 -3.39105111708837500D-02  2.47930487088929000D-01  1.16742213375618800D-01  3.06751002954461500D-02
61 20  5.30282628874690900D-02 -6.78078412329397400D-02  3.28050289947465700D-01 -3.20792880216143400D-01  1.57303234448938600D-01
61 21 -1.36262317275467900D-01 -1.44536466212470500D-01  1.06736484168899400D-01  3.04926541177382900D-01 -2.16662582593713100D-01
61 22 -8.82639585836694100D-02 -2.47178684896141400D-01 -5.24255718158606100D-02 -9.21131017018382300D-02 -9.97635121839055800D-02
61 23  2.97166195622715200D-01 -1.97402683438808400D-01  4.68554769502014800D-03  1.22135487407886300D-01  4.72135424206840900D-02
61 24 -1.36266164098495900D-01 -2.95672794578080200D-01  5.35864471325673600D-01  4.15247969350676600D-01 -7.33100653646811100D-02
61 25  2.10050805702863100D-01  1.09406521029333600D-01  1.56759749711616900D-01 -5.47131210595268600D-01 -3.83158187654415100D-01
61 26  2.45304653777600500D-02  2.19289716000545900D-02  1.70932204654108400D-02 -2.97571959211781200D-02  1.08254400748234800D-01
61 27 -7.84972048270569000D-02  2.18505177264539100D-01 -5.36856597798081800D-02 -8.87220377440675800D-02  1.94303799478880800D-02
61 28  2.15703551567377600D-02 -4.10007351046258500D-02 -1.85465774463175100D-01  2.19543124914381000D-01  1.69592977153599100D-01
61 29 -2.46656892068515700D-01  2.43109449385000400D-01  2.24173211803194500D-02 -2.03234044219022400D-01  2.74159378252576800D-02
61 30 -2.50238300885823100D-01  1.94573430698314400D-01 -6.65889823073710400D-02 -1.90432430167947000D-02  1.10297079771907700D-02
61 31  3.91227858731820600D-02 -5.93710542590574200D-01 -1.51249981802896000D-02 -8.75380468016231400D-02 -3.46117923516642800D-02
61 32  1.14490704095749200D-02  4.67693219246099100D-01  5.56478175545676700D-02  6.56320665991995000D-02 -1.40136692370470300D-01
62  1  1.75902821073483900D-02  7.28998212669047700D-02  5.04404730647838400D-01 -1.72521413609176800D-01 -1.13776600048343300D-01
62  2  1.51423219831008600D-01  6.65433204310724200D-02 -1.17567371425897500D+00  3.20141610074116500D-01  1.76156232462851900D-01
62  3 -7.40150982470820600D-02 -1.02141134215770500D-01  1.66414767038514800D-01 -8.74340820049331300D-02  2.33023075472626700D-01
62  4  2.86114681639842700D-01  5.72313514142908700D-01 -2.17214499324406000D+00  3.31629283275408000D-02 -7.27213969502475700D-02
62  5 -8.21365019560004300D-03  1.03795915226942100D+00  1.26889942774991400D+00 -2.78643305123054600D-01 -2.32872442365662200D-01
62  6 -1.62439580512811600D-02  2.49116400416943700D-01 -4.46469464653099600D-02 -1.35859346917956100D-01 -1.49894040893970400D-01
62  7 -1.02723795560083700D-01 -1.52352446513265800D-01  9.37857716827331200D-01  1.01128786251389700D-01  3.64695869350220500D-02
62  8  2.35545396538431300D-02 -8.54990690978304500D-01  1.49639838960507300D+00  1.45277724268251700D-01  1.83442961047894000D-01
62  9 -1.36590322715428100D-02 -1.69783928776350400D-01  1.61188373097210000D-02  4.27633403381146000D-03 -1.31019421219935800D-01
62 10 -2.42375399934084900D-02 -1.39770490704600000D-02 -2.10462230466016500D-01 -2.12951829583576900D-01 -2.24126569443813100D-01
62 11  1.48157856945246700D-02  8.23040432531643500D-01 -1.51524447082433600D-01 -1.08620575243968800D-01  5.77650059848000400D-02
62 12 -2.06777122645303200D-01  1.49012116660504500D-01  5.40544249481712500D-02 -5.42123021070288100D-02 -5.68176314985661300D-02
62 13 -1.12203509305655000D-02 -2.08980916351717200D-02  4.81093053060760200D-01  3.03473219110723500D-03 -7.32446482463884200D-02
62 14 -1.36197361700633100D-01 -1.76045615911803000D-01 -7.03169424208287700D-02  2.20655734606595700D-01 -1.30665215045970600D-01
62 15 -4.92664739981098400D-02  1.79931689044080100D-01 -2.10875524607429400D-01 -8.84260601392837500D-02 -9.80151750543562900D-02
62 16 -1.46805440015673400D-01 -3.96924832713417900D-01 -5.61911330985554500D-01 -5.73709636893285800D-02 -2.41951076775815000D-01
62 17  4.33239142147446300D-02  2.79284946859560300D-01  8.38714438690021900D-02 -1.09199296407984600D-01 -2.55994581887153600D-01
62 18  1.13190552064914600D-01  1.42804029822239500D-01 -1.55951542956404400D-01 -1.48547957523064500D-01 -1.07558361633219200D-01
62 19 -1.77092120790188200D-02 -9.78247051564709600D-03  5.30294299620780300D-01  1.51315644324001800D-01 -8.76729006211614000D-02
62 20  1.37410894915313200D-01 -6.66371873571028100D-02  1.51091365388253500D-02 -3.70157446636688500D-01 -3.51639224653902700D-02
62 21  1.73439437793646600D-01  1.46985142340209800D-01 -3.15412528119438800D-01 -7.41106930573128800D-02  2.68369942251862900D-02
62 22  4.72736988321267200D-02 -5.16960983360316200D-02 -1.34367762376675900D-01  1.14524776747140900D-02  2.89144435165070700D-03
62 23 -1.82189203279338100D-01  1.79297758927687500D-01 -1.53899654099301000D-01 -4.75218688268000700D-02  2.48389608157859600D-01
62 24  7.11350109124572300D-02  1.42149459737458700D-01 -2.62347044387174000D-01 -6.38780861443276600D-01 -5.38714217797085900D-02
62 25 -6.60230678383854200D-02 -1.17536480985847100D-01  1.63208777624933900D-01 -8.46500492032424800D-02  3.35425696998065300D-01
62 26  2.02317507819238000D-01  2.88668538142668700D-01  7.57407882360505700D-04 -1.91051071153391500D-01  5.01650570706065300D-02
62 27  1.40886014082784900D-01 -5.96291468672959100D-02  8.00970154833471600D-02 -2.29518215267445000D-02  4.13611300466562200D-02
62 28 -1.53660592249835000D-01  1.12299462203178800D-01 -2.24196421520398800D-03 -2.50217125093507100D-01  3.24390051279039700D-02
62 29 -5.08949360791802400D-02  1.00437874325114000D+00 -3.33658878170758900D-01  8.22868879614678900D-03 -1.48183232176017900D-01
62 30 -1.28841507949381200D-02 -2.56577921697388300D-02 -1.90298432160285600D-01  1.45354328275889300D-02 -1.17877118975970400D-01
62 31  1.70071475751949900D-02 -5.63724465024579600D-02  1.71205989309590000D-01 -3.45870636924695800D-02 -1.17657907319726600D-01
62 32  7.79021804464406200D-02  6.69371213498202100D-01  5.17841465649183000D-02 -5.60961856638413900D-02 -4.67505857726978100D-02
63  1  9.72147878416171100D-02  2.08069939374665600D-01 -9.09676753421904900D-01  1.99247985865040300D-01 -1.34240360421548000D-02
63  2 -1.37576243913691600D-01  1.25960666806403200D+00  1.63102664807729800D+00 -3.23975571576035100D-02 -8.95054055023849800D-02
63  3  4.20715886374057500D-01 -3.31210480871671700D-01  1.56442716683751200D-01  6.09527659651452500D-04 -7.85514107738547700D-02
63  4 -1.86778196449141500D-01 -3.36058450847884300D-01  1.25642660851640900D+00 -4.14196439590264100D-03 -1.04502738178185500D-01
63  5 -5.09110406952328100D-02 -2.23377982121278400D-01 -6.50055188254873300D-01  3.70209892477185400D-01 -8.57667912361119900D-02
63  6  1.60849319065023400D-02  6.96818593296089400D-02  1.14148907709325400D-01  1.91886726273209500D-01  1.16951203802451200D-01
63  7 -7.55445146552065900D-02 -1.76640480524532500D-01  1.76824883825179700D-02  2.12592585178952300D-01 -5.35332895692316100D-02
63  8  3.54531479586235800D-02 -3.10084914062282400D-01 -1.27434342398831500D+00 -1.01858662935502300D-01 -1.29017584379354000D-01
63  9 -1.67287199273147100D-02  1.45746304306668200D-01  2.52046511474578100D-01 -2.76356754791225600D-02  1.31538746936998000D-02
63 10 -1.40208145583632900D-01 -2.36590635622435300D-01  1.05521306074361800D+00 -2.10730949445470400D-01  1.77923907639237300D-03
63 11 -1.52183866863514600D-02 -1.03580316755007800D+00  2.11945857240811900D-01  2.53715730195563300D-01  1.47446340484907200D-01
63 12  7.34291754996207700D-02 -2.20875515984529100D-01  3.84947645076791600D-02 -9.88602304163868400D-02 -8.16999729317430000D-02
63 13 -3.14913497121258400D-02 -3.17733927882484900D-02 -7.15161680162530500D-01 -1.49221480475287800D-01 -9.31302580586269700D-04
63 14  1.62589786507370500D-01 -9.40115020049152000D-01  9.52538829737597700D-01 -3.56793647029814900D-01  6.91217386883242200D-02
63 15 -6.08124704035467800D-02 -8.30926828477685500D-03  1.23700973317927200D-01 -1.59403523445947300D-01  9.59908595293018300D-03
63 16 -1.83851112222042900D-01 -3.86220640564667300D-01  1.35870707535919200D+00 -2.22667909564448500D-01  1.13392675800045900D-01
63 17 -1.02685040605244400D-02  1.64619802612358400D+00  5.88121257839455200D-01  1.77394909475823200D-01 -8.20332084962710900D-02
63 18  1.18035795169204400D-01 -3.60025866729336700D-02  1.69516454879030400D-01  3.67011209953597000D-02 -6.80504933554632600D-02
63 19  1.55389041947447100D-01  3.04962523234493100D-01 -1.30353083420588000D+00 -3.72806134045279800D-01  9.18311584267497800D-02
63 20  1.05047731387660200D-01 -8.45348871445185600D-03 -4.08441733615231500D-01  1.97242864954064400D-01  1.41053180840108600D-01
63 21  5.23817739855292500D-02  5.21794010785871700D-01 -1.61637566409532200D-01  2.23524225550877600D-02 -7.03132794772409800D-02
63 22  4.79608569221531500D-02  5.98953685396117100D-02  1.15259429970781800D-02 -7.99625805449641900D-02 -4.69988108496659800D-02
63 23 -8.56307859665309100D-02  1.32629596816197100D-01  2.63836901450992800D-01 -1.15688645730112900D-02 -1.22952890353314700D-01
63 24  8.38163762644925400D-02  1.96003046679628900D-01 -2.82097530292298400D-01  2.98868351269605600D-01 -4.49296839063737300D-02
63 25  1.90739595902543700D-01 -3.65545735108577100D-02  2.56111932266797200D-02 -3.09408929509436800D-01 -9.86464842614730400D-02
63 26  9.16773417353402000D-02 -1.22852606209975200D-01 -1.46268313088360700D-01  8.39414661273942000D-02 -1.71251821949614300D-01
63 27  8.73103558222203000D-02 -2.08479381801647200D-01  2.12727060209173400D-01  7.09411049087860800D-02  4.36211384447722300D-02
63 28  2.50486607293520400D-01 -2.94107745738292600D-01  1.59404065827566500D-01  1.51784487432795100D-01  3.41645038656229000D-03
63 29 -4.39188425581907400D-02 -3.88616445847103300D-01  1.84002384637177300D-01  4.89084450177576200D-02 -1.23908805174464500D-01
63 30 -2.08323980474482700D-01 -1.13225080155682500D-01  2.42140266161694800D-02 -6.67056864333305000D-02 -1.57805419907734800D-01
63 31 -1.48128591682865500D-02 -2.14979473240321900D-01  1.39413381346802500D-01  8.21726146629175900D-03 -1.18125506699679300D-01
63 32 -2.33771951828773700D-02  5.39472044178297900D-01  6.80883981177800600D-02 -2.13398169034852900D-02 -1.09143115515584400D-01
64  1 -2.74911945366197000D-01 -4.28110448028392500D-01  2.14441044832734100D+00 -1.88282180794668500D-01 -2.29606983666552400D-01
64  2  1.64151627186448000D-01  1.82671584899820600D+00 -1.22468308964702600D+00 -1.17295261323462200D-01  3.06500769266682000D-01
64  3 -5.27823550024036200D-02 -2.53718414264278300D-01  1.47598446757823700D-01 -1.26697015531769600D-02  7.12069339518581800D-02
64  4  8.31008463154373200D-02  2.10413640641444200D-01 -2.94453315479656200D-01 -1.89597592834204100D-01  5.79731542077063000D-02
64  5  7.89737450955178100D-02  3.27250280351162300D+00 -2.26960757003096900D+00 -2.95469001450785000D-01  3.34491750439934600D-01
64  6 -2.83887282153239100D-01 -5.06044682866957500D-02  6.99557946634319400D-02 -8.45762106353963900D-02 -2.59470227299022400D-02
64  7 -1.94218395131254300D-02 -3.67795491509916300D-02 -7.15130733709654000D-01  1.69159111864282700D-01  1.22789907381961000D-01
64  8 -2.36794176286255900D-02 -2.08646262346643600D+00 -1.52351567075224600D+00  2.11803269481115600D-01 -2.79137206313255000D-01
64  9  1.80451159556525000D-01  9.86860467567303600D-02  2.86349585399908200D-01 -8.41664481225271500D-02 -2.92188740780381000D-02
64 10 -1.15847436705202700D-01 -1.96107916813892900D-01 -8.84787955203685300D-01 -1.40319940863485700D-01  7.27566730720268900D-02
64 11 -2.97607292513650200D-02 -1.21818078622095000D+00  7.62021770267555800D-04 -1.97594354138080300D-01  1.97494952536676700D-01
64 12  1.84699024687712600D-02 -2.15964855005446500D-01  3.63068472267033300D-01 -2.98584427404988800D-02 -4.08862129096254400D-02
64 13 -4.66238304591134800D-02 -1.39092242109150800D-01  1.13465475641214200D+00 -6.78473798072074900D-02  2.34579256557902300D-01
64 14 -5.54133823699083900D-02 -2.14621459834027600D-01  9.17751936604173600D-01  1.04820879296430100D-01  2.26284758487337600D-01
64 15 -2.45621597730110900D-01  1.93368392427732400D-02  2.50388045784240700D-01  1.07184796012122100D-01 -7.58899559121664200D-02
64 16  3.79377663120635400D-02 -5.11772219289208700D-02 -1.24710765795816100D+00 -1.61849911381204600D-01 -4.06747343510001800D-01
64 17 -4.16879452276001600D-04 -5.33129963095230200D-01  1.39804641338630300D+00  2.96511779078479000D-02  4.68415632129472500D-02
64 18 -2.20705011568536400D-01  1.73863448355589900D-01  1.48636722118875700D-01  2.31637492836738900D-02 -3.67741923351413200D-02
64 19 -1.25873891008082100D-01 -2.72060119903675500D-01  5.14169482698988900D-01  7.71767494380151200D-01  2.06931779837940700D-01
64 20  2.17733619039275800D-01 -4.72198429017225300D-02 -2.64738982761949800D-01 -5.05565057848048600D-01 -2.82030275976837800D-03
64 21 -2.83004821010468800D-01 -5.00359958512101100D-01  1.00730321745352600D-01  1.13090452632678600D-02  2.07210840143165800D-01
64 22 -2.18519885406434100D-01  1.17541863483291900D-01 -6.92278458321026700D-02  2.63579392415465500D-02  1.08588990398636800D-02
64 23  2.83133091658544900D-01 -2.93991990698409100D-01  7.10802578708841900D-02  3.83187167746638900D-02  1.07634576949578600D-01
64 24  5.16023934186823700D-02  8.09620807644828900D-02 -8.91393701970248100D-01 -4.20524822216423700D-01  4.89466602367679300D-02
64 25 -1.71374730064265700D-01 -1.30891278424297100D-02 -1.25444462466225700D-01  8.97349009418765700D-01  1.19780464141810100D-01
64 26  1.30046668514723900D-02  1.67159433312378100D-01  2.70718764177389700D-02 -9.23017091580997400D-02  7.73487052699469400D-02
64 27  1.49530038881530100D-02 -1.67199264046014100D-01 -3.40400187214353100D-02 -3.25987112459569100D-02  3.38658447873327700D-01
64 28 -3.31546320195265700D-01 -7.11212767806199300D-03 -4.76050437248863200D-02 -1.12434006698718400D-01 -6.58985188676490800D-02
64 29  5.35373416969358400D-01  3.27549239470928500D-01  3.76946090808606100D-02  2.98156849626033200D-01  5.05846745191894100D-02
64 30 -8.97973934174798300D-04 -3.59181703358724500D-02  1.60877630728059100D-01  5.78952043099754900D-02  9.66343479995108700D-02
64 31 -5.28067455138107700D-02 -1.87408413783777000D-01 -8.95495351530983000D-02 -1.18443773776232900D-01  2.42451639927334600D-02
64 32  3.08792830234146700D-02 -5.23505163474826800D-01  1.47073459431932600D-01  1.29946373022888300D-01  7.50612502093928500D-02
65  1 -9.24594145813077100D-02 -9.95640747661117000D-02  1.24706476648252300D+00  3.31944953097389800D-03 -7.62486523169965100D-02
65  2 -1.44240432955503100D-01 -2.56899481387850700D+00  8.82892980951939800D-02  2.75702313476775100D-01  1.26166605026116600D-01
65  3  1.46820341055679800D-01 -2.72986946081797000D-01 -2.75948828993150600D-02 -7.52093427729297700D-03  2.83323162589581700D-02
65  4  8.95282826976955300D-03 -3.36220090501938600D-03  1.17879947114772300D-01  2.17999525878679700D-01  1.47587020559927000D-02
65  5 -1.74941176184862500D-01 -9.64212019278531100D-01  2.48181420029718800D+00  1.64924917195375800D-01 -2.91510396229015000D-01
65  6  1.57055932645208300D-01  1.34454463583807400D-01  1.80112674834134200D-01 -4.97295782902918300D-02  3.00995103623311400D-02
65  7 -8.05431519616654600D-02 -1.44822787186464800D-01  1.55834025200219900D+00  1.32978079923902200D-01 -2.94491462863242600D-02
65  8 -1.06099739410677700D-02  8.59683451539011700D-02  2.03089956815292300D+00  7.53602079133550700D-02  1.39385215625265900D-01
65  9 -2.53135860088754800D-01  1.13750644463488900D-01  4.38578175662025300D-02 -1.51863728228332900D-01  4.56056368083222800D-02
65 10  2.05852854365060900D-01  4.75124100527733600D-01 -1.46428119753915000D+00  2.28490029321258000D-01 -2.30036493206838200D-01
65 11  5.91797876270084600D-03  9.54222266652692400D-01 -8.87223308662771900D-01 -3.42858521592090400D-02  2.03440566813437800D-01
65 12 -1.27116018033628500D-01 -7.63245487798088500D-02  1.13209196677927900D-01 -9.83237782653651600D-02 -1.79383776100423700D-01
65 13  1.13962217935681000D-02 -5.75072338254648200D-03  1.14877552749791000D+00  1.23803725244182400D-01  1.88517307307009300D-01
65 14  2.25231976212001200D-01  1.26727336601162800D+00 -4.78674476909512400D-01 -9.77284087379715600D-02  2.82461430177699200D-01
65 15 -4.06257668823479700D-02 -2.41835663295351700D-01 -6.18224804977707200D-02 -7.18828327312651500D-02  1.09933828278246300D-01
65 16 -4.66930857715945800D-02 -1.86062666967171500D-01 -1.90533274368299200D+00  2.02946073594685900D-02 -3.87563562374627600D-01
65 17  2.99799050610596700D-04 -1.12319937939798600D+00 -5.95062615512336600D-01 -1.71479647342462000D-01 -7.33386694043767400D-02
65 18 -2.51418146423431300D-01  3.24756815827809400D-01 -2.24985650655602000D-01  1.09133198184695600D-01 -1.41473368253265800D-02
65 19  6.16397469728859900D-03 -1.58069886771996500D-02 -3.49065487582791900D-01 -4.98956494692565000D-01  1.45949936040971200D-02
65 20  1.63498826384725800D-02 -5.74216743862186100D-02  4.09340005305488300D-01  3.09473649618956700D-01  6.47049375785245800D-02
65 21  2.38587328925584700D-03  1.76777084114607600D-01 -1.57200720395407400D-01 -4.20564376560867100D-02 -1.10009068128997200D-01
65 22  1.52065505785083700D-01 -9.82929599600852600D-02  7.55387269514201400D-02  8.83233889175794500D-02 -3.18371755074362000D-02
65 23  7.62973754489644400D-02 -4.44601999415287100D-02 -4.79798095348746300D-02 -3.26809307944289500D-02  4.63373909834851000D-02
65 24  5.65137000293382800D-03 -9.44248511286434000D-03 -1.43972813178537400D-01 -3.82941777105348200D-01 -4.58119875562674700D-02
65 25 -2.02648599999272800D-02 -3.21286997289816100D-02  5.00381467577915800D-01 -2.89247173990349900D-01  6.37399292901467500D-02
65 26  1.49280304192960500D-01  1.27272453389653300D-01 -9.63003809910203300D-02  4.00873798955603000D-04  5.24796367942419700D-02
65 27 -5.28805105931977300D-02 -9.25374660602873200D-02 -1.00885130847241300D-01  7.88649182826015200D-02 -2.81921326434730300D-01
65 28  2.23608880165582900D-01  5.83124462691474500D-02  1.09561676387718800D-01  7.92348489571325500D-02 -4.57216056458466700D-02
65 29  5.25991632048205000D-02  5.09038295416480300D-01 -1.26627798350048300D-01 -2.32519049700583300D-01 -5.89273613099735200D-04
65 30 -2.47593815422647800D-01  5.17221645367983200D-02  1.32850945636465700D-01 -6.38671080474532100D-03 -4.47062454374793000D-02
65 31 -5.30149584534445300D-02  6.10311001484913600D-01 -1.10241581956664800D-01 -9.36552333382279500D-02 -2.26402010113326700D-01
65 32  1.10029662251837500D-01 -8.17618847210998400D-02  3.44937357373070900D-01 -2.24232442380076900D-01  1.28707831874877500D-01
66  1 -2.15798690537749400D-02 -2.36287359198494300D-02 -1.23963854355478900D+00 -2.06605922585289000D-01 -2.14460212592953900D-02
66  2 -8.89896299492749100D-02  3.96984943625919400D-01  1.09671220126304100D+00  4.58523991026161300D-01 -7.14865433495205100D-02
66  3  8.93207609348803800D-02 -1.78342175853594900D-02 -1.34279648841546800D-01 -7.49846770439225900D-02 -2.20477335740931200D-02
66  4 -1.45706218977045900D-01 -1.27095908749873300D-01 -8.26117481755738300D-01 -1.64698914618616500D-01 -4.53051642258503600D-01
66  5 -1.49141496361072200D-01 -5.14631404741807900D-01 -7.69872009545062900D-02 -2.00665116726176500D-01  4.06780042338665300D-01
66  6 -1.64523316111630200D-01 -2.42256726227035000D-01 -2.00391660598347500D-01 -1.31945206268925000D-01 -9.33469929331901100D-02
66  7 -5.33985531573936700D-03 -4.49677175703616400D-02  1.49683802058387400D-01 -1.97690442132402000D-01 -1.24942181239180400D-01
66  8 -2.31774852126178900D-02  3.71529469125285100D-01  1.44856866649901900D-01  1.72174082991590800D-01  1.00713739485360000D-01
66  9 -2.86059306519927200D-01  1.85345567034566900D-01 -2.45519484021121900D-01  4.25228699869728800D-02 -2.09109417477357200D-02
66 10  9.25934649871908800D-02  1.42242727456414600D-01  2.01581299965938400D-01  3.84006153134277700D-02 -9.35732480373418200D-03
66 11 -3.81620292264889900D-02 -1.48594560925167100D-01 -6.07080657568101100D-02 -9.50270528614916800D-02  2.79430200920691000D-02
66 12 -1.25834490301623900D-01  9.78914702095543700D-02  7.79341600291406200D-02 -1.96433458778715900D-03  2.49825811868328000D-02
66 13  1.83884612404960000D-01  4.35446866963999500D-01 -4.62883803953160400D-01 -3.22603624598293200D-02 -1.37383286468620200D-01
66 14  3.32345164983553900D-03 -1.67057067241462100D-01  7.58707049197754800D-02  4.86770871493135700D-02 -9.80377308679430300D-02
66 15  9.69233600834853900D-02  1.11437078445743100D-03  1.07120462574332400D-01  6.85802538377053000D-02 -5.57238797982236400D-02
66 16 -1.65919812693836300D-01 -3.28400717087614800D-01  1.84825766008992900D+00 -2.43133258828458200D-01  9.56984425826668800D-04
66 17  3.25293581445617400D-03  1.04794275585764000D+00  4.09610220596516500D-01 -1.62658652630739300D-01  1.13286546924566000D-01
66 18 -1.16135941764843700D-01  2.84939484027783300D-03 -7.72779203150625200D-02 -1.57828988240029100D-01 -1.12194880568913800D-01
66 19 -2.24733656359680000D-02 -5.74307156352034700D-02 -1.67092072174744700D-01 -5.83953070257857800D-01  5.57505204608098100D-02
66 20  1.22974901558971100D-01  7.99937295097145600D-04 -3.74817358128780500D-02 -1.24935492699381100D-01 -6.42881317831255900D-02
66 21  1.91506754180329600D-01  3.22169282726004600D-01 -1.12148198087351800D-01  3.65401643428523600D-03 -7.61063706940476600D-02
66 22  7.24523542597625400D-02  7.69485313578370100D-02 -1.63635389028694000D-02  1.50769425856574900D-02 -1.69780579878448500D-01
66 23  1.25954558292944900D-01  4.38260215855039700D-02 -2.58730891973644000D-01  9.21170255369668200D-02  9.90249673492317300D-02
66 24 -7.03486921685153900D-02 -1.01276549100731200D-01  4.87091449646904300D-01  6.73796653803909300D-01  1.47655053284473900D-01
66 25  1.86176524477135200D-01 -4.80048248387343300D-02 -6.65038614037164800D-01 -2.60940998846528900D-01  2.67414312449506300D-01
66 26 -3.59684396756260000D-01 -2.17570041437302800D-01 -1.29994390185514700D-01  8.15482839996562700D-02 -7.64505685208205500D-02
66 27 -5.09771547883583000D-03 -2.40517551640907000D-01 -3.36209939118944000D-02 -4.14536125051007300D-02  5.41276912333545200D-01
66 28 -3.95033580923945400D-01 -1.46243331409599900D-01  5.01329182016095000D-01 -1.88934775779711200D-01 -5.51632327518634600D-02
66 29 -9.73695118565900300D-02 -1.45535211673827400D-01  3.76820607777955900D-02  9.90257165025281900D-02 -1.43237796386995000D-01
66 30  1.21486108685497700D-01 -1.93021227192085400D-02  3.03055833241065600D-01 -9.61246815488356700D-02  1.11946335328215200D-01
66 31  1.41303992918786400D-01 -2.01962475962339800D-01 -2.57856502734285300D-01  6.50180204269045900D-02 -3.62126009465847600D-02
66 32 -2.18806457433320600D-03  1.99230185829481000D-02 -3.09257278077766000D-01  4.73587428771968200D-02 -2.28888348054909100D-04
67  1  1.54813403266826900D-02 -2.73615521679626800D-02  2.02932822321786100D+00 -9.61230517375756400D-02  1.49683643396388000D-01
67  2 -8.13075502197917300D-02 -3.16450215101325400D+00 -3.26843653217059500D-01  3.62946076798838600D-01 -1.30305558614855700D-02
67  3  2.21704024438942700D-02 -9.13984658241025400D-03  1.12850714765929300D-01  1.47204904697634000D-03  2.15401842735583100D-02
67  4  5.26337021395519800D-02  1.11031576822851900D-01  1.19665731880320300D+00 -4.32640652428137300D-02  1.18086773362425000D-01
67  5 -1.96760680975101000D-01 -1.15615229158959300D+00  1.53134866553332100D+00 -1.80779472608428400D-01  9.01551785342693500D-02
67  6 -1.10589131273926900D-01  2.04339527396579500D-02  2.12932748365906300D-01 -2.14397174125182600D-01 -2.77917615959047600D-02
67  7  9.68887712194551500D-02  1.86913356990326300D-01 -1.32174864289623800D+00  8.36289117438315200D-02  3.91077444847977500D-01
67  8 -5.91980589946536000D-02  1.53552651334118000D+00  2.72308058131179000D-01  1.14922044018820900D-01 -1.00316229448455900D-01
67  9  1.66674259204539900D-02  8.36488035280018600D-02  3.98773835999616400D-01  7.46517150609923700D-02  1.65113991497240600D-01
67 10 -4.42375495064591600D-01 -8.75009329580195600D-01  3.16473608111902100D+00  5.89604401996147100D-02  8.04522232562696500D-02
67 11 -1.17585374976936800D-02  3.50474332986173900D-01  1.58867749261937800D+00 -2.24664221491423300D-02  2.49562231903438800D-01
67 12 -1.88195130870454300D-01 -6.13671010329844300D-02 -1.64412802515711800D-01  1.48880030997443600D-02  2.73961183896372100D-02
67 13  1.23325555102989800D-01  2.66689705029582300D-01 -1.99475660976588600D+00 -2.84048184458972400D-02  1.78152142327923100D-01
67 14 -3.11412900878878400D-02 -1.31242375574738300D-01 -9.26654146239338100D-02  2.31365151916301300D-01 -1.89132809369408600D-01
67 15  1.62001962410541800D-01  2.71308469588670300D-02  1.20812487890263000D-01 -4.94118760717100700D-03  6.10844411315829400D-02
67 16  1.78051047305835300D-01  2.73571751104307600D-01 -2.93123467589165000D+00 -4.82295035503635500D-02  9.61066904044284000D-02
67 17  2.94991478333873000D-04 -1.41620278267845300D+00 -1.82142598292183200D+00 -3.42286004881442600D-01 -3.08307280679342700D-01
67 18 -8.59232633069303600D-02  3.94230543986272900D-01  9.95450377650425600D-02  2.90936620966046700D-02  2.73573891358697300D-02
67 19  4.82698442108391600D-02  6.55766453469729500D-02 -4.36748428295046200D-01 -1.28682657634258700D-01  9.60110998155744300D-02
67 20 -9.89520468799339200D-02  6.14090666612425100D-02  2.66153137297161100D-01  4.80970026386262400D-01 -1.79827266713811500D-01
67 21  3.35666137229762900D-01  1.67643999789888500D-01  2.27592292345817100D-02 -2.32646202052086000D-01  2.17120205941303900D-01
67 22  1.55259961107831400D-02 -1.75770997525179300D-02  7.66318124147379000D-02 -8.05208337791408400D-02  3.32119288335486900D-01
67 23 -4.32469950406085300D-01  1.00350662070598900D-01 -2.00841003885237800D-01 -7.40520738234049700D-02  1.18568851546818100D-01
67 24 -1.62005199295473500D-02 -3.22455080035669000D-03 -3.35866188448522700D-03 -2.30764981710083400D-01 -7.73460546901800200D-02
67 25  8.02219128440169300D-02  6.62718021450337400D-02  3.99158330585606900D-01 -1.96877810093209100D-01  9.63813251930587300D-02
67 26 -5.91188689231418300D-02 -2.79463985334065100D-01 -1.19401864176375700D-02  7.33708092200467300D-02  1.91657382784206900D-02
67 27 -9.25365474984675000D-02 -6.79298356481289200D-02 -3.37585700075680700D-01 -1.39522627487429100D-01 -8.94389848854503200D-02
67 28  1.57676504697450300D-01 -6.82375198119999200D-02  6.44825780564287900D-03 -1.01005165428516100D-01 -7.20984831554120500D-02
67 29  2.11785872047982200D-01 -4.48024796005602600D-01 -2.40782456035375200D-01 -5.99844727901490700D-02 -2.18971303827063400D-02
67 30  2.17877055357858400D-01  4.24761060228875300D-01 -1.41301540499029500D-01  3.24139580209311100D-01  4.76050826821095800D-03
67 31  3.75789904307588000D-01 -2.85395526666597600D-01  6.99092395401421100D-02  3.89488876335606600D-02 -1.16022479981729200D-01
67 32  3.21111447774810800D-01  2.36868999982382500D-01  1.00457301906300200D-01 -1.34296826649870000D-02  2.07534638431267500D-01
68  1  6.19951234101280400D-02  8.45417557071795300D-02 -2.25532873155234800D-01 -1.36414596984720000D-01  2.35952665537362800D-02
68  2  2.44451013483521900D-01  3.35729489760533700D-01 -4.98210567529293200D-01 -4.88567374218808000D-02 -2.13378537797033300D-02
68  3 -9.11090098605774300D-02  1.12446863640281100D-01 -1.04110688623732200D-01 -3.38583387969070900D-02  1.05496107826834600D-01
68  4  9.51201017373269200D-02  2.48202050274881300D-01 -9.37551197920241100D-02 -1.81279273976183800D-02 -1.49592061320980700D-01
68  5  9.18516846093459900D-02  2.99342312292584300D-02 -5.01664960573128600D-01 -1.03102494329455700D-01  1.12578548937051300D-02
68  6  7.13835658862475900D-02 -8.26414207799530100D-02  1.24328907369095200D-01  3.24496830505858300D-02  2.39324130996275100D-02
68  7  6.73857289003685900D-02  7.40769831672453600D-02 -8.56235129531376500D-01 -2.85960480600423000D-02 -2.02514350680189000D-01
68  8 -1.30497283632327200D-02  6.46288911284475100D-01 -5.75823736752686500D-01  1.23760811588310700D-01 -3.02396448895583700D-01
68  9 -6.89861522918855200D-02  3.71382601187469000D-01  1.93346564326297800D-01  1.15655763929870600D-01  2.49880007150726600D-02
68 10  1.38538463512732700D-01  3.37940686840878300D-01  5.45354471265422000D-01  2.29256033031369000D-02 -1.63985538989355900D-01
68 11 -5.99561193101956000D-02 -2.49093832372289300D-02  5.61806368273684800D-01  7.93864622492095300D-02 -3.53214101797475100D-01
68 12  4.77324888116976200D-01 -1.24110786319501200D-01  4.82709734285366000D-04 -7.19827982619600000D-02 -1.03071674577213800D-02
68 13  5.27847107732856400D-02  9.70335345442744500D-02 -5.51578728737243800D-01  2.17890365561906600D-02  4.48284036501302100D-02
68 14 -1.30820821742718800D-01 -3.57648463306850400D-01 -2.07513189435624400D-01  9.29036919481095200D-02  1.14375215323382900D-01
68 15  1.07017898369393100D-01 -2.21393113692776400D-01  3.31271930536638900D-02  5.57580685426071300D-02  7.66943844780475900D-02
68 16 -2.07154016438381200D-01 -4.66495114532100200D-01  8.21495208594952700D-01  1.38954860923512600D-01  6.77156178276869400D-02
68 17  3.28809641263984200D-02 -1.24816475664208600D-01 -2.17276834342259000D-01 -1.45877383303656500D-01 -9.19145381620861800D-02
68 18  1.10851594339076800D-02  8.08293787281786800D-02  1.18217502280970300D-01 -1.08563834961210200D-01 -1.84121238687621100D-02
68 19  1.45611521092682100D-01  3.57248940058062500D-01 -1.89628176295444400D-01  5.74087025539424700D-01  4.61813324915928300D-02
68 20 -1.79132891660636100D-01 -1.83822391374667500D-02  4.57356770984308000D-03  3.60271798656984300D-02 -1.00110475300488300D-01
68 21 -2.48634459380165500D-01 -2.72708042895881900D-01  1.06638807343648100D-01 -1.12037661953465200D-01 -1.43247743252754000D-01
68 22  2.55285405206219300D-01  7.43400058732111400D-02  5.18042600113070800D-02  4.76193823822678000D-02  2.09202622223785200D-01
68 23  3.86176212545335300D-03 -2.13064384349238300D-01 -2.65957306778897100D-01 -1.24586959659634300D-01  1.87860013231016100D-01
68 24  7.31128370025327500D-02  1.64711014016090900D-01 -2.41517499443045000D-01  2.88939255999344000D-01  9.52977932886783100D-02
68 25  6.45837041165282100D-02 -1.55564213213651700D-02 -1.61824446526338900D-01 -6.28149957405939500D-02 -5.74075275121342600D-03
68 26  6.31556981874414200D-02  1.67063987194309100D-01  1.84904528962268300D-02  1.57568070301616300D-02 -1.41012148277752300D-01
68 27  1.25255341247590900D-01  4.72074113122958700D-02 -3.52726531327521900D-02 -1.57294422888316200D-01  5.51158004928459900D-02
68 28  9.87848108804755700D-02 -1.53900611373321600D-01 -8.45764662269515900D-02  9.32632321861572000D-03  2.05823501424032300D-01
68 29 -1.01019633250111600D-01 -1.38529492326056900D-01 -6.54810350442340400D-03  7.19340696235995200D-02 -1.20472804281699200D-01
68 30 -1.83473967458900600D-01  5.61864922419091300D-03 -1.20358062342880300D-01 -2.11439974508574300D-01 -6.78579845104337300D-02
68 31  1.23140034434388400D-02 -1.66744433427717300D-01 -1.30200371579701000D-02 -4.10707660372771100D-01  1.49167940009189600D-01
68 32  2.99288291834170600D-01 -5.56316963219048100D-01  2.11321344155865000D-01 -9.14124451419358900D-03  1.21184652846319500D-01
69  1 -1.57973950802024400D-01 -2.92140684523661000D-01  3.53124055568900500D+00 -1.94068811449736800D-01  1.95143812324782100D-01
69  2  5.31327493529226400D-02  1.54020338612825100D+00 -1.76994130092577400D-01  6.09428604073489600D-01  1.04091196044834400D-01
69  3 -1.21667843334256300D-01  1.75766472894221000D-02  2.63444040020195500D-01  1.15713579699800100D-02  8.47015494615931100D-02
69  4  1.52934607713690500D-02  5.10985708734890300D-03 -4.01786682552723300D-01 -9.40737686771269300D-02 -3.74619122398452100D-02
69  5  1.01460691365419300D-01  1.42649002087380600D+00 -1.61992477679860000D+00 -4.34243666681959600D-01  2.09638103253475000D-01
69  6 -2.27765760303175900D-01  1.81276570497007000D-02  7.01847907762735300D-02  1.13387551917176600D-01  3.85046949296943800D-03
69  7  5.42387461578834500D-02  9.71788792369270700D-02 -9.28305716824440400D-01 -3.38406850094113900D-01 -5.01433433707477400D-02
69  8  7.48298923186684800D-02 -4.63979614427816900D-01 -8.67528142549090100D-01  1.29812815791340500D-01 -2.54035099276737600D-01
69  9  9.80581526861898900D-02  1.55976946590547200D-01  3.50971770274897400D-02  4.69550784850248200D-02 -2.85844494824186000D-03
69 10 -1.82746585623661000D-02 -6.91457361134983400D-02 -4.69237092996060600D-01 -1.09222059529913500D-01  2.68460072082607400D-02
69 11 -7.80886274317137600D-03 -3.65550326659721100D-01  4.39177726230264400D-01 -8.34161782662599000D-02  1.98660247670303400D-02
69 12 -3.50655334048452100D-02  1.51995086378149200D-02 -1.27342047849052100D-01  1.44839540152863200D-01 -1.05933018722674400D-01
69 13 -4.77771177114292400D-02 -1.20958332381630400D-01 -4.05369439907876300D-01 -2.81985773129375100D-01 -9.26073067411030300D-04
69 14  1.31187393706077900D-01  8.65759706774491200D-03 -5.94818031727269300D-01  1.11330983804341000D-01  2.22137762927971100D-01
69 15 -2.17254968030901000D-01 -4.88279489706914400D-03 -3.29705664652020400D-02 -5.25753787927388200D-02 -4.74791573251622000D-02
69 16  1.58515047515996600D-01  3.15122369370757100D-01 -1.04319627553194700D-01  1.53772131092956500D-01 -2.53354576546395300D-01
69 17  8.64058918283747800D-03 -3.67012620738755800D-01 -1.66414597674549800D-01 -2.96302240560289300D-01 -4.48915362622221300D-01
69 18  1.85768085963061100D-01  2.63147276659160500D-01 -2.90055700780817800D-01  3.47131023006496200D-02 -8.31988105357968200D-02
69 19  1.45953830307686500D-01  2.88712012956462900D-01 -8.04389609178669400D-01 -5.80672097078652400D-01  8.11813909377109000D-03
69 20 -4.74331895186068600D-02 -1.05833208126497300D-03 -3.71929644434669200D-01  5.88144242963212800D-01 -2.08586376599398600D-01
69 21 -2.02793109159468400D-01  1.57693300366721600D-01 -7.65714581750946000D-02 -1.05794902301005400D-01  8.02887361311440400D-02
69 22  2.55061661698608900D-02 -1.48477929673492900D-01  4.33723781465528900D-02 -2.25139205393080600D-01  2.69262067590995300D-01
69 23 -8.53515467722085500D-02 -1.83910520818787300D-01  2.63972473469921400D-01  1.51869082433257500D-02  4.24481207843242400D-01
69 24 -2.92835203303279900D-02 -7.22166763583441100D-02 -8.16992799726574400D-02 -1.12052433787487200D-01 -6.48054437805167700D-02
69 25  2.09558388338153200D-03 -1.19845974748666000D-01 -4.51137141837634400D-02  3.05212585213985900D-01  2.26380584405689500D-01
69 26 -2.10562761898623600D-02  2.54704900151608800D-01 -4.54833745907963400D-02  1.15924580180177600D-01 -3.18935688020265700D-01
69 27  2.03011107840087900D-01  8.67332996674996700D-02  2.11841554955258000D-01  8.93356288827074500D-02 -4.88689933072801800D-02
69 28  1.61854084389989700D-01 -1.12985091082709500D-01 -1.68356394471196900D-01 -5.42324412098738100D-02 -9.81607711342701900D-02
69 29  3.06947101685752200D-01 -6.87299441285452500D-03 -3.42946232693822600D-02  3.92142755408561100D-01 -1.93038812888306000D-01
69 30  1.79663280541801800D-01  1.30039213112832400D-01  8.06752740219248900D-03 -7.01868886064054700D-02  1.63112218376750300D-02
69 31 -2.64019814551262400D-01 -4.32511812523711900D-02  3.90909004622232200D-02  4.87713871692343300D-02 -2.54068740039012100D-01
69 32  1.77739969806891500D-01  9.26650036888491700D-02 -6.94583272834253900D-02 -3.24181207571006400D-01  2.09928522147263000D-01
70  1 -2.76866116857394700D-01 -4.56256529960199400D-01  2.14367534758310100D+00  4.51267027363956300D-02 -1.01522200337978200D-01
70  2 -8.37824531740099000D-02  3.17145440379363800D+00 -2.00121482818114400D+00  2.51287091460365900D-01  5.65563333506939900D-02
70  3  1.22814498253856800D-01 -1.79370831604552100D-01  3.11802151353561400D-02 -2.23719085584589200D-02  1.11942660237618100D-01
70  4  1.97274505760344300D-01  3.22819917934482100D-01 -5.21700644207014400D+00 -6.93242902178323000D-02  2.09088735392539900D-01
70  5  7.23423971285010500D-03  1.36829380322450100D+00 -2.36252096582648400D+00  3.78102578334606100D-01 -2.71630345012403200D-01
70  6 -2.30538916621802900D-01  5.02169261634206400D-01 -5.14813688037916000D-02  1.30507361814829400D-01 -2.78084127944276000D-03
70  7 -3.71955919453132200D-02 -5.17617315082070700D-02  1.06104937079509100D+00  1.22316948073759100D-01  2.33452760060543300D-01
70  8  4.98574580962342300D-02 -4.75459297476015500D-01 -6.86163282651798400D-01 -2.75895403039910500D-01 -2.80305425395362600D-02
70  9  2.25294095948198600D-01 -1.97263553408660900D-01 -1.25742917499476900D-01  2.44445208069963200D-01 -1.15179902190819600D-01
70 10  8.58765161511851500D-02  2.24245116856987400D-01  2.55329377097142300D-03  2.16399076052814300D-01 -9.32991170573156900D-02
70 11 -9.00958490932061600D-02 -1.49051335514261700D+00  2.87462214705642500D-01  3.43264038995229500D-02  2.97217238303739600D-02
70 12 -5.90623735162416900D-02  2.93406496858689500D-02  1.51694346582220600D-02  2.85784889524713700D-01  6.00023763497106900D-02
70 13  1.43340048430391600D-01  2.79866112912258500D-01  3.15887225835540900D-01  1.92092988373377900D-01  9.21185704495752300D-02
70 14 -7.02593167941884000D-02 -1.12970261285900400D+00  1.06257911101675300D+00  3.74128332650163500D-01  1.10652432581989000D-01
70 15 -1.34920130456133300D-01  2.42676978741447600D-02 -9.17387838711515400D-03  1.56872476426375300D-01 -1.87773823953994000D-02
70 16  1.67898479584094900D-01  3.56716624530439200D-01 -3.82356621053041000D-01 -2.76378493081452500D-01 -7.57557457699358600D-02
70 17 -7.19685381325767400D-03 -2.63880983492860600D-01  2.23522004157096600D+00 -8.37725454583422200D-02 -9.05742919285932500D-02
70 18 -1.08953482895131700D-01  1.99527774823723500D-01  9.66711427421121900D-03 -1.02023999806777600D-01  2.65926283020295000D-01
70 19 -2.27453841475749800D-01 -4.63021880333341100D-01  1.07846955593442800D+00  3.92148534874154400D-01 -1.90976555899389800D-02
70 20  8.04872019280321600D-02  9.51465529894075100D-03 -3.82455351126666200D-01 -3.12413888723093200D-01 -3.76943451682298900D-02
70 21 -1.73778827382790700D-01 -2.49695224415632500D-01 -2.57617623710303100D-01 -1.18016120939854200D-01 -2.27946668669785200D-02
70 22  1.40810787806831900D-01  7.15268952401648400D-02 -2.08790899994936200D-01 -1.76528406569383200D-01  1.73738729224240500D-01
70 23  1.24731399690132400D-01 -2.98470128914373000D-01  5.10849208450207200D-02  1.07168374227647600D-01  1.66028548740238200D-01
70 24 -8.04984022841162100D-02 -1.36410947101581200D-01  1.15869194550715000D+00  8.93187317980239600D-01  9.02207857133628400D-02
70 25 -7.96407179043468300D-02  3.88261478628925100D-02 -9.82806758197133400D-01  8.35383187857749800D-03 -1.63960901098932300D-01
70 26 -2.02658351014297300D-01 -2.55745515347033000D-02 -1.34836223412995600D-01  1.00091463977469200D-01 -4.78684741228835200D-02
70 27 -5.22229898545858500D-02 -6.57028743496513400D-02 -3.52098948233808200D-02 -1.01287596851760800D-01  1.09043521024319500D-01
70 28 -2.06489526816428900D-02 -8.83945683426764900D-02  2.65786678916639500D-01  1.97493893685195000D-01  6.65037682727390400D-02
70 29 -1.58773496292188700D-01 -2.99778317223842000D-01  2.37784150156066300D-01 -1.29010867016915300D-01 -1.67976435361831800D-01
70 30  1.50152708662508800D-01 -9.24598987540379800D-02  3.55182966785042000D-02 -3.14793081705029600D-02  1.05871985392295600D-01
70 31 -1.34799706239356800D-01 -2.59497231698612600D-02  1.16142708592348200D-01 -6.46920474502460900D-02 -1.34546660283621700D-01
70 32 -1.98180491547832800D-01 -8.85140007702387800D-01 -2.34437143114908100D-01  2.34371107979227000D-01 -2.69330884552208800D-01
71  1 -2.95550755084442300D-01 -5.96568446781671300D-01  1.51441264389582500D+00  4.75353022181753100D-02  3.52068303757124600D-02
71  2 -1.28047535391399700D-01 -1.82087149116415800D+00 -2.12549773279769500D+00 -1.13149312378749600D-01  3.21080704495431300D-02
71  3  1.10920183273126600D-01 -1.43028253722670100D-01 -1.97970148060198200D-01  1.50181255494075300D-01  6.67855408286011800D-02
71  4  1.95014309228525300D-01  3.36890290043992700D-01 -3.26750151292653700D+00  9.76138054797437700D-02  7.34510283508605200D-02
71  5 -5.10744683729773100D-02  1.29554084065305400D+00  4.04464752363011500D+00  3.75438381590057300D-01  1.84056686920735100D-02
71  6 -2.06431959051090100D-01  1.88026290359017400D-01 -2.05957443346294600D-01  4.37223816102384000D-02 -6.09244013929804400D-02
71  7 -2.04890137548817200D-01 -3.06602310552539100D-01  3.48029170017586900D+00 -2.57107939629872400D-02 -1.42786290529367700D-01
71  8  2.76865497840223900D-02 -6.76157910765443900D-02  3.51876331120893800D+00 -3.81730532608673600D-01 -4.27101345189914200D-01
71  9  6.85577473707866600D-01 -2.58476128517951800D-01 -1.72212406884863700D-01 -1.18072386871272500D-02  1.07844180097152200D-02
71 10  1.53056988706266600D-01  3.06456908832658900D-01 -3.93506209105285900D-01 -2.73538514116451200D-01  7.76222225915340100D-02
71 11  9.23902152402195400D-02  1.33382523897443200D+00  2.43500575672215600D-02  7.83856289746773500D-02 -1.49018916710543000D-02
71 12  5.49407080581512100D-02 -4.00388163870947400D-02  1.07047206490672400D-01  1.43782558495697500D-01  7.74882311077955800D-02
71 13  1.69082285496411700D-01  2.95123514041269800D-01 -1.66222977804204800D+00  1.48593090729101900D-01  5.91827720084419500D-02
71 14  1.19572452158740600D-01  1.32777533515251000D-01 -1.83929853306847900D+00 -2.09472426232130400D-01 -9.62674037839719200D-02
71 15  1.59907613125705000D-02  8.02766424714005300D-02  1.02354174321526800D-01  8.62062516804389900D-02  9.38703106306272700D-02
71 16 -1.06032805466838100D-01 -2.26351255892630100D-01  1.35878116162441700D-01 -1.75961285837781000D-01 -1.19561056919330400D-02
71 17 -1.12305055805096400D-01 -7.11854638826434800D-01 -2.05015791505916900D+00  1.87115677229730000D-01 -1.22808726529853800D-01
71 18  9.19307861377505900D-02  3.08779403921044900D-02  1.26995584129155700D-01  3.47793758232068000D-01  1.36087719591657200D-01
71 19 -4.19855261638368800D-02 -6.97126154014700400D-02  5.05942814574292400D-01  1.15128498978142500D+00 -9.54315519914619400D-03
71 20  1.22179307074121900D-01  3.99515477986428400D-02  2.47656964025233900D-01 -4.37935452397790400D-01 -1.20595079352710100D-02
71 21  1.10952346522040100D-01 -1.05945907173901700D-01 -8.05781640627239300D-02  8.97987914916099900D-02  1.11999849418737100D-01
71 22 -2.01798640910347100D-01 -2.26352915007976100D-01  2.94050520656135400D-02 -7.10990904165164400D-02 -1.37469729673919900D-01
71 23 -4.96758732414131100D-02  1.87145602915332300D-01 -7.57470342180266000D-02 -1.24744401093552600D-01 -8.05016229334873700D-03
71 24  1.69079013457159800D-01  3.67796267329263400D-01 -8.75834720806777300D-01 -1.52512214757393400D+00 -6.85976934456114500D-02
71 25  1.88654257968292400D-02  6.54389386956064500D-02  3.20367657942053300D-01 -7.63834204747420300D-02 -2.17608568817418900D-01
71 26  6.01726977383652900D-01  6.96983962342059300D-02  1.05144777302816100D-01 -1.10560692477403700D-01  6.83068527319340400D-02
71 27  4.22538397454688600D-02 -2.75129180224322900D-02 -5.17239067978635000D-02 -7.88259451301747800D-02  7.58848890511633300D-02
71 28 -5.11040444319152800D-02 -2.47808446192480300D-02 -1.28852433176865700D-02  7.94683615680683600D-02  1.58537634713763800D-01
71 29 -1.41622684127744800D-01  8.13331555957025800D-01  1.15341709674179700D-01  2.07597233199017600D-01  1.89342454586341700D-01
71 30  4.66726752216050800D-02  3.54821359935772100D-01  1.47780119147706100D-01  2.42496342657092900D-02  7.13271830556590400D-03
71 31 -2.97646280689516500D-02 -9.68420986073045100D-02  6.12893010487294100D-03  1.57171428776943900D-01  2.11869220684446900D-01
71 32  1.68889178820455200D-01  6.94794340381755600D-03  7.12939128566731500D-02  1.74325690025533700D-01  1.87577295066168300D-01
72  1  1.94264427604688000D-01  3.77948402330054100D-01 -1.26441721775672100D+00 -3.22336077341907500D-02 -5.75631632309622400D-02
72  2  1.90188635266212100D-01  1.85171209156966200D-01  1.96171593085411900D+00 -5.38756508210773100D-01 -2.37750180252419100D-01
72  3  2.70849167265617400D-01 -3.30989870131960500D-02  3.09487113805128100D-01 -1.13364455410376500D-01  1.57506098580792100D-02
72  4  2.23636381102241600D-01  3.97865380186543000D-01  5.56833306567247200D-01  6.65107127573272400D-02  2.28057069778983400D-02
72  5  7.75182097992138000D-02 -7.61914129530816400D-01  2.55829914806883300D-01  1.50993989039174700D-01  1.29673984329345100D-02
72  6 -2.75394059616691600D-01  2.62426661183756600D-01 -1.44818937092249700D-01  4.44000807045817200D-02  4.70342369358812900D-02
72  7 -1.07075131040029400D-01 -1.34314184194838500D-01  1.88162053353275600D+00 -1.16383761813296800D-01  5.13723911715351300D-02
72  8 -4.66607853447517700D-02 -4.95580961963508400D-02 -8.30656893657548400D-01  5.65961796092454700D-02  1.45518286879687200D-01
72  9  1.59474099195386600D-02 -1.61465696799226600D-01  1.72861228809559500D-01 -7.17800579920670300D-02 -8.28004359752306100D-02
72 10 -8.91101266073334700D-02 -2.29507177991165900D-01  3.32805002439622800D-01 -7.10210148233263400D-02  1.14496365810168200D-01
72 11 -5.09422139399061000D-02 -2.13605658692451200D+00  1.08675083618301900D+00  1.11723799650692200D-01  1.55915528476534700D-01
72 12 -1.91761098437978200D-01  3.58455699614417400D-02 -1.45310545919917200D-01 -2.41780136886086000D-01  5.22934290910621500D-02
72 13  1.42800343798697000D-01  2.21822492421097200D-01 -4.28559954266044700D+00  6.96109032375326800D-02 -2.52470429637513900D-01
72 14 -4.04634861690859300D-02 -1.23393735832053600D+00 -6.48198646374079600D-02 -2.31548831990434100D-01  1.23216124738304800D-02
72 15 -2.21996150098180800D-01  2.09674537624352300D-01 -1.35433168305094900D-01 -8.32296865391569700D-02  1.15689763338556100D-01
72 16 -1.42323516325230500D-01 -2.20858266135171400D-01  3.00709227491653400D+00 -3.30982852670166900D-01 -2.26984581524192000D-01
72 17  4.56699814665409000D-02  1.56429941079367800D+00 -7.41571108308836700D-01  1.58927422868032900D-01 -3.22174291357031900D-01
72 18  3.92504386189573000D-01 -7.03300948325420400D-02 -2.80277695423027300D-01 -1.27809492026396700D-01 -4.08404527605177800D-02
72 19  1.51925654968195000D-01  2.89146583842169700D-01 -1.25583006428710100D+00 -4.37829671206265900D-01 -1.32388074520999300D-02
72 20 -5.85472561577692800D-02  3.93020496268599200D-02 -2.10792798919428300D-01  5.37220374011163100D-01 -3.29620683630664100D-02
72 21  1.55268912400208200D-01  1.83221046690685000D-01  2.99946058565793500D-01 -6.54852085467720500D-02  1.07463117423450400D-01
72 22 -4.19779088766785000D-02  9.18427052431109300D-02 -1.05537216343765500D-01  2.64762090751450900D-01  8.45305844358836700D-02
72 23 -5.93161191739138100D-02 -2.52144652619701600D-02  4.48505653223020100D-02  1.18301202815787000D-01 -2.39236160272144700D-01
72 24  7.90817885842349000D-02  1.59756497623716400D-01 -8.27856197190857400D-02  1.86002465627792100D-01 -1.95006618410731100D-01
72 25 -2.72395684356918400D-01  8.12813080849470300D-02  4.05307418653288300D-01  4.37017334941687600D-01 -2.02697073041521100D-01
72 26 -1.17257060743056800D-01 -5.37271302739295800D-01  2.01103634238243200D-02  1.08609857236503500D-02 -1.02950230364686900D-01
72 27  9.20892446410365400D-02  1.66612527664407400D-02  1.59906393499243200D-01  2.10089680943570500D-02 -1.46036303869135100D-02
72 28  1.50749140365841100D-01 -1.36145509978927600D-01 -2.46638418974711600D-01 -5.42399810524586400D-02  3.47590858117592900D-02
72 29 -5.70638654843584000D-02 -6.59685732284704300D-01 -1.81815042956581800D-01 -1.43562392584201700D-01  6.90614232334988600D-02
72 30  5.79404890200805000D-01  3.92605287553507500D-01  2.70129099556277800D-01  1.69715117371866600D-01  7.41954709350134000D-02
72 31  2.41099642850525900D-01  1.48892178902831600D-01  1.95292197156592000D-01  1.20947480227778500D-01  1.92133878403614000D-01
72 32 -5.29417012825497600D-02  2.82918065274770100D-01 -2.77549638840061700D-01 -6.88170264392492700D-02 -1.32874452304726600D-01
73  1  2.12232224597445700D-02 -1.09685163232579600D-01 -5.11642625565762600D-01 -2.36439276580239500D-01  2.88419868413059300D-02
73  2 -2.95317621350991800D-02 -1.42327945704088700D+00 -1.62724199869137200D+00 -3.95176425029143600D-01 -1.85940143732321300D-01
73  3 -6.44722507384632800D-03  1.92387368806165700D-01 -1.80640062842126600D-01 -1.25066571244994300D-01 -2.07172661323520300D-01
73  4 -7.26912929496938000D-02 -8.25145220923900100D-02 -1.03834517324517500D+00 -2.64031705707908600D-01  1.16726099087560800D-02
73  5  1.38349911811826200D-02 -8.62465426646225900D-01  1.90221247524609100D+00  1.21102697754360600D-01 -3.50714325727857000D-01
73  6  5.75600530115594100D-01 -2.24886204387736400D-01 -2.24840287122727900D-01 -1.53608297995761000D-02  1.26222552258628600D-01
73  7  4.59451629650203500D-02  1.24816446062150600D-01  8.91706520383201900D-01 -6.50375528781926700D-02 -2.68722437596620100D-01
73  8 -3.49596601553449000D-02  6.13092112563192000D-01  1.13360222639151300D+00  7.73423741570878800D-02  3.97068009451310700D-02
73  9 -4.25008819464514600D-02  2.79408100132191400D-03 -2.08410765366181000D-01 -1.31930559878410000D-01  2.88853929093024800D-02
73 10 -9.93790808866439900D-02 -1.55437369388659100D-01  1.81860326056066100D+00 -1.49939480856584300D-01 -1.71974141837245300D-01
73 11 -1.19773773082258200D-01 -1.06594194281850800D-01 -4.32858105002883700D-01  1.18235432674148800D-01  1.45761785244239600D-01
73 12 -2.66329170636493100D-02 -1.19128868180589400D-01 -5.50943734124224000D-02 -1.56509250165490700D-01 -1.64465018781348400D-01
73 13  7.02315959999827300D-02  1.43623359656627900D-01  5.90479599127653400D-01 -1.47352163988961100D-01  2.97016482692296900D-01
73 14 -8.17317882873114100D-02 -1.22495432326283400D-01  1.22515812415497000D+00 -3.28637020211999300D-02  1.20137979875425400D-01
73 15 -8.62691986861374700D-02 -3.38687811892885600D-02  1.76327748503982000D-02 -1.02083379420430400D-02 -1.46470735939281100D-01
73 16  2.04845083574981300D-01  3.59253982087458400D-01 -2.98070071797319600D+00  9.70527633635438100D-02  1.73905752304135200D-01
73 17  4.65886540344471000D-02 -7.69263831917054400D-01  7.36712328968494000D-01  1.98101695366886300D-01 -1.11298820358645800D-01
73 18  4.30311686663071200D-03  1.06995703492014500D-01 -4.00845093020651100D-02 -2.34919144230956500D-01 -1.07862594538807600D-01
73 19 -1.03629065021860200D-01 -1.97820806122313500D-01  9.69408227477402400D-01  5.65815893151199800D-01  4.23420635695231400D-02
73 20 -5.94224044619862700D-02 -9.14518917535799700D-02  2.79129321054668900D-01 -2.46921763714807600D-01  3.50495832306195500D-01
73 21  1.93412878069043600D-01 -2.12919418420732600D-02  5.71610857750330600D-03  3.85051284524535300D-02  2.23189728024342300D-01
73 22 -2.61694856476796000D-01  1.31051841867293100D-02 -6.73748321009808600D-02  1.91211741642116800D-01  1.41060621143700100D-01
73 23 -4.08408493187923700D-01  2.67347872044223200D-01 -2.47244725536583400D-01  1.75028869013947600D-01 -3.88058943956048000D-01
73 24  4.88489340252667100D-02  1.38092872902083900D-01  1.49111057678812400D-01  2.23987880334887500D-01  3.29062120435356500D-02
73 25 -1.66137028646366500D-01 -2.74888033794225500D-03 -2.12694816841064500D-01 -4.36987553831815900D-01 -3.16211378912028200D-02
73 26  1.60906508792840900D-01 -3.59126422018592800D-01 -6.21418640325914300D-02 -7.65625872427452100D-02  2.04436043150083100D-02
73 27  5.61189829277369500D-02  7.30128938447507900D-02 -5.90305391770530400D-02  1.27698254311327300D-01 -2.31991208045881400D-01
73 28  3.48945276137874300D-01 -1.16954068091992600D-01  4.83626504713661100D-01  1.46365936701011100D-01 -1.62882868495332600D-01
73 29 -3.63061554931045700D-02 -2.16313644413394300D-01  2.08373188935186200D-01  4.34491591666642500D-02  9.90404260037750900D-02
73 30 -3.41794797991996000D-01 -3.47179970445929200D-01  4.86629591684935500D-02 -1.72530757699943200D-01 -1.55715863185335300D-01
73 31  8.36873894341409600D-02  2.48671612119932100D-01  5.47788834744680000D-02 -1.79228059156459500D-01 -1.42619480661901400D-01
73 32  5.72262401064902100D-02 -2.14496571032628800D-01 -6.21281207589365500D-02 -1.88002951388947900D-01 -2.72493832160887200D-01
74  1  1.47692976917108200D-01  3.06825441784170300D-01 -1.19976284765832600D+00  7.74023620890279000D-02 -7.86872758277012000D-02
74  2  4.61233591887298200D-02  1.70998495048489200D-02 -8.51926033356255300D-01 -6.09869890729288900D-02  1.12842743095174300D-01
74  3 -2.54963743561677000D-01  1.42121000466503000D-01  2.31382614719521400D-01 -1.82670293048726300D-02  1.37950201625844000D-01
74  4 -1.49109902078424300D-01 -2.84754780133467500D-01  7.07417738260577200D-01  4.47600620405228200D-02  3.56219552346608600D-01
74  5 -4.26851744478761800D-02  6.44209898384804100D-01 -5.53225356887774700D-01  2.03871024843644100D-01  4.30330361010705800D-01
74  6 -3.94291279025254400D-01 -3.60390819854520100D-02  3.32228274292760900D-01 -6.96498424212132400D-03  4.55862350999070600D-02
74  7  1.32453340235008000D-01  2.60282731792697500D-01 -4.85672340236245500D-01  2.20576433029203200D-01  1.90280938843596000D-01
74  8 -4.49046109611466000D-02 -1.18296022805684300D-01 -2.61536623600052800D-01  1.30549624205865900D-01 -4.33922739098586800D-01
74  9  4.61396999464728300D-01 -2.74742603661408900D-02 -7.52991029954787800D-02 -1.71559432608852700D-01 -2.91403034195024600D-02
74 10  3.65658758092589500D-01  8.06350347208338300D-01 -1.26091670705099900D+00  1.15613968268593800D-01  2.80256219390860100D-01
74 11  5.93003383552905000D-02  3.30443593830904300D-01 -6.56646818384028400D-01 -1.51688380637793200D-01 -1.89954451968952600D-01
74 12  9.25079649950399100D-02  9.74464869739121700D-02  1.77896605684373100D-01 -1.73619637617243400D-01 -1.10211496032862400D-01
74 13 -2.00000989744727200D-01 -3.85002629146219600D-01  1.79825645913383200D+00  9.78409443021262400D-02 -1.95328109810858000D-02
74 14 -2.67371377268947200D-02  3.21468367789034100D-01  2.33550409882411100D-01  9.45857965997571100D-03 -1.23175588170603100D-01
74 15  1.74461126372676100D-01 -5.12855382020743700D-02 -1.80046632913159300D-02 -5.67047692886211400D-02 -2.96040676969920000D-02
74 16 -2.81747514212961100D-01 -5.86979712630260700D-01  3.28348730905499900D-01 -2.95033852157824100D-02  3.85331343081692400D-02
74 17  9.64311671865412300D-03 -8.41906693237261100D-02  1.01293974978444800D+00  9.65333843677914600D-02 -2.92723118461419500D-01
74 18  3.64667001782171400D-01 -7.19438833207525800D-02 -1.70921978279973500D-01  6.05171614200322200D-02 -2.85032239362543600D-03
74 19  4.06162638717269800D-02  1.22631004238116000D-01  5.29922536532950200D-01  6.57359335148829900D-01 -2.76663027482867700D-02
74 20 -7.75456059098778200D-03 -8.28256146842061100D-02  2.31902244062866900D-02 -4.57168185407309500D-01  8.39045560081606700D-02
74 21  3.34573427776257200D-01  7.60682589810383900D-02 -1.15767488566296600D-01  1.33723181325987700D-01 -1.25071795802958000D-01
74 22 -8.65138552302980500D-03  2.90729424970276000D-01 -8.69717621639772100D-02 -2.46740417112424400D-02 -4.71302137157500300D-02
74 23  2.66498781628514800D-02  2.04803355528983200D-02 -3.07002243491011200D-01 -1.62552831473822300D-02  1.52141620496948100D-01
74 24 -2.02563642374707100D-01 -4.77600528841145900D-01  5.72430671667645800D-02 -3.75909345856061100D-01  1.53754605659046600D-01
74 25 -7.89366794289648200D-02  4.14890647537645500D-02  7.13330536302186500D-02  6.07139784612190000D-01 -9.69606497706769200D-02
74 26 -2.23457902263061800D-01 -3.52503098603734900D-01 -5.39032038622453000D-02 -6.52044035028856700D-02  1.08935582112600100D-01
74 27 -4.37311786097136300D-02 -9.90567058287588800D-02 -1.47300726161910300D-01 -7.70065212308491400D-02  2.31769995441747400D-01
74 28 -1.81054798775489600D-01 -5.07151966662578200D-02  4.05523730192666400D-02  1.03438373638903100D-01  4.79546132297232500D-02
74 29  1.84900375890367700D-03 -1.15076804591716600D-01  2.56170976468615600D-01  1.61399082188180200D-01  6.29834126102399400D-02
74 30 -1.22663728222811100D-01 -7.96028968173030600D-02 -1.69684018424522700D-02 -1.19730807545586300D-01 -1.06605930625527500D-01
74 31  5.71737748818159800D-02 -4.35803076209464900D-02  1.11979548115127400D-01  1.86250184115133900D-01 -4.55432809283548400D-02
74 32 -1.63981445628577500D-01 -3.42579701177896200D-01 -2.09529355996147700D-01 -4.39261768379291400D-01 -8.23576468378241200D-02
75  1 -1.61607808508919400D-01 -2.48261047645713700D-01  1.34429999457482900D+00  5.89815499220500500D-02 -4.09253495478114300D-01
75  2 -5.57497855462023100D-02 -2.52883686259891800D+00  6.10627134876594300D-01  3.79038914940223600D-02  1.02647943939293700D-01
75  3  1.59148021247503700D-02 -1.18562746064044700D-01 -5.56932106490644300D-02  2.14079201159297300D-02  1.12278295546040400D-02
75  4  3.00713878376408100D-01  6.11172163657943900D-01  1.10142171160702200D-01  3.55819662660051000D-01  6.92755910552121900D-02
75  5 -2.12322798858385100D-01 -8.42299602303285000D-01  1.02442013217691200D+00  2.83165988163356100D-01  2.11722104160896700D-03
75  6  5.75704750459142400D-02 -5.96876960875237600D-02  1.07396545314990600D-01 -6.01519904042035200D-03  3.73079324199177800D-02
75  7  7.04209230479651000D-02  1.16394574782181600D-01 -5.58660680960031400D-01 -1.83639723711290800D-01  5.41222720166447300D-02
75  8 -4.80438369051897100D-02 -1.39523164492624000D-01  7.99476358400817500D-01  1.71694414179458000D-02  1.06770525935872800D-01
75  9 -3.25146202954078800D-02 -7.42559056404655700D-02  8.00681772639470600D-02 -6.54830954629228600D-02  2.28853893688944600D-02
75 10 -1.87755534503002100D-01 -4.16759044705344600D-01 -6.18563842678533700D-02 -1.61071478839261900D-01  1.32595686405527500D-02
75 11 -1.06240646600581400D-01  1.48836452520301100D+00 -8.15453423026020500D-01  1.93436155302002300D-01 -9.62472295084470100D-02
75 12  1.75301793726474300D-01 -7.90545642180258600D-02 -1.80332202998726300D-01 -2.31394461946628900D-01 -5.09869306398701100D-02
75 13 -2.88610840379437000D-01 -6.15309144595883400D-01  6.66016162311143100D-01 -2.99732488467872100D-01 -3.28730057675190600D-01
75 14  1.45927154362152800D-01  1.04293867643373600D+00 -1.78525475628058200D+00 -2.83316486892645200D-01  1.43697772500673000D-01
75 15 -9.06442266461554600D-03 -1.34633349836058100D-01  2.80833306083668900D-01  4.40670291439622700D-02  2.54788889629005800D-01
75 16 -9.48760171533311600D-03 -2.49660008881162300D-02 -3.57383608598793300D-01  1.10734217448884400D-01 -1.75381067468919500D-01
75 17  4.24899515449165600D-03 -1.21803551834872200D+00 -2.33797478853505500D+00  6.51530254707747800D-02 -3.07484065878178600D-01
75 18  3.09920048990832700D-01 -2.43598311265271000D-03 -2.89173639607825400D-02 -5.37363980149003600D-02  1.69689371551894200D-01
75 19 -1.59294039044064400D-02 -4.11489740121710100D-02 -2.96657281133622800D-01 -2.49901628127972900D-01 -9.45609521257523300D-02
75 20 -6.34962121396677900D-02 -1.53679446188581500D-02  4.51486730304482600D-01 -5.05929160774016500D-02  3.95624051607931600D-02
75 21  1.22864504657738800D-01  1.79228955680704100D-01 -1.13563879081012400D-01 -1.43758236221094900D-01  6.91858191084385900D-02
75 22  7.45724171126569600D-02 -5.30655560632238100D-02  4.91240785652606900D-02 -1.08556816055020300D-01  5.03786117909164700D-03
75 23  2.66638421428925500D-01 -2.71676282608016800D-01 -2.51595804886081900D-01 -8.38335504312601500D-02  1.32102197525751300D-01
75 24  1.55776652280106300D-01  2.96580563404396800D-01 -7.68373022455675300D-01  8.44432206038745100D-01  1.31956989821635500D-02
75 25  3.01466404063099500D-02  9.29484847903110800D-02  3.42402799894134400D-01  5.09844514659028800D-02 -1.52901564985298200D-01
75 26 -2.31482595064723000D-01 -3.99477113253788500D-01 -2.17528443082668100D-02 -6.29699808324207200D-02 -3.69813742464390000D-02
75 27  9.99513550788591100D-02 -4.19638996937944700D-02  4.78658484582929900D-02 -1.78808343569174300D-02 -2.34234377141990800D-01
75 28  8.60495279720235000D-02  1.48184849169967400D-01  4.55490807206703300D-02 -1.01717982672870100D-01  6.42257451538941300D-03
75 29  2.77444542581081100D-01  3.08013667391006800D-01 -4.92356665378015500D-02  9.71238544437146900D-02 -7.13573740505582500D-03
75 30  1.33525024809991900D-01 -1.13045957462112000D+00 -1.12232092159785500D-01 -9.27089613741881700D-02  3.21518834954025800D-02
75 31 -4.76583197674231800D-01 -3.20672792612624800D-01 -4.37839015367664000D-01 -7.16574388092732600D-02  8.54759662980721800D-02
75 32  1.35893399235203000D-01  1.80919545249853800D-01  1.80196088729836400D-01  2.89916132574847400D-02 -2.42743930316704900D-01
76  1 -2.47082964759153700D-01 -4.81414066442846000D-01  2.49331648090843800D+00 -2.14877134005781300D-01  2.88122137444556200D-01
76  2 -8.75383753698837800D-02  3.70625875517768700D+00 -4.70681036168959800D-01  4.18853205732992700D-02  3.15606182737487300D-02
76  3  3.44500130975008900D-02 -6.60106313712497900D-02  2.10881275121150200D-01  3.67964815512757300D-04  6.16723852000936100D-02
76  4 -3.74839123944544700D-02 -1.93632986849460600D-01 -3.88066708016361400D-01  1.88187024078576200D-01  2.45635735863642400D-01
76  5 -2.20999117705097400D-02  2.24128299005762400D+00 -1.60127080550234400D+00  2.07459330262261400D-01  3.02179226085458900D-01
76  6 -2.69934647585057700D-01 -3.22445785004014500D-02 -6.87792764423375300D-02  1.20302660571820900D-01  8.90912034964569700D-02
76  7 -4.85498051106970700D-02 -9.11991423863984900D-02  1.15904061637229900D+00 -2.02149956181457600D-01 -1.12833691114141600D-02
76  8 -8.76290714566906500D-02 -2.13592102915733400D+00 -5.95117655402617900D-01  2.22452375993356700D-01 -2.49419514479534000D-01
76  9  2.56424590461424000D-01 -7.00507598189027100D-03  1.33330891208480100D-01 -2.39677445409617400D-01  1.08578323784971700D-02
76 10  1.41463352955862300D-01  2.14144428137770800D-01 -2.93940815238098000D+00  1.60564276241060000D-02  2.80682060195148400D-01
76 11  7.69790606131992700D-02 -1.34222887123252100D+00 -1.00300493565369600D+00 -2.46341634359246400D-01 -2.92710412769603800D-01
76 12  3.40764650549610800D-02  2.58633947714642500D-01 -1.30460165441469500D-01 -2.65703447880514100D-01 -4.04118533529698700D-02
76 13  5.40746934659860100D-02  1.87159685103124800D-01  3.26280320919378800D+00 -1.37561953756911000D-01  1.29690068734097800D-01
76 14 -1.94934545045576200D-02  3.83036733125210300D-01  1.78710824533842800D+00 -9.23492237714008400D-03 -1.64951318300950100D-01
76 15  2.55149100052432200D-01 -9.01977817514829600D-02  1.78764803527560600D-01 -5.51410182762348100D-02  3.91046204207394200D-02
76 16 -1.71177873704663100D-03 -7.48593523899690600D-02 -9.32607997621232900D-01  1.08782010999685500D-01  2.29818033624389500D-02
76 17  6.44675338466151500D-03 -2.16682753577895200D-01  3.13979748681938900D+00  4.57162129029916900D-02  3.61179791280487900D-02
76 18 -3.59867236849079100D-01  3.23749257721030300D-01  2.85516048375514500D-01  1.31689921748349200D-02  2.66521487291756900D-02
76 19  3.78327579725286600D-02  6.04741833932704000D-02 -3.08415968243732500D-01 -5.41574927189558600D-01  1.64361817124558100D-01
76 20  1.00143440245975200D-01 -1.91496889536670900D-02 -8.64199519226541600D-01  2.46094044672124900D-01  3.28069080842039900D-02
76 21  8.27710817029253000D-02  4.78146549627723500D-01 -8.93708977258778100D-02 -1.08905094569191600D-01 -2.51681635995181700D-02
76 22  1.34073258168708700D-01 -8.87135838501987600D-02 -6.15336223880201500D-02  2.06795826634149000D-01  1.11469839596156400D-01
76 23 -8.92221500223619500D-02 -2.22476895737958000D-02  4.42628872817602500D-01  1.36144861427501300D-02 -9.35156126910340200D-02
76 24  3.65023505593060200D-01  8.00252288230918300D-01 -1.51290101129587500D+00 -7.67561133977350000D-01 -2.32172976246963100D-02
76 25 -1.25991151244167800D-01  3.37980872608402400D-02  2.42595521587340700D-01  7.33409654325836500D-01 -1.75138541049833400D-01
76 26  5.53872216988984400D-01  2.36652008566665400D-01 -2.49511461586077200D-02  2.12329285225073000D-01  7.92148064212595800D-03
76 27 -2.20250765867198600D-01 -1.62838250335685700D-02 -5.14113517626362800D-03 -5.45375182836233600D-03 -2.16164317447531100D-01
76 28 -1.21385491913084000D-01  3.37549809360615300D-01 -2.28973166233075600D-01  1.75592688553823500D-01  1.15874637990660500D-01
76 29  2.20929146721275100D-01  8.92863958281609600D-01 -1.31162889316986500D-01  1.51654465919754000D-01  1.33172573963218000D-01
76 30  1.46389388082114300D-01  5.05861236205189500D-02 -1.20883236469352900D-01  2.92971893536931700D-01  1.00811297357926100D-02
76 31 -1.98686585168299700D-01  2.42803616397404900D-01 -2.90124199928518300D-01 -1.08924317911883500D-01  3.25483569351254100D-02
76 32  2.42184086281576200D-02 -4.11326416879731900D-01 -7.44464347258041300D-02 -7.79052404945591900D-02 -1.37916910223884100D-01
77  1  3.42458054346673400D-02 -2.44054536660897000D-02  6.74049484198237500D-01  5.19480609670648600D-02  3.55569380856536600D-01
77  2 -1.50854048605468400D-01 -2.59230552912152500D+00  1.56990866959998900D+00  1.64549525257746100D-01 -2.50860270582168300D-01
77  3  3.40168931968489300D-03  2.47458581262485400D-01  1.32660695812897200D-01 -6.60009604079828100D-02 -1.99346238950350600D-01
77  4  7.44548126286310300D-02  1.70448292362409400D-01  3.31649350675293500D-01 -6.72397893516397500D-02  2.81590681201233800D-01
77  5 -8.62923107212984200D-02 -1.47991386960353100D+00  2.16361678164210200D+00  1.75944661319812700D-01  2.29926923869471200D-01
77  6 -1.97030062339276300D-01 -3.28968615301950600D-02 -6.37093702292126400D-02  1.05592281861292400D-01 -3.45490218748685200D-02
77  7 -2.02596790466369600D-01 -2.91706563367553200D-01  4.65035121079063100D+00 -2.91983756174543200D-01  1.83275732069581100D-01
77  8 -9.86115035813430100D-03 -8.37452053176877900D-01  5.04281235969732100D-01  8.33350342528190200D-02  6.28486972434069600D-02
77  9  1.76932824271038700D-01 -2.39781521514447900D-01  2.75946510240024700D-01 -5.55525815767629300D-03 -9.66020303519210300D-02
77 10  1.48435434311948400D-01  1.92258522189192200D-01 -3.64878101148208600D+00 -9.42240920966519900D-02 -1.41401355527819300D-02
77 11  7.24104355435225200D-03 -6.69736539552148800D-01 -1.43392490365844800D+00 -7.28973039759665100D-02 -1.76594696933930400D-01
77 12 -1.32009860165454800D-01  3.08604557099383400D-01 -1.62329609210932200D-01 -4.09071558857975300D-02  1.06850086792318800D-02
77 13  2.30392255482301400D-02  7.92899673415325000D-02 -1.44338838902273600D+00  9.00375302797064400D-02 -1.08528260063451800D-01
77 14  3.60454906606146000D-02  1.62373654874300800D+00 -1.11257049658002600D+00 -5.25982790005808700D-03  7.19718714575340000D-02
77 15 -3.28621934457056900D-02 -3.91096780118280400D-02  2.72901979251729700D-02  1.23110807887547700D-02  3.26991118464074400D-02
77 16 -2.38527320959673700D-01 -4.85859058510810100D-01  9.22893620717771400D-01 -2.41937660740133000D-02  1.20292605310458300D-01
77 17  4.72820238376096900D-03 -3.39870692330544000D-01 -2.61720085296599400D+00 -1.44955993080171000D-01  8.71453147370587200D-02
77 18  1.21321083499545300D-01 -2.08466398236602700D-01  3.10191902304043300D-01 -6.13300867991282100D-02 -9.33370575027797200D-02
77 19  2.70669610134864700D-01  5.61451594130047000D-01 -1.47166569645464000D+00 -1.04393221890317300D+00 -7.56402113206173200D-02
77 20 -1.12802557445196100D-01 -6.65672523765838800D-02  4.25490146863513600D-01  8.69560342088100300D-01  2.17735034244002800D-01
77 21 -2.34177469033887200D-01  1.58920687599849700D-01 -1.18301546714842100D-01  1.36649463635109100D-01  5.13874439482522700D-02
77 22 -1.88036907583363000D-01  1.69907803286002600D-01 -1.98824943050332000D-02  1.50445807071323700D-03 -3.30811631818610800D-02
77 23 -1.49446350380489400D-01  1.82527513562348400D-01 -2.06994927040639400D-01  8.17360111313041700D-02 -1.32021964493300400D-01
77 24 -1.10104908472027700D-01 -2.55957776293602600D-01  3.43747293668016000D-01  1.73665004061695700D-01  1.48867542865977800D-01
77 25 -7.14698733651564400D-03 -9.98575800093703000D-02  1.49197766758671200D-03 -4.13732723456829200D-01  1.79421912191632900D-01
77 26  1.66753965533305800D-01  4.12982159026141600D-01 -3.42511516607926100D-01  6.02487797154488600D-02  2.28176445102780900D-01
77 27 -2.88425224818230400D-01 -2.66983683950781300D-02  2.02731881869812300D-01 -5.52697788510682800D-02 -2.00926423881748800D-01
77 28 -1.00545580717768800D-01  3.01472004599517500D-01 -3.78161317543388900D-02 -5.43045873340223700D-02  7.14007457376417700D-02
77 29 -1.69675954040345000D-02  1.57626306126497900D-01  8.55679492433843000D-02  1.40374742381429100D-01 -1.26581650730734000D-01
77 30  3.28325258400796100D-01 -5.62041827729165300D-01  4.48686346160852200D-02  1.56351322252099100D-01  4.52507798195211100D-02
77 31  2.42525220929988300D-01  2.68717670496232600D-01 -6.05632704464930200D-02  6.04477261030038800D-02 -1.06133361669925300D-02
77 32  4.45859350478510100D-03  5.47264944296775700D-01  2.18313628577059400D-01  1.73002366793603300D-01  6.93466808967386900D-02
78  1 -1.94037791326570100D-01 -3.13292309495406900D-01  8.85690451514157600D-01  3.29271191330359000D-01 -1.85712015704647600D-01
78  2  5.48508336483100600D-02  1.82352183947497100D+00  1.03382679246932100D+00 -2.03202715681870500D-01  1.64195934182131300D-01
78  3  9.07834048725005900D-03 -1.73274274669379200D-01 -1.50905986893245000D-01 -2.67748203227253700D-02 -1.65908686663347100D-01
78  4  1.09294224326238200D-01  1.70142180662514400D-01  8.48795958021117800D-01  2.67136205432322500D-01  1.00128382907979300D-01
78  5  2.49528007411425600D-02  2.32570484761026800D+00 -1.69980372980515800D+00 -1.83610419647972800D-01 -3.40773013970491800D-02
78  6 -9.26039028219402400D-02  1.26681204218988200D-01  1.30123443850774500D-01 -8.15363124578567100D-02  7.94948987041539800D-02
78  7  2.70610583993697100D-02  2.50328324977491800D-02 -9.54425283902809900D-01  1.64818416193708800D-01  1.94182439673925300D-04
78  8 -1.84411429440796600D-02 -1.98915613955801900D+00 -1.40852963527856700D+00  2.80582339790817500D-01 -1.07260275382988600D-01
78  9  1.85187772462598300D-01 -7.79274970796109300D-02 -9.13493305344891700D-02  4.62861086811082000D-02  8.24927450810920100D-02
78 10 -1.23640486667992900D-02 -2.37573014097259300D-03 -9.50435413160589500D-01  5.77634511924573200D-02  1.11997354398017300D-01
78 11  1.38668432611982400D-02 -1.20864858848847600D+00  1.14384718323552100D+00 -2.18868125157165300D-01  4.10068043526624100D-02
78 12 -6.56859528748022800D-02  2.46791485221396000D-02 -3.05852946491337600D-02  6.29851246380819000D-02 -7.28537143035777000D-02
78 13  2.33322673151029000D-01  3.85896821999530100D-01 -4.18768728086833400D+00  8.07759194655883000D-03  3.05015142217478300D-01
78 14 -6.27755041822898500D-02 -6.64428533127075500D-01 -1.78722666376577100D+00  3.19699469250036000D-01 -2.16737127224739500D-01
78 15 -1.61639568684652400D-01  3.78376695909394000D-01 -4.28275286044213200D-01  8.79765504114395100D-03 -8.05159326396878600D-02
78 16 -1.90520629447081400D-01 -3.32683555007820300D-01  4.05511315501109900D+00  1.18446251811739800D-01 -3.61555285705788600D-04
78 17  8.20420998669267300D-02  1.51913394320758400D+00 -1.47921015669499200D+00 -2.00096300340661200D-01  1.24844542608215300D-01
78 18  7.42515429098188400D-03 -1.32269696899195700D-01 -1.03446395561685900D-01 -7.48788495743905500D-02 -4.54601909785953800D-02
78 19  4.96724423563084700D-02  1.05285154445503300D-01 -6.51034405959337900D-01  2.28419993248545500D-01 -2.38887706225665600D-02
78 20  5.52081298448451300D-03 -3.33137752213945700D-02 -2.92488510944114200D-01 -8.35995328249446000D-02  1.21174146226763200D-01
78 21  1.94391250412566200D-01 -9.59161361936097100D-02  2.11834192441365700D-01  3.91427819070600900D-01 -1.58894603154558700D-01
78 22 -2.32533215916042100D-01  7.69247099071926200D-03  9.70921353257855500D-02  1.86650405876805000D-02 -3.64854620411669100D-01
78 23  3.49444521994868800D-01  1.54100984168002800D-02  1.33918661756476100D-01 -5.41058605486352300D-02 -1.69025104817799000D-01
78 24  1.97883262566945900D-01  3.82646964273962400D-01 -1.27259181458223100D+00 -6.09803022049201200D-01  8.62282580439261700D-02
78 25  7.04750610639289900D-02 -5.16883053913418700D-02  1.46535345010074900D-01  5.74418831191643500D-01  1.64689947655145700D-01
78 26  3.90695091873288300D-01 -1.73271576169003200D-01 -1.34787461803447500D-01  1.05251696511492700D-01 -1.28191131560335500D-01
78 27  2.29394350488425100D-02 -5.96369868739685400D-02 -1.90750609804684500D-01 -2.47223869837768600D-02 -1.97989713489951000D-01
78 28  1.39863253080630400D-01  5.81264604093206400D-02 -1.28530854456588500D-01  7.18158831240058600D-02 -8.07080588670579200D-02
78 29  1.82276498413052400D-01  7.54900900165682200D-01  3.06395845989268300D-03  5.85407940511660600D-02 -1.53828972298644000D-01
78 30  6.03650323408614600D-01  9.60106112262051100D-02  6.24439570718632900D-02  1.53067344361192900D-01  8.86007766246021100D-03
78 31  7.91886433206427800D-01 -6.10592814791723400D-01  1.55830075018204500D-01  9.44543769272492400D-02 -2.08345086701533800D-01
78 32  6.19638130156040100D-02  8.31372649320287500D-01  1.01397723708863100D-01 -4.97547614733916700D-02  4.30792771327601300D-02
79  1  2.34120988350397400D-01  4.38191487363273700D-01 -1.40476863822758800D+00 -4.38593147188937000D-01  2.58887888383562000D-01
79  2 -3.40939755428134500D-02  4.00891191234671900D+00 -5.78802093639014000D-02 -3.10006908694027600D-01  1.79609309753393700D-01
79  3 -1.76956192716791900D-01 -2.65311703660222900D-03  2.44710023436598500D-01 -3.61828697808940700D-02 -6.84214283429505500D-02
79  4  1.71417198923788800D-01  3.60206499490759400D-01  3.05577273561262700D-01  3.25670437450831900D-01  3.51149694797376700D-01
79  5  8.28636438823019900D-03  2.03514063481667300D+00 -9.55345293592224400D-01  4.45120134265488900D-01  4.06605879936651500D-01
79  6 -1.61874060705071000D-01 -2.44731819231581200D-01  3.87804372142501300D-02  1.31875656928420000D-01  1.02910539982853700D-01
79  7  1.93541493530765800D-01  4.72711316245974500D-01 -2.96202292406368500D-01  2.08630543404749400D-01 -9.36078612113563500D-02
79  8  7.40924675349806600D-03 -9.87306436373781600D-01 -4.67654110151185500D-01 -2.49610974908033800D-01 -6.88086120050193100D-02
79  9  1.90967335194226300D-01 -1.22158723189205600D-01 -2.67231637069988100D-01  1.77750649632830900D-01  1.02343704438430000D-01
79 10 -2.24992407657678700D-01 -5.13384975048984700D-01  1.33087643167564400D+00  2.00208494483726200D-01 -2.99133910910512000D-02
79 11  1.21860970741008400D-02 -1.32573558119010300D+00 -3.04256581066964500D-01  1.66620665227422700D-01 -4.33292674358117200D-02
79 12 -1.20824403828824300D-01  1.64153671264636700D-01  2.69093001213310700D-01  2.03763095149477500D-01  1.39129197360122400D-01
79 13 -1.18458366068470300D-01 -1.26549980835404600D-01  3.26680931006115300D+00 -1.63498977276199900D-02 -2.25445059463455000D-01
79 14  1.00585628415595700D-01 -1.73581492545339400D+00  3.11323646327549200D+00 -1.86984667914833100D-01  3.29124470731786000D-01
79 15 -7.59078946807448800D-03 -3.21533681263712100D-01 -2.77622381401745900D-01 -3.76352068643470200D-03 -2.54708370035230700D-02
79 16 -1.29654183171636300D-01 -3.12719163216608200D-01 -6.53347843884600800D-01 -1.56630290091944200D-01 -1.59737071937678800D-01
79 17 -2.82323198393206500D-02  2.32360168852040800D+00  4.21779721229340800D+00  6.26685853936306000D-02 -3.32968699722497200D-02
79 18 -6.88394388324047300D-03  4.01808138554889000D-02 -2.31987095886537300D-01  1.19199337398278000D-01 -9.81543154184513100D-02
79 19  7.31892660992519400D-02  1.26409398820057600D-01 -6.79002040458263900D-02  1.87249648318674700D-01 -1.64395442034771100D-02
79 20 -1.72535287204615400D-01  4.25445370128032400D-02 -5.39991611736732200D-01  4.92463859504903600D-01  3.95519887523498200D-02
79 21  4.05308326717898800D-01 -1.05210321842540300D-01  1.18441756945143500D-01  2.17426479386009500D-02 -1.55268132444300300D-01
79 22  1.33525484505699900D-01  1.79818039448331900D-01  1.11666149617001000D-02  8.46355890395575500D-02  3.88945182739127100D-02
79 23 -1.90630935937286800D-01  1.51736417663374700D-01  2.23468276759013100D-02  3.91459291769212100D-03 -2.36404976557455800D-01
79 24  1.04160596181881000D-01  1.41138042749731700D-01 -1.12074211141831000D+00 -1.56640438677015000D+00  3.81703528090298500D-02
79 25 -3.06600558104264500D-02  8.47825303022184800D-02  7.41803108274431400D-01  8.14222512647215900D-01 -3.03112576383339000D-01
79 26  7.60446082367221200D-01 -2.03832894869337100D-01 -5.94707548500479700D-02  8.63072361376019100D-02 -1.56964169554133400D-01
79 27  7.06569334165327700D-02 -1.89124962835065300D-01 -4.56988766801705900D-02 -1.76725589889722000D-01 -3.64883379337924400D-01
79 28  1.72650602908942300D-01  1.92232776428982200D-01 -5.89093730641056900D-02  2.14837248595715300D-01  1.69041967478840500D-01
79 29  3.41636574060516900D-02  1.06673939120143800D-01  2.22857086977594500D-01 -9.07914578948335700D-02 -6.38167871346478200D-02
79 30  2.99359165454879000D-02 -3.22643247521473700D-01  2.00135253173837800D-01  1.47991651411530900D-01  1.37968692234921700D-01
79 31 -3.84866213305393200D-01 -1.25008537857783200D-01  5.71556041038226700D-02 -3.56190436525016500D-01  1.04156406292614000D-02
79 32 -1.90158324722030100D-01  4.63984243365358000D-01 -1.11342832651553900D-03 -2.15730575536729300D-01  2.14255069068847300D-01
80  1  3.76070983612116200D-01  6.68878823627405900D-01 -6.73071445893227300D+00 -1.32960096595928400D-01 -1.62981558316472100D-01
80  2  4.41129322158232800D-02 -2.00146460168235700D+00  3.12005177057619200D+00  2.34218278179281100D-01 -1.12893778113804200D-02
80  3 -3.81043780623919700D-01  3.92333158435300000D-01 -1.24432454946792900D-01  1.57021736447018400D-02  1.74732303631096000D-01
80  4 -1.90512436003471700D-01 -3.41112384699034000D-01  3.97170644783122300D+00 -3.54933712875539300D-02  2.60530344736981500D-02
80  5 -8.37411494328342100D-02 -4.37688773770178300D+00  6.88175173045889000D-01  4.56090113653485800D-02 -2.92897523171203900D-02
80  6  1.15717853559560300D-01 -8.64281012424411900D-02 -2.47651832287333500D-01 -7.71278789789160000D-02 -1.66679209335034100D-01
80  7  1.15363271562624900D-01  1.40820342147640200D-01 -3.29941541597862300D+00 -1.03162498792420100D-01  1.01374732684838600D-01
80  8  3.68224740800659200D-03  2.92640344148972300D+00  2.00507664726745000D-01 -1.94800213486597200D-01 -1.55536235065531800D-01
80  9 -1.35947239145663600D-01  2.91483474211196300D-01 -1.49160719301755500D-01 -2.38855724440285800D-01 -6.56777287771721800D-02
80 10 -9.87176367829192700D-02 -1.84720518564435700D-01  3.21832497257291200D+00  4.06692139565563800D-01  3.24677556973204500D-02
80 11  4.51777527115739500D-02  1.14897982585877800D+00  9.47764951793390700D-01  1.37118110728253500D-01  3.57225269902935700D-01
80 12 -2.55707834581200600D-01 -1.01517435321737200D-01  5.08436185820198900D-02 -1.47496968689892500D-01 -9.84143261141332800D-02
80 13 -1.16658521486970700D-01 -2.78038237812671600D-01 -1.64380252342228400D+00 -1.61192322693378000D-02  2.23104124268959000D-01
80 14  1.21739966384770000D-01 -1.88285584494171700D-01 -9.24705941208877600D-01 -2.94459263082959800D-01  2.03187957745666800D-01
80 15 -2.55706370397425400D-01  5.25184126517594000D-02 -2.69411020190331200D-01 -8.67605907950300100D-02  1.57816185682359200D-01
80 16  1.02347415838998000D-01  2.74589072693046700D-01  2.19145350289703100D+00 -2.80743428249229700D-01  1.00229578909281200D-01
80 17 -4.00110083148184200D-02  2.71646277685777300D+00 -1.29022216616464800D+00  8.03423216607161000D-02  3.40754589973825700D-01
80 18 -2.03024709221009300D-01 -1.37729880752817000D-01 -9.28447448123962700D-04  1.06816389417203200D-01  1.46857335563453300D-03
80 19  4.94447767384353100D-02  1.31487567723109000D-01  5.47884706957199000D-02 -5.60959030314109100D-01 -8.75729186874507500D-02
80 20 -1.20294081676538400D-01 -7.35115634690602600D-02  5.29846783115514000D-01 -3.61542783426439900D-01  3.19579327416584900D-02
80 21 -4.30230184099679600D-02  1.86555859504003200D-01 -3.57863053891711700D-01  5.76615714566291000D-02  3.98759857372702800D-03
80 22 -6.16491700303544700D-02  3.27960313869344500D-02 -7.04373628624073800D-02 -2.38380420324458500D-01 -1.42281374904381300D-01
80 23  1.73768360428463100D-01 -3.14869855240792100D-02 -2.49067185637429000D-01 -6.37050528081262600D-02  3.78962461113437000D-01
80 24 -7.75727666309766200D-04  3.62189989435255100D-02  7.49366466914193400D-01  9.79439364981390800D-01 -3.07495598373362100D-02
80 25 -4.91189577229262000D-02  1.65077025521715000D-02  3.16266665699654100D-02 -3.25285015070670800D-01  2.18090449947404000D-02
80 26 -1.52734698847678100D-01 -3.05107700462732300D-01  1.44267611740571200D-01  2.38570411115512100D-01 -2.15357363784327400D-01
80 27 -2.32130473311846300D-02 -3.77782576496532200D-02 -2.51942964322707500D-02 -1.10975246207303200D-01 -3.76984192672481100D-01
80 28  3.21677418803623700D-01  5.53067738688574300D-02  8.21682234100157400D-02 -1.91722497362822700D-01  1.08467067692941400D-01
80 29  8.39876061816541600D-03 -6.29133639561935500D-01 -1.82686379943741400D-01  7.72408220477621000D-02  3.12170845956718400D-01
80 30  2.18462715575767000D-01 -1.14630598747987200D-01 -1.53066141717357100D-01 -2.39755256204361100D-02 -1.63945272628105600D-01
80 31  3.19710878201564800D-01  3.23617181917649500D-02  3.50275726056938700D-01  9.26618531607071700D-02  1.10369458831350100D-01
80 32  1.79087050251154300D-01  1.20992702038896200D+00 -2.17624096946088800D-01  1.46451194864847000D-01  5.41494542123366000D-02
81  1  4.42996400064117400D-01  9.09182588959574800D-01 -5.62341551928223400D-01 -5.66866943810277200D-02  1.82246645247056800D-01
81  2 -3.98369574590381000D-02 -1.28552876683512600D+00 -4.79465850389049300D-01 -6.81349586240621000D-02  4.91725609555606000D-01
81  3 -3.84075658598821900D-01 -1.07649950956782600D-01  3.01200427402565200D-01  8.12075474506264900D-02 -5.65135857394622900D-02
81  4 -2.79227838106079400D-01 -6.29671346209452900D-01 -3.54346353299853400D-01 -4.49342957890051400D-01 -1.27875874175173200D-01
81  5  1.42221806532536800D-02 -3.58969986630316300D-03  2.08629743928359500D+00  3.42487062458153400D-02 -9.08969138555405600D-02
81  6  4.14172209022615200D-02  4.94796929532790900D-02  2.23752175068060700D-01  5.08376240745286600D-02 -7.60799121353761100D-02
81  7  9.21823389874736200D-02  2.83984472116455600D-01  1.01932313866754100D+00 -4.14712363205752500D-02 -1.38413728952298600D-01
81  8  3.21391949455643000D-02 -8.70875846570667100D-01  1.01633262007515600D+00 -9.53111870932908400D-02  2.98191421843517500D-02
81  9  1.55860759674360500D-01 -1.85679901858713400D-01  3.16073127975114400D-01  3.75664289450985500D-02 -1.12971871839539500D-01
81 10 -1.65677615087778600D-03 -3.69127803722915900D-02 -1.34069084571401300D+00 -4.33705191303054900D-01 -2.51792885295459100D-01
81 11 -8.24804029052071400D-02  1.16464391013938800D+00 -3.16240175809969900D-01  1.19755344424400500D-01 -2.96676650800312900D-01
81 12  3.38667557473871500D-01 -4.19909066735581000D-02 -1.68043966650900200D-01 -5.98954813009459800D-03 -3.04159437759031600D-02
81 13  2.61681933744279200D-01  4.84783508242225200D-01 -3.07368279761347500D+00  4.89158894782283500D-03 -1.93253308384062200D-02
81 14  1.19305240698557700D-02  8.38944930348442500D-01 -2.53309158649819700D+00 -8.56843188338488200D-02 -1.79764888526054100D-01
81 15 -2.80786728192916000D-02  2.07843561345346500D-01 -4.57199498005397300D-01  1.30523684590672100D-01  8.04141849361391500D-02
81 16 -2.46572410555667500D-01 -4.91571052755052000D-01  2.85152650337160400D+00 -1.83461517314594300D-01 -1.75007257012257200D-01
81 17 -2.92379884571095400D-02 -3.76671392385765400D-01 -2.61731746274897200D+00  1.12142952163168700D-01  3.61652697859832200D-02
81 18 -2.19489541692468600D-02 -1.42163156167343500D-02 -5.74798882421798700D-01 -2.96885902766763100D-02  1.21181364235838800D-01
81 19 -3.68337375041484400D-02 -1.33684031744878200D-01  4.91421022887558600D-01  5.57750436274484500D-03  4.17975775388785100D-02
81 20 -2.07869411147138600D-01  1.77889125849728900D-02 -1.90602659459775900D-01  3.84608240401909500D-01  3.40045636859883400D-02
81 21 -6.45388360380014900D-02  1.10103683685823100D-02 -2.64826918963698900D-02 -1.81144284492577200D-01  5.55424789872655800D-02
81 22  1.25601805505311700D-01  8.87076871937284400D-02  7.09198012150913500D-02  3.56638293417222300D-02  3.05387083839017800D-01
81 23 -4.26234776400286100D-01  1.20847692561268900D-01  1.23805415281473400D-01 -8.30137095090928700D-02 -7.99192214950226900D-02
81 24  4.30108017468679200D-04  4.37663414660970000D-02 -3.13194858559536700D-01  3.05618669355584000D-01 -6.11392893450457500D-02
81 25  9.21790453354688900D-02  3.72873599399336200D-02 -5.33857610389241700D-02 -7.29011215549887000D-01 -8.80148023175400100D-02
81 26 -2.29421456810896800D-01 -1.57610264807435300D-01  9.19916747505620500D-02  2.48800175274844100D-01  5.16250243366470800D-02
81 27 -3.00425199611491700D-01 -1.76463048973937600D-02  7.56763650948103500D-02 -3.79249173163872100D-02 -2.42723411462504600D-01
81 28  1.82735463830330500D-01  5.99879476321737600D-02  4.77138570030619100D-01 -8.92839433956449000D-02  8.97954708649198600D-02
81 29  2.39069244149908300D-01  3.31135914553647600D-01  1.20662280841837500D-01  9.79294853897559500D-02 -5.08813237467892400D-02
81 30 -2.76909327471397400D-01 -3.29911189508901200D-02 -1.31498489590802000D-01 -1.12557779756805400D-01 -6.79010574928784200D-03
81 31  4.78123323081901800D-01  5.73827470141248700D-02  8.44031004494674700D-02  2.47067297976768400D-01  1.58051177214367200D-01
81 32 -4.92559218917231800D-02 -4.90111952073124200D-02  1.07498208955398600D-02  1.97483784947410800D-01 -1.21416804280815700D-01
82  1 -2.03941601504167400D-01 -3.97065839628550900D-01  3.90809299944380800D+00 -2.56345211252368000D-01 -2.55318773195081200D-01
82  2 -5.48441182800097300D-02  4.23062134224506300D+00 -1.05629076364481700D+00 -2.31923051799088000D-01  9.29909152391621800D-02
82  3 -1.45181366921502400D-03 -9.15391015699463700D-02  1.86481540071235400D-01  2.49421376121462100D-03 -1.37978386174072900D-01
82  4  2.74528936045213600D-01  5.38604823180685000D-01 -3.47962268754374600D+00 -1.61821198892772200D-01  9.57502224070556500D-02
82  5  2.01885884316748200D-02  2.92884867956380200D+00 -4.41735283990717000D+00  1.68344003482683700D-01 -3.45034584589234100D-02
82  6 -1.48925578380463400D-01  1.83429036839386300D-01 -2.26994420649132400D-01  3.68615281655121000D-02 -8.89647403990654500D-02
82  7  4.59091241526167100D-03  3.48864462277476600D-02  1.45546771217536500D+00  4.45704726248354200D-01  7.35298544573449200D-02
82  8  8.32236735842517400D-03 -2.87015843558898400D+00 -2.60380315603720300D+00 -1.42356172571546000D-01  2.88379611131063300D-01
82  9 -1.73976223610553500D-01 -1.14403387520510000D-01 -4.70375328605884900D-01 -1.33059243212384600D-01 -8.59547845535011500D-02
82 10  1.74328014582450500D-01  2.92508628154617600D-01 -4.72370088514355500D+00  4.53073959970743300D-01  9.27397126983494500D-03
82 11  6.08711912642366200D-02 -2.00407665352955900D+00 -1.72245814634095800D+00 -8.02744743519504800D-02  7.74892252419292800D-02
82 12 -1.32531530251379100D-01  5.50423050094499300D-02  2.34746181136567900D-03  5.69346620725279300D-02 -7.58559757110958500D-02
82 13 -1.31936389584795100D-01 -2.67890279470278000D-01  8.59239342725643500D-01 -1.17550222072008900D-01 -4.40267420897440200D-01
82 14 -7.96053058380748200D-02  1.57979311905067100D+00  5.19409126163599400D-01 -1.58258075476851900D-02  3.43024991817048700D-01
82 15 -1.12779332015622500D-01 -2.30245659801425000D-01 -1.07867138769673200D-01  1.05523691657893800D-01 -1.62446656138779100D-01
82 16  2.62052295081062400D-02  5.84316064581292900D-02 -5.43187046493493400D-03  2.93392429262413100D-01 -3.05269452781130800D-01
82 17 -5.23870703634730100D-02 -6.44008650570108400D-01  4.38271576654288900D-01  2.03171986463101200D-01 -5.77751684249677000D-01
82 18  4.24062566669467000D-01  1.53689117580210300D-01  9.56093070173906500D-02  4.91968991498250500D-02 -1.33840274455925700D-01
82 19 -4.09666688782941700D-02 -8.35832100523991700D-02 -1.22416117459947100D-01  1.06957958236705100D+00  1.61265491928599100D-01
82 20  4.13522702360826200D-02 -8.92331625682000200D-02 -9.15005516274511700D-01 -2.82897967309851800D-01  3.17647600049151800D-01
82 21  1.67987137433085200D-01 -4.31843434849754800D-01 -1.76569221083493900D-01 -1.65124439975656200D-01  1.37603603128531000D-01
82 22  2.75208368471227100D-02  3.19394517252260100D-02 -1.96191719888963100D-02  3.63435443433595300D-03  2.98224704811511600D-01
82 23 -1.34218612686182100D-01 -1.64006092125331100D-01  2.31610857161395300D-01 -1.76105768045806600D-02 -1.91204030564665800D-01
82 24 -3.07153413334849200D-02 -2.89052441302542600D-02  7.53010154253441500D-01  4.55776367230177300D-02  5.63582615118696100D-02
82 25  2.44021497402326000D-02 -5.28785229683322000D-02 -9.10826124455429700D-01  3.74831283106135500D-01  2.96080347530315700D-02
82 26  2.23176159426471100D-01 -1.91025313998676300D-01  1.70415067183268500D-02  5.15164056217504200D-02  4.56736051266577500D-02
82 27 -9.71900107484085200D-02 -1.08624830227697900D-01  1.02939896046892000D-01 -1.70694648721093100D-02  1.98291816320117400D-01
82 28 -1.65137825217910800D-01 -3.31539911022067200D-02 -4.43335994494618400D-02 -4.59644429532710600D-02  1.45782732733954900D-01
82 29 -4.25922360250700500D-01 -4.95502675954454300D-02  4.57658608598770200D-01 -5.30070484748415300D-02  1.96051221171965900D-01
82 30  9.45076965364190400D-03 -4.97670045800225800D-01  1.05217240571386300D-01  2.37147171291924400D-02 -1.36846249249000200D-01
82 31  1.63192063942998000D-01  3.55360225269905900D-01 -2.72563203265409300D-01  1.11694080859137700D-02  1.20628496324996700D-01
82 32  3.44575643698515800D-01  5.44608138164915200D-02  3.73758975264465200D-01 -3.41419370118586100D-01  9.99342024885057800D-02
83  1 -9.74741781794103400D-03  7.17568063594536800D-02  5.08902469048170500D+00  2.26726946045903900D-01  4.91263487683539900D-01
83  2  2.34358869352282100D-03  2.26041343480188700D+00 -1.40161152890557300D+00  2.64820361984620100D-01 -2.56915189771258600D-01
83  3  6.35130998224722200D-01 -3.78215808453463300D-01 -4.39234504129977700D-01 -6.90951931545860100D-02 -4.51389428549245700D-02
83  4  3.16024186057601000D-01  5.55038872156648300D-01 -6.14465834182425500D+00 -2.77880415264035600D-01 -1.12086339828215900D-01
83  5 -6.52310698251446200D-02  3.08746651000423400D+00  5.18652244800638000D-01 -1.82872053123365800D-01 -6.85867352973590700D-01
83  6  3.77797543866395600D-01  3.08069809107197300D-01  2.42065041326448200D-01 -5.50644939788111500D-02 -4.81617941596119600D-02
83  7 -2.03524697842601600D-01 -2.61856265076588000D-01  6.71399740264491100D+00  9.06413049935206600D-02 -2.68299124655835600D-01
83  8 -4.08479361772725200D-02 -4.09672731320088400D+00 -1.74068206781439700D-02  9.50597650993076800D-02  5.32467841048077900D-01
83  9 -8.14293068874423200D-02 -4.51038534160634800D-01  8.27391414448716600D-02 -8.01384515549713300D-02  6.27048280221170100D-02
83 10  5.22010078050603900D-02  2.71366605531657200D-02 -5.21891944376590900D+00 -3.25050290811034300D-01  3.97396660453089200D-02
83 11  5.02681604333148900D-02 -3.01344552388526400D+00 -2.46652495036115500D+00 -1.90291628754874900D-01 -1.78566440649134700D-02
83 12 -2.28831806577653000D-01  2.46688450642567200D-01 -1.77091600514009400D-01  4.87069932605040700D-02  6.45896701270892000D-02
83 13 -2.03342481051873900D-01 -3.98982446406322200D-01  4.26031889999880300D+00 -2.72849130252838200D-02  1.54503462886633700D-01
83 14  6.27878258964070200D-02  7.13160656509786100D-01  3.23981023256049800D+00 -1.27321788649000500D-01  2.55969363288258200D-02
83 15  1.37247179142059000D-02 -3.93216542430319400D-02  1.59991860718395100D-01  1.76007321939337600D-01  1.45094928197021400D-02
83 16  2.30772832147540100D-01  4.27469470757693800D-01 -4.63182366230923100D+00  1.12356405277947200D-01 -4.29047012577694200D-03
83 17 -2.21100290525308500D-02 -6.36242948706607100D-01  3.20534087307527800D+00 -5.08843880790460600D-03 -1.01452955845833700D-01
83 18  3.03711314340205300D-02  7.10818244118123200D-02  3.21676240737259500D-01 -9.95778702864261600D-02 -9.36041556492451400D-02
83 19  1.81791702468307900D-01  3.52579851064477500D-01 -1.30708012866077500D+00 -1.05029031898701800D+00  8.00234528165252000D-02
83 20  1.32211303107422800D-01 -1.22079659502346800D-02 -1.76344143590491100D-01  1.18918587665143200D+00 -1.13170797694911400D-02
83 21 -2.95198247087085100D-01  2.97893293302016100D-01 -1.25853378919621800D-01  4.30445921374578200D-02 -4.40728028016393400D-01
83 22  3.97683435878932400D-01 -1.34998994238459000D-01 -1.04501235798946000D-01 -2.37172210385864800D-01  2.23716822184351300D-01
83 23 -2.62809357805051800D-01  3.90925356206971200D-02  7.85166797801834700D-02  1.35595065271007000D-01  2.22098650010068000D-01
83 24  2.58809068755149500D-02  5.45051404889735700D-02 -1.96821131014674900D-01  7.18358276340443400D-01 -1.13125105183857700D-01
83 25 -5.80735206715120900D-02  7.36960959295549800D-03 -1.34624783593644600D-01 -5.38978086643552400D-01  8.36129072480034200D-02
83 26 -6.54636248908697800D-01 -3.88044825369163500D-02  3.73082357991704800D-02 -3.94051829813951600D-02  7.82119556673518500D-02
83 27 -3.88067726859568100D-02  6.45015722311707000D-02  4.96383581856898800D-02 -6.85265356628963300D-02 -9.44077399758071300D-02
83 28  2.47662474697705700D-01 -1.53254734721898800D-01  4.34131037569841300D-01 -1.79036013984655600D-01  1.88129492300708100D-04
83 29 -3.67495149377578200D-01  1.09836689596841500D+00  2.42000866906147600D-01 -9.43030786174844900D-02  1.13600381466111800D-01
83 30  2.20072232541873200D-01 -5.18025434428303000D-01  1.79105906397598100D-01  2.33597836611329000D-01  2.16071517798388000D-01
83 31  2.78309811236755200D-01  2.41001216016043200D-01  3.91540952812883100D-02 -1.47797881673026400D-01  2.17810448981773600D-01
83 32  2.43579965906687600D-02 -5.78190805868535600D-02  6.14008876338641100D-02 -3.92407182740303600D-01  4.58161494984027700D-03
84  1 -2.43779755945277900D-01 -5.23295669301132500D-01 -3.70000988756904100D-01 -1.02384012111525000D-01 -3.73929008157667300D-01
84  2  1.55658143963663300D-01 -1.05503067693060900D+00  7.29938107466106400D-02  2.31954318853008100D-01  1.00627521415195800D-01
84  3 -5.64899066599168500D-02 -4.41376147552792400D-02 -2.66375502213067900D-01  5.93589856390021800D-02 -3.80206025475761300D-02
84  4 -6.72904633139763300D-02 -2.27471399828800200D-01  9.35150185882889600D-01  1.75328201793933300D-01  3.71204498793326700D-01
84  5  7.06055563877713000D-02 -2.14464692315512400D+00 -4.20022839483230100D-01 -6.18384000111216900D-01 -3.83372912476178200D-01
84  6  2.11365919176614300D-01  1.72006993299563500D-01 -1.19029593130819100D-02 -5.94276707105043700D-03 -2.13370257762248900D-02
84  7  2.31404889766547300D-01  5.17316587299550200D-01 -1.16898023978862600D+00  3.39241777010846800D-02  2.57795678048641200D-02
84  8  3.75487385264427300D-03  5.08811500626245200D-01 -2.23236022541297100D-01  2.39771404205068600D-01 -2.08507750892326300D-01
84  9  9.41098085492201400D-02  1.14397942343105200D-01 -3.30048362085810800D-02  9.10416620811904100D-02  3.86101062266993400D-02
84 10  1.89928554187825300D-01  3.26546660150071800D-01 -1.15569063557583700D+00  2.23915306246745800D-01  3.34784106849644500D-02
84 11 -1.13636836790984300D-01  8.03738388753767500D-02 -6.24756468177050700D-01  3.77147813929640900D-02  3.39927575051315400D-02
84 12 -1.17456399551240900D-01  8.34636420461079800D-02  2.93698449127313800D-01 -6.31855003174418400D-02  7.11709042051850400D-02
84 13  1.09339400187497900D-01  3.11569341995973300D-01  1.13085930262897300D+00 -1.04923306083351800D-01 -2.33704187522075100D-01
84 14 -9.79913238818363500D-03  1.68540491876441100D+00  8.72131969893482100D-01 -2.45003119400388000D-02  1.13692303312833200D-01
84 15  3.17137063756105900D-02 -1.45406009688444600D-01  2.32046098357178900D-01  1.20871347351651100D-01  1.07285622987296800D-01
84 16 -6.17943923742474800D-02 -1.49525732426316900D-01 -6.63514616130755800D-01  2.24630852503667500D-02  1.45523141576947800D-02
84 17  1.14719729927382400D-02 -1.57606969078210600D+00  6.15806741466210700D-01 -1.03388396017080400D-01  7.37130950169785100D-02
84 18 -4.65139031224087500D-02 -2.71991918945697400D-02  1.92157923004551700D-01 -1.04317208731299200D-01  5.88095423939837500D-02
84 19 -5.12707342998180400D-02 -4.51013280419299800D-02  4.99650115846319300D-01 -3.63385282980346100D-01 -1.17699018595402200D-01
84 20  4.76405630914462900D-02 -9.79604322316346200D-03  5.53654222798636100D-01 -7.19415887691107100D-01 -1.01249357752211400D-01
84 21 -7.16730729773700100D-02  5.97717243088144300D-01  6.01261050705099100D-02  1.26637632467932900D-02  1.54138416423791700D-01
84 22 -1.66802179670585700D-01  4.98401106755134900D-02  1.06647497282884000D-01 -2.51725128483399100D-01 -1.55286712779956700D-01
84 23  8.31042798949335600D-02  7.21824328850224800D-02 -3.71007898482912000D-01 -7.48450925038471200D-02  3.39111288986978800D-01
84 24 -3.33320170641031800D-02 -5.18105328975406000D-02  8.00682143454283900D-01  9.46951352937179500D-01 -1.26062336866033500D-01
84 25  9.42296713851678300D-02 -4.72645292542750700D-02  1.41842983745866300D-01 -5.42119317721785900D-01  2.09807438978627800D-01
84 26 -2.70332409282059200D-01 -1.00530825738290700D-01  1.03862996416461100D-01  1.60680150514465500D-01 -1.17696432910061400D-01
84 27 -4.29837176044043400D-02  1.15453160479573100D-01  2.61639192907110000D-01  3.67417895755725200D-02 -5.72285018486129600D-01
84 28  4.37408787123617700D-01  1.34876231362511700D-01 -2.08609337083731700D-02 -3.24029064230214100D-01 -1.06716026623663000D-01
84 29  2.43024788951019100D-01 -3.34308209087768900D-01 -4.79350595692645600D-02  6.62186664261864800D-02 -1.20454166807956300D-01
84 30 -1.58349682403991200D-01  3.67678222911625900D-01  1.36984482167406300D-01  7.05680642142093900D-02  1.48596676288471100D-01
84 31  1.36435363604667000D-01  5.01856206608308900D-01 -2.47151201953934900D-01 -6.11578283295891100D-02  1.46175159943319100D-01
84 32 -2.58631040045409100D-01 -8.17296267851161500D-01 -3.15907199274201600D-02  1.15168112579675400D-01 -2.26004361455566900D-03
85  1  3.54558009879706600D-02  2.50922945086835800D-02  1.74474091508080100D+00 -2.75355218471278400D-01  2.49377669485620300D-02
85  2 -2.44021706125615600D-03 -1.70059549520036800D+00 -3.74641140815671000D-01  1.64451244965345800D-02  2.78549575929162200D-01
85  3 -3.59967614703369700D-01  8.14180387742095600D-02 -1.74340836769400600D-01 -1.41694633481714100D-02  5.42650637679178100D-02
85  4  1.50871085583391400D-01  3.23649783720372000D-01  5.18046447207589600D-01  4.19150855193933800D-01  1.64485778758031900D-01
85  5 -9.80044453190146200D-04  1.00521897022847300D+00  3.36315466877403300D+00  2.15427254257164900D-01  2.08285468575792600D-01
85  6 -7.44956087024489700D-03 -2.00835907705547800D-01  3.49477137576166300D-01  6.97831050487399400D-02  1.00526759305669000D-01
85  7 -2.86143689811263000D-01 -5.28267047846995700D-01  4.40202905068013900D+00  3.71193389420696100D-01 -9.72343195700255100D-02
85  8 -1.47089964014600300D-02 -1.61725184779300800D+00  1.66226135991437100D+00 -5.07236151536980900D-02  2.48779420495679200D-01
85  9 -1.49758445941319100D-01 -9.90209745543606700D-02 -4.95256482823385500D-02  1.27284966749934700D-01  6.72896348705290700D-02
85 10  1.36110942929160000D-01  3.33289842196338700D-01 -2.68300724686822500D+00  3.37226417708900600D-02 -1.95011293452601700D-01
85 11  2.47986777242292500D-02 -1.53803251528247100D-01 -1.19928426540823500D+00 -3.06122342912511400D-02  7.20173334215538600D-02
85 12  8.43745172428510400D-02 -1.56391850664404200D-01 -9.35141994425235100D-02  1.05388944727194900D-01  5.97555270615327400D-02
85 13 -1.80547932314834100D-01 -4.72297996183098000D-01  1.70335542177590800D-02 -3.15460193490747400D-02  6.10993945166721900D-02
85 14 -5.34559963612027000D-02  1.13248535850202200D+00 -9.66913518138588300D-01  1.45861927901029100D-01  6.18234496919020100D-03
85 15 -2.18322947112430300D-01  2.12140602143240200D-01 -3.57430415547901200D-01  6.23341827215042100D-02  2.92487792074097700D-02
85 16  2.46600035068550800D-01  6.07052449543116300D-01 -2.67358952359001800D-01 -2.22101991370816900D-01  6.94839659682901100D-02
85 17  1.50790354705532800D-02 -1.71042148285894400D+00 -1.61476709454203500D+00 -9.94124564886343800D-02  4.28347074614959700D-01
85 18 -1.32890382264840900D-01 -2.95456692350117300D-01 -8.10960862068055200D-01 -4.82290012586269800D-02  1.01253701956479000D-01
85 19  3.34911994722128100D-01  7.21487161067461200D-01 -1.01963678389799000D+00  2.96633675139570800D-01  5.66155441473303000D-02
85 20 -2.23221982116155500D-02  7.34954197843896700D-02  1.27233868113841500D-01  9.33189454804371500D-02 -1.89026122316037900D-01
85 21  4.06790540659844000D-02  2.41402536030052900D-01  1.77377316953105900D-01 -2.08022439987615700D-01  2.19937051915371000D-01
85 22 -1.19146119277564300D-02  3.89052245325660900D-03  5.88445007591075800D-03  5.54027975459394800D-02  2.30670764035455900D-01
85 23 -2.49141192946888800D-01  1.84704289114308800D-02 -9.39304201058585200D-02  3.66514398846202900D-02  3.43901549621995800D-02
85 24  2.23873122672399500D-01  4.00480297519038000D-01 -2.02827492718298500D+00 -1.41817333399862900D+00  1.90393147362503100D-02
85 25  3.19840629154377400D-02  5.72160615347051300D-02  1.28188463507436600D+00  1.07686388475952600D-01 -1.90155036812364100D-01
85 26  4.35005201734692900D-01  2.11718820097032900D-01 -5.27787673537974600D-02 -5.46533262926869300D-02 -2.29140360722659700D-02
85 27  7.75673623649524700D-02 -2.44455371410698200D-01 -9.14998957231352400D-02  1.44324833436943700D-02 -3.74843676774411000D-01
85 28  2.04084679244117600D-01  1.70758997530293600D-01  1.05797509976744400D-01  2.11014319000960900D-01  4.48724935507925000D-02
85 29 -3.19204818106233800D-01  9.76474946498578800D-01  1.76238257917715500D-01 -2.23462797253435100D-01 -5.82825098431070800D-02
85 30 -2.64758492536308700D-01 -1.80284905735168200D-01  3.48023896173055800D-03 -2.09184049559707400D-01  4.52161356180250400D-02
85 31  5.53847827309526300D-01 -4.75675073740816100D-01  2.31651018099307700D-01  1.14854390389590800D-01  5.49978794098519700D-02
85 32 -9.14149588734193900D-01 -2.74407066644573500D-01 -4.98537724542631600D-01  4.30861218886227700D-01 -6.06878007276184000D-02
86  1 -1.84820868692960900D-01 -3.30909321975859700D-01  2.39375846781361500D+00 -5.98126662339617600D-03  1.38688475930759700D-02
86  2 -1.34687040845374400D-03 -1.97367504453015600D+00  1.49735027053551400D+00  2.85842160891942500D-01  1.07431411431904800D-01
86  3  1.73996755136040600D-01 -2.81428166567946100D-01 -1.36250009080878200D-01 -3.97029431700843000D-02  1.66136664466813100D-01
86  4  1.75241142596894200D-01  3.07504652523666100D-01 -1.17077716094794500D+00  6.66940065170997700D-02  2.50555422620314100D-01
86  5  4.56422838023734100D-02 -8.15508908810433800D-01  1.08914045102572100D+00 -2.51153359724883400D-01 -2.98898352433366100D-02
86  6 -1.84433676308235100D-01  2.14323511551571600D-01  2.32616016907507800D-01 -7.35731909665772300D-02  2.90742867978384900D-02
86  7 -2.50394693292485300D-02 -4.57967851397975800D-03  2.89137257365830900D-01  2.90945512980677900D-01 -1.67324737373509300D-02
86  8  6.29784180571451000D-03  1.61017675769720800D+00  1.78457282833754500D+00  5.96191718863333000D-02 -2.64913737462853200D-01
86  9  3.82011958982519300D-01 -1.17098221519666300D-01 -3.36735995806039900D-02 -1.65178066611208700D-02  1.26775870327716600D-02
86 10 -9.35386284754770100D-03 -2.97176434740580800D-02  8.36507452948811700D-01  7.78037791487828100D-02  2.15770213541292800D-01
86 11 -1.98349699130217700D-02  2.26937845313641900D+00 -8.75063524313365900D-01  6.73692364002958600D-02 -3.33448005494056700D-01
86 12  3.45559253172623500D-01 -1.21112476785675500D-02  4.59864807677049500D-01 -1.57873726223150900D-01  6.01815346783816300D-02
86 13  3.73123531535965000D-02  1.01638259710097300D-01  9.50871332707568400D-01  1.57328679525844300D-01 -1.82175606595980200D-01
86 14  2.36205291396342900D-02  1.20793591169214900D+00 -2.07266241989688400D-01 -6.41394615823715900D-02 -1.25803427544463700D-01
86 15  5.46354326556314000D-02  7.11679948888317600D-02 -4.39613583740233200D-01 -1.22261508988338300D-01  1.39371324237912800D-01
86 16  1.89118473660806100D-01  3.82207502950999800D-01 -2.26484673340698900D+00 -2.34304152663089400D-01 -4.06266354205319600D-02
86 17 -1.11574176306612500D-02  4.35623053238538800D-01 -1.29571868407796400D+00 -6.98383852816278500D-02  2.22775523797450300D-02
86 18 -3.25895130028191500D-02  1.03119606230748500D-02 -2.99293715542436400D-01 -3.83872408897348300D-04  7.20222857116811900D-02
86 19  1.91037931251161700D-01  3.62793593817958400D-01 -1.67202380506282200D+00 -1.04049756628655900D+00 -1.57904179604388000D-02
86 20 -1.29146742825467400D-01  2.89767203027791800D-02  3.91729389973404500D-01  9.79419106051963500D-01 -1.75228170095639600D-01
86 21  3.36250817744895500D-02 -1.74874754959923600D-01 -8.43559464783682100D-02  9.63916881852914000D-03 -3.82554569420968200D-02
86 22  2.86162881235683200D-02  1.67274532542393300D-01 -1.35527841790884200D-01  6.01670899627087300D-02 -3.56159142334108700D-02
86 23  1.67542676649956500D-01 -1.31926762416545500D-01 -4.66249193646491100D-01  1.66309506900241100D-01  1.31567338045190700D-01
86 24  1.00893633695280900D-01  2.14542012105496500D-01 -2.51130212177394200D-01  4.09613446643310100D-01  1.13779548501705700D-01
86 25  2.28307149191692900D-01  5.04939474783618500D-02 -1.18844818404026000D-02 -5.44326578923393600D-01 -5.06365423943199600D-02
86 26 -3.11233019262227700D-03  5.93384226752375300D-01  1.99969050573028300D-01 -1.95715218575938600D-02 -4.86283877498663300D-03
86 27  2.44343606325802800D-02  1.09713219802854200D-02 -7.83107819544493300D-02  1.26840897816544000D-01 -1.65665730807354600D-01
86 28  2.48124960698259300D-02  1.40853234737528600D-01 -9.74358726588496100D-02  4.84271563475448200D-02 -1.82134636558315900D-01
86 29 -2.19166884149583500D-01 -5.97962696656892100D-01  2.41405207697179000D-01 -1.28130759888819200D-01  3.73360463117725200D-03
86 30 -4.24927337046307800D-01 -1.74890448284358000D-01 -9.36290403970733700D-02 -9.22235417709007700D-02  4.40714385647132500D-02
86 31  3.86417817431447900D-01  5.05444877501115100D-01  1.73769629402709900D-02  1.26505865836031700D-01  3.25593325095535800D-03
86 32  1.86203977015905100D-01  1.02852886392388400D+00 -1.31402010704738300D-01 -1.20253555879469900D-01 -2.59348927348805000D-02
87  1  2.10071566700041300D-01  3.63017703966155000D-01 -4.37480594726791900D+00  4.74743267474661500D-02 -3.02816395415432300D-01
87  2 -1.94833868125903400D-01  4.16724481533114000D-01  1.48494235840618600D+00  8.35957971938949800D-01 -8.97817144177729400D-02
87  3 -1.47855533648604100D-01  2.37637248066378400D-01  2.16822872628728200D-01 -4.42246855059230700D-02  7.87930088637929800D-02
87  4 -1.15834116469138300D-01 -1.50073662200104400D-01  4.42638927134089300D+00 -1.14208140418039800D-01 -3.57023241774533400D-02
87  5  1.85680119841795700D-02 -1.27721991139685100D+00 -4.94850183576053900D-01 -3.46785994491374800D-01 -7.60516107407846300D-02
87  6  1.89894339382211600D-01 -1.13842728641428400D-01  2.27766392660344200D-01 -3.43128665682733500D-03 -8.65718656677093900D-02
87  7  4.18956429286240700D-01  8.26712360120293500D-01 -4.83673176628612400D+00 -5.59675721462452900D-02 -2.02477609323746300D-01
87  8 -2.02979815509775500D-02  2.03773161981342600D+00 -1.11910783349626400D+00  1.86127480504589000D-01 -1.66506081647247400D-01
87  9 -1.11072126900297300D-01  2.77578208547543600D-01  2.17385618727252600D-01 -6.22988337543958200D-02 -8.67066461729863600D-02
87 10 -2.49327380284435900D-01 -5.42586134492703200D-01  2.93131146966226900D+00 -8.03497199356182800D-03  8.78343901214048400D-02
87 11  8.03861336315467600D-02  7.13662488507944600D-01  2.36528888276569600D+00 -3.34254664655350200D-01 -1.86572267133405900D-01
87 12  1.27261657616700100D-01  5.93106095167049700D-02  2.15110720768816600D-01 -8.57254438834164800D-02  6.06980202089914500D-02
87 13  9.12528043496991000D-02  1.22749052842183200D-01 -3.99757665428583500D+00 -7.94062765613497100D-02 -3.52688622665198300D-01
87 14 -1.12392111677125800D-01 -8.34943675054169300D-01 -2.31075220961215400D+00  4.17008198767606900D-01  1.92503523951349800D-01
87 15 -2.97110048553122400D-01  1.04606524601774000D-01 -8.67931672603835500D-02 -5.81519780262820600D-02  1.02148649695835600D-01
87 16 -1.98360757401001800D-01 -3.12147545376252100D-01  5.60190919989268500D+00 -4.69819842591506400D-02 -1.05049879009194300D-01
87 17  7.98202130083725500D-03  9.56399044701291700D-01 -1.84537663226757400D+00 -3.67640598513651600D-01  8.63502609204224600D-02
87 18  2.40778533153918400D-01 -3.27128794074340800D-01 -2.05282141773842800D-01 -1.29592493481422800D-01  1.22595512290281400D-01
87 19  2.55763378704535400D-02  7.40318381419961100D-02 -2.24984959820045400D-02  1.36555945841786800D+00  4.85878770704808000D-02
87 20 -5.09650483221854900D-02 -3.91381779907521500D-02 -3.55557213976001000D-01 -5.11892533229137100D-01 -3.05888418595191700D-02
87 21  1.26429771095392000D-01 -8.24341277706825600D-01 -4.79615685269470800D-01  3.12126057024887100D-02  4.71911593865744000D-02
87 22 -7.84037650890609000D-02 -1.97176451030507200D-01 -1.82403899143198800D-01  2.54466039240291700D-02 -1.45290538765443800D-01
87 23  2.02001764066959600D-01 -5.67112253015134600D-02  4.85988302999279000D-01  1.62486515109817000D-01  1.56820379129138300D-01
87 24 -1.07191618698655600D-01 -2.37346737283316200D-01  3.07434945008696200D-01 -1.43414760059334900D+00 -4.23925684355069800D-02
87 25 -3.72703958247633600D-03  4.37420037079639100D-02  5.84947804301641900D-01  3.66852923495844800D-02 -2.42931112344282500D-03
87 26  5.92592090674103600D-01  1.18722182190653600D-01  1.87609069467658200D-01  7.07637556866278200D-02 -1.83472874421810300D-01
87 27  1.12709118735182400D-01  1.13665757022872200D-01 -9.73684608753925400D-02 -1.84452172684609100D-02 -3.16301108826475200D-01
87 28  3.94985068749658700D-01 -7.86839599231831800D-02 -9.17143040392602600D-02 -1.13552684625510900D-02 -2.32056305824300600D-02
87 29 -1.31751292324172900D-01  6.12877725533234700D-02  4.23782627509201700D-02  6.84888023425858600D-02  4.84427448794693000D-03
87 30  1.27763425092512500D-01  8.63631653896142700D-01  2.18051619021120500D-01  1.94431010733447000D-01  8.79928395093084700D-02
87 31 -4.81501590612301600D-02 -6.20853218282009900D-01 -8.71565750971573100D-02 -1.06243274005616100D-01 -7.05252336278634300D-02
87 32 -3.40664714555312400D-01 -1.03100555923589000D-01 -2.40190607680815700D-01  1.86864427712671500D-01 -1.08505952419634700D-01
88  1  1.56086675469179100D-01  3.04252343600286600D-01 -3.58294844743897900D+00 -7.48132696452770800D-02 -1.61076157265728100D-01
88  2 -3.17386316147896200D-02 -1.16815700216074700D+00 -4.47466658751290700D-01  4.02319968121807400D-02  2.80461463366537100D-01
88  3 -3.94019905320565900D-01  1.13558441954026600D-01  1.95016385054821400D-01 -1.48953332262998600D-01 -1.69544381291602300D-01
88  4 -7.83385006140980100D-02 -1.62558704691771700D-01 -2.77666510887988800D+00 -8.72660449200494800D-02 -1.39436631719083900D-02
88  5 -2.31677806492566200D-01 -4.07090952181529800D+00  1.37917937256176600D+00  2.68555833360231500D-01 -5.14169236655180500D-02
88  6 -1.67661286545874300D-01  2.19078210211393200D-01 -1.61718632555776000D-01 -3.30868772927542600D-02 -1.30095652312313900D-02
88  7 -1.60977685686258800D-01 -3.09323478258195200D-01  9.69330502399364900D-01  1.54634664387362200D-01  7.21002008009379700D-03
88  8 -6.35483593783755900D-02  2.02131549213252700D+00  1.90059760982516600D+00 -1.46706831904119700D-02 -9.08290490900999800D-02
88  9  3.05462185580682400D-01 -2.14633136490581500D-01  2.59740721881222800D-01 -9.22644811350609600D-02  1.11464579295270800D-01
88 10 -2.76581657289371100D-02 -3.64793026440561700D-02  9.71610634930310700D-01 -2.11313776606353200D-01  1.93921983972302900D-01
88 11  1.21798086297162200D-02  1.66108753188761800D+00  1.40544280352268000D-01 -6.73455286875244000D-02 -1.52282566371244400D-01
88 12  1.86258416883008400D-01 -3.39758505117641100D-02 -1.53997223448075400D-02  1.57968400641934400D-01 -1.08507090458975400D-01
88 13  4.09066202837861200D-02  4.57805325111976000D-02  1.31168314176931500D+00 -1.22680847063589200D-01  8.41840826818844400D-04
88 14  1.04497466412610600D-01  3.99559049245520400D-01 -1.02071707827725900D-01 -4.55642908888156900D-02 -2.68600765763017000D-01
88 15 -4.47536891894234400D-02  3.13354454952439000D-01 -1.78585955824032900D-01  1.80418899465114700D-01 -1.31779177765441000D-02
88 16  1.29084186179026800D-01  2.61456662931426900D-01 -3.47867455502079900D-01  7.73798238664046200D-02 -1.84708554741054500D-01
88 17  1.87986781156457400D-02 -1.14496707673041100D+00  1.00019799779612600D+00 -1.89396471466298700D-01  1.80838199095510700D-01
88 18 -8.13793467620126900D-02 -9.94588523334995300D-02 -3.64283714429842800D-01 -1.43620901517467300D-01 -1.76254831964433300D-01
88 19 -8.56243384981285200D-02 -1.63780771261759700D-01  1.07350808636193100D+00  9.80146628214060500D-01  6.11430542736661300D-03
88 20 -1.43022648509877000D-02  7.88209798018988700D-02  4.95640423228097300D-02 -6.99139365601778000D-01 -9.94410345127076800D-02
88 21  2.24905418655163600D-01 -3.29839660829617100D-01  2.53250830488356400D-01 -7.68523541885005200D-03  3.45942144374665700D-02
88 22 -2.69089790186164100D-02  1.02949145150109400D-01 -2.80044035890060800D-02 -1.21795922865262600D-01 -1.16424908261212000D-01
88 23  1.46030893957113300D-01 -2.96059856959004200D-02 -4.01782125172568100D-02  1.47916784067361600D-01 -3.18394828848050400D-02
88 24 -3.64700967868301100D-01 -6.78787217473748600D-01  2.93048218588459600D+00  7.95558405844831400D-01  5.53487728198072100D-02
88 25 -8.38513942601474800D-03 -8.93854332496291800D-02 -9.39966811781537300D-01 -9.02409015655002000D-01  2.45071623882487700D-01
88 26  2.24285989287539900D-01 -3.59386637190364700D-01 -4.50644956293929000D-01 -7.13878206473233400D-02 -6.63039133804105800D-02
88 27  1.37691734027733900D-01  2.58387308726224600D-02  1.08336757509179800D-01 -1.25695133045877100D-02 -4.15708112865113400D-03
88 28  1.59654279158905100D-01 -1.55497198030253800D-01  1.59505157729360300D-01 -1.32287746501711000D-01 -2.10205365939240300D-03
88 29 -2.31208874360729000D-01 -5.38917491555962900D-01 -5.78672398163365800D-03 -1.11262006264810400D-01  1.51618760409258600D-01
88 30 -4.03460074771189500D-02  3.26045271562323800D-01 -1.94733726158238600D-01  1.44893047684150800D-01  3.74316607993944200D-02
88 31  1.20138541427665300D-01  1.65381897109801200D-01 -3.56312055094614900D-02 -3.98440747491161400D-02  5.50541991779883700D-02
88 32 -2.68206444030413800D-01 -1.12609355105671900D+00 -2.32508022428724800D-01 -1.72321019132470000D-02  1.30906862156293500D-01
89  1 -9.09828993191483800D-02 -2.83045250127831000D-01 -1.00973186581730000D+00  1.56092022465049600D-01 -2.95941515991063500D-01
89  2  8.97922733263894700D-03  2.59364113259597000D+00 -9.36411470299884200D-02  7.25875362375641200D-02  3.80183232849327600D-02
89  3 -3.69356995723754600D-01  3.31338672438822900D-01  9.29760639012630200D-02 -5.84526007428235700D-02 -2.77564558517246300D-04
89  4  4.67958954361929100D-02  1.60786653131175900D-01  1.33626173156849700D+00  1.69703017304133100D-01 -2.54779078493499000D-02
89  5 -2.54095389919775900D-02  1.83940283724150400D+00 -1.11272735726106300D+00  4.87236722273060000D-02  1.68899952442449700D-01
89  6  2.62370023012955300D-02 -1.95136954743745700D-01  3.69529730832126300D-01 -3.60764054450063300D-02  1.19392613807798100D-01
89  7 -2.34535200264257600D-02 -1.38782364262038800D-02  5.59915242105579200D-01  1.10040580595246800D-01 -2.51819281080986400D-01
89  8 -1.38676883477931300D-02 -9.62908732784805200D-01 -1.86123136508896700D+00  7.62405341264841100D-03  4.69892148905850100D-01
89  9 -3.06463143507257400D-01 -1.63429005398592300D-01  1.62870147846340500D-01 -4.76742345135627200D-02  8.17007037306799700D-02
89 10  1.31255652094186700D-01  2.99475586139845200D-01 -1.08160070147467300D+00 -4.07771672115280700D-01 -5.31663424814436300D-01
89 11  4.71823048358561800D-02 -1.03345433562649800D+00  8.64141539170811900D-01  1.69402991092595700D-02 -2.33929408044070800D-01
89 12  1.99534453947356000D-01  3.43949540967153100D-02 -6.57947524557873200D-02 -1.34938795493436300D-01  8.90679169838454700D-02
89 13  1.44063106354182400D-01  2.84168325852129800D-01 -1.52983531474024300D+00  2.36907715026192600D-01  1.32312179335352500D-01
89 14  1.11548519814811200D-01 -1.26279037761458500D+00 -5.08708556176977300D-01 -1.83563297328490400D-01 -1.26554077521496400D-01
89 15 -5.86889834658727800D-02  1.85243060987369500D-01  1.59672307595258700D-01 -2.31668139687201800D-02  2.53665311956695300D-01
89 16 -2.03632663273538700D-01 -3.99918957689972800D-01  2.86477162817704400D+00  1.57947509448502100D-01 -1.12251828831948500D-02
89 17 -1.78055855713075200D-02  1.71683448794179800D+00  4.79734508198947600D-01 -5.74677831664690000D-02 -2.82571921114100900D-03
89 18  6.04465191347191200D-03 -3.21893270233160000D-03  4.10759040129115800D-01  1.04255003858337100D-01  9.59651049238584600D-02
89 19 -2.05800406802878900D-01 -4.00633092837479400D-01  1.33856607989752400D+00 -1.48869942531776500D-01  5.17830007942360000D-02
89 20 -2.19712618187638900D-01 -1.28552607184010900D-01 -6.69861963997776800D-01 -3.46190862073150500D-01  1.70959108486834300D-01
89 21  4.28169742334036000D-01  9.35657780424583700D-02 -1.37643196283098500D-01 -9.18097690557924700D-02  3.18155107717398600D-01
89 22 -2.26345338661606100D-01  1.41932769900371300D-01 -1.10284985837297500D-01 -2.78728902893055600D-01  7.03764630045755800D-02
89 23 -1.56949351681539100D-01  8.65728886769634900D-02  1.19938690932072600D-01  1.78418418803090100D-01  3.04521320862142400D-01
89 24  1.08798446206854500D-01  1.81198536050829300D-01 -1.24292704251769500D+00 -8.15796951728935800D-01  1.04450334132808000D-01
89 25 -1.71230325519697300D-02  4.70281850111582600D-02  4.43821479211636700D-01  6.38504511798402300D-01 -1.00456584306387000D-01
89 26  4.17572686811957100D-01 -3.10091420441067400D-01  5.83727097092315800D-02 -1.42646821181521000D-01 -6.05807719948537000D-02
89 27  2.03227593176375200D-01 -6.50747406147990100D-02 -3.39980684330572100D-02  1.22969755805882300D-01  1.66194307401381600D-02
89 28  5.70576264365453300D-02 -7.36770571766834200D-02  6.57488316257246400D-03  1.06009384842589700D-01 -1.76267666846284900D-01
89 29 -2.49261584870254100D-01 -5.81636246424217600D-01  1.94361801224639400D-01 -2.73278763930834300D-01  8.84260778637493700D-02
89 30 -2.64530247898868100D-01  5.68267304364788700D-01  3.54361499552629700D-02 -2.90296003862076400D-01  1.05819846770531800D-01
89 31 -5.38449303720139000D-03 -4.20185035760226300D-01  9.88905661647458700D-02  1.01598488603726900D-01  1.28518669849764700D-01
89 32  2.75890661798923700D-01  6.90753397731923800D-01  2.02626101475153200D-01  8.25444112690313900D-03  9.45953103068203100D-02
90  1  2.09517056043572800D-01  4.45898274584263100D-01 -1.88839955989691100D+00 -8.41483997238188500D-02 -2.15754061273994800D-01
90  2 -1.21272415650761900D-02 -1.58376345939460600D+00 -1.91749366928631200D+00  9.38189682428154200D-02 -2.60424177750110700D-02
90  3 -8.08900177120241300D-02  1.06932435487037100D-01  2.94643536626271700D-02 -4.25003790448589700D-04 -3.27251408007915100D-02
90  4 -2.70389991548098400D-01 -4.31198549607515000D-01  1.60130413708754400D+00 -3.00752251330572900D-02  1.42571323394219700D-01
90  5 -4.69958486877118500D-03  1.14933244430680900D+00  1.70440677145997100D+00 -1.06984239424362000D-01  1.54993126066219400D-01
90  6  5.96912485205804600D-02 -2.14684374586799100D-01  1.44833687895194700D-01 -2.54749976712074200D-02  4.68691571567302600D-03
90  7 -2.07048278200968700D-01 -4.33027045401581300D-01  4.55577900578631700D+00 -9.93357250425252700D-02 -7.45717231461104500D-02
90  8 -1.06241590593481100D-03 -2.09506389449523500D+00 -8.98435854200463500D-01 -5.71874266695472100D-02 -2.02146181013393500D-01
90  9  2.42113437826497600D-01 -3.99672568131027100D-02  1.21694756033904400D-01  6.62648788986849600D-02  1.18267792326980400D-02
90 10 -3.02430929757979000D-02 -4.96388398296629500D-02 -4.87998256804110600D-01  2.46791248720343600D-01  1.89133239283100100D-01
90 11  7.58669063045504200D-02 -4.52360087792694100D+00 -1.13745933681470300D+00 -5.33374162194445300D-03 -2.98782748938541400D-01
90 12  1.51636273466446300D-01  1.47146475472094200D-01 -3.43331023132476100D-02 -1.54273542428750000D-02  1.82547427759240800D-01
90 13  2.40938527685244700D-01  4.66715380016102700D-01 -2.64569378214340100D+00 -3.32609495821364800D-02 -3.24210173869594600D-01
90 14  1.54643548495564200D-02 -8.00611236267202000D-01  3.07646368761344300D+00  7.91664427449846100D-02 -5.89421458707116200D-03
90 15 -2.12969454645770000D-01  2.18863669232841600D-01 -2.51029784618805700D-01 -2.70891755913082400D-01  5.64647216710813200D-02
90 16  9.78914923654292400D-02  1.82726891589200700D-01 -2.58885620895881500D+00  1.07440569220546700D-01 -3.74227087490588700D-02
90 17  1.61496060761902200D-02 -7.44013492096099600D-01  4.51940915035311100D-01 -1.83549125310054300D-01 -1.33937961399974000D-01
90 18  2.33796961740983100D-01 -9.98590003410097100D-02 -4.00265887738438000D-01  1.52041346984802200D-01 -2.26680655606805300D-02
90 19 -3.24917577069765700D-01 -6.71925633305861500D-01  2.09184205761803200D+00  7.29483456255563500D-01 -4.19755786941856800D-02
90 20  4.69270719371067900D-02 -6.74759433888974100D-02  3.43027589892304300D-01 -7.18787759928487400D-01  1.09892088895552000D-01
90 21 -2.50268686798589700D-01 -3.39507542207730600D-01 -1.32670020512444600D-01 -1.55479203911219500D-02  7.67600904847080000D-02
90 22 -6.12121700935875500D-02  4.75312781248358200D-02  8.60833854102910900D-02 -1.59982610434674600D-01 -1.17374077598449400D-01
90 23  8.00780554876770900D-02  3.72960221107709500D-02 -1.12660134372900800D-01 -5.52441275786951900D-02  1.22897229741759600D-01
90 24  2.36934450019051300D-01  4.81691729324198900D-01 -1.93278527559978200D+00  4.91694662904400400D-02  1.68088117905553700D-01
90 25  8.68791526257789700D-02  1.07555082326076000D-01  2.08889214036502000D-01 -8.81491566523553400D-02 -1.69011674701311400D-01
90 26 -1.05813723173789100D-01  2.27637476307637600D-01  2.50072796477374100D-01 -2.52739889932549500D-01  1.10323412689809900D-01
90 27  1.42416477242739700D-01 -2.09918140221253500D-01  9.20730864077964600D-02  6.82111555441587100D-02  2.80980062064602000D-01
90 28 -6.90454847966358200D-03 -2.74075513584938500D-01  2.87318669204301300D-01 -1.41628066354921200D-01 -7.42855763092670800D-02
90 29 -9.61936341700314900D-02  8.04418647778911600D-01 -9.75994369329887500D-02  1.84284903364390200D-01  2.03731450329647300D-02
90 30 -2.87260196265928300D-01 -4.65186283278065200D-01  2.33320813921546100D-01  6.34125447559609100D-02  1.17270381246698600D-01
90 31  3.84013317526723100D-01  6.21517190425877300D-01  2.38911123276961100D-01 -2.20903511784923900D-01 -1.99872538290335500D-01
90 32 -1.45978633523836900D-01 -5.74392570069723300D-01 -1.34162640939014700D-01 -6.49112303240221200D-02  2.31247562435540600D-01
91  1  2.69359354218128000D-01  5.13525761283816700D-01  3.22746877344496700D+00  2.20919533238208000D-01  6.97750880678260200D-01
91  2  1.64179097966383500D-01  1.83353582892125600D-01 -3.62056425404874200D-01 -3.18021736136070300D-01  7.55316647671402200D-02
91  3  2.34005361315303300D-02 -9.89322008986701800D-02 -1.61975480829053900D-01 -1.22287083131583800D-01  2.42917445212140500D-01
91  4 -1.19530528306571500D-01 -2.22635021725000700D-01  1.92193236785945400D-01 -5.29873682008743600D-03 -8.84926351224532600D-02
91  5 -1.66549225528588000D-01  2.27735359946101100D+00 -5.37259299917426500D-01  1.59861583798665800D-01  6.72645152596008200D-02
91  6 -1.28780918154771300D-01  6.15164028951700100D-02  1.15832506212677000D-01 -3.92200116172828800D-01 -1.06704028897786400D-01
91  7  4.02238515410895000D-02  3.84800562281967900D-02 -3.09237113097268400D-01 -4.98359317915021300D-02  1.61728238205483100D-01
91  8  6.45184507214923800D-02 -1.20953297914546600D+00 -2.04089856352887600D-01 -1.96780381313584400D-01 -1.22962129579031100D-01
91  9  1.67367516035808500D-02  1.06225377975449800D-01 -3.28322239339176500D-02  6.69265877055057100D-02 -1.89593430487390400D-01
91 10 -1.44613161731989800D-02 -3.67113391377285600D-02 -6.09833631383771900D-01  2.01041133773227300D-01 -4.01750978588208400D-03
91 11 -6.55144817336711600D-02 -3.64492598735797400D-01 -6.54667684125214800D-01  1.81703252639425800D-01 -2.51375084740719900D-02
91 12  2.98678142212530200D-02 -4.73030574718095100D-03  1.27317296836362100D-01  6.08527503453963300D-02 -3.82515931997235600D-02
91 13  5.24788778707988400D-02  1.20401717775153800D-01 -4.37898566532449900D-01  3.11645861212876300D-03 -3.90079902315342800D-01
91 14  7.87305396170167900D-02  3.95451768634061000D-01  2.50579078134671000D-01 -2.06256531765274300D-01  2.22390562383555700D-01
91 15 -1.98318489312047500D-01 -2.40720730715074700D-02  1.56665103758624700D-01  1.70558403882025600D-02 -1.62554180042820100D-02
91 16 -6.75911863389491900D-02 -1.34864387461966400D-01 -4.06980783142711200D-01  1.35267231296291900D-01 -2.73047759771567300D-01
91 17 -1.32211386782375700D-02 -1.91873377669366100D-01 -6.06635571542004500D-01  2.44062435903563300D-01 -3.44619872536227100D-02
91 18  1.28813942190080200D-01 -9.43519549364552600D-02  3.09060115561158500D-01  9.06568194698431500D-03  3.85437104526506200D-02
91 19  3.53976193531844900D-01  6.83715765926455900D-01 -1.74594050032358300D+00  1.34587286198258500D-01 -4.13889701717428600D-02
91 20 -3.69687671312568700D-03  1.22205256612779500D-01  1.23786574256252100D-01  1.06969923689611600D+00 -3.31240810258979300D-01
91 21 -1.41830012947033000D-02  1.51435939959600800D-01  3.49445219361528100D-01  7.23334328417246500D-03  1.88967091005443100D-03
91 22 -9.12301419422718300D-03 -7.07576346852116400D-02 -2.49933100627792000D-01 -1.59955127739970600D-01  3.54274478019947200D-01
91 23 -7.28905813814070200D-01  3.74631335794121500D-01  3.72924829830663200D-02  2.96765827704119000D-01  1.90528935520908400D-01
91 24  1.02570461628249800D-01  2.03510857906933900D-01 -9.90715845873305900D-01 -5.96821638182202500D-01  2.35853623961732400D-01
91 25 -1.69959178425712500D-01  1.14382098206014500D-02 -3.43282236853839900D-01  6.91026561709538900D-01  2.16663607236959000D-01
91 26  4.11145938839788800D-01 -1.28733623526075300D-01 -1.70392290349359100D-01 -5.76450070426630700D-03 -4.11254945418419700D-02
91 27  4.68899952461082700D-02 -7.06452842953949900D-02 -1.27498796365002200D-01  2.62001558504027400D-01  2.29625398887731100D-01
91 28 -4.34117426516857400D-02 -1.86213656236045300D-01  5.96191495069463900D-02 -1.82607874417556600D-01 -4.16486234941974600D-01
91 29  3.02544973569680000D-01  4.61150069991845000D-01 -1.16985072456213200D-01  8.55325128688710200D-02 -1.12888233357619000D-01
91 30 -3.34990186123873200D-01 -5.23539534607540800D-02  9.07491884044044600D-03  4.59429869103847900D-02  1.33210628160897500D-03
91 31 -1.61480836977313200D-01  3.01105912634200400D-01 -1.54376664824383400D-01 -1.20505062510938400D-01  2.39558963597165800D-02
91 32  4.59808434821777600D-01 -9.37307965872576600D-02  2.77439799141368700D-01  8.77154759092126500D-04 -1.51214941802789600D-01
92  1 -4.90584673218681700D-02 -1.63393824001580800D-01 -2.96330019506803100D+00  1.60753967867628600D-01  4.42645872420041200D-02
92  2 -9.41363220559627400D-04  6.49864409203315000D-01  2.99587991827616100D+00 -6.14274821216642300D-01 -1.45167663462306100D-02
92  3 -1.39703254558750600D-01  1.54220020904980800D-01 -3.21211570539460300D-01 -1.65584874338171500D-01 -7.58266361811058400D-02
92  4  6.22365423046153600D-02  1.17757937830496000D-01  1.02532867580308600D+00 -3.28286588096476200D-02 -1.06159407146404900D-01
92  5 -9.57229522665702800D-02 -2.92342143475477200D+00 -7.60547498601914800D-01  8.64357645633655600D-01 -2.04309112991352300D-01
92  6  2.11405266561476900D-01 -7.09615357012478000D-03  1.18938838028805800D-01  2.38086225335888600D-02  6.59537414836176600D-02
92  7  7.68408675278687700D-02  4.23017719060804700D-02 -5.32897579058013600D+00  2.41199227194992600D-01  1.74337575686112600D-01
92  8 -7.38697878429203800D-02  4.15312429941575100D+00 -5.35004676455350300D-01 -2.42178842990926200D-01 -2.82294642043622800D-01
92  9  3.49025620314895200D-02  2.47392080012131400D-01 -1.45405999973959600D-01  3.68957641159255000D-02 -3.28102710684950900D-02
92 10 -1.95958935969200100D-01 -2.69624236767534600D-01  6.26783594702540400D+00  1.69529699101206300D-01  2.87675705869922200D-01
92 11  3.84245815919872800D-02  1.35383567002230900D+00  4.27429479542459000D+00  8.43894563462838400D-02  4.30128262665009900D-01
92 12 -2.03367140204988000D-01 -2.26761122460022600D-01  2.87821070999640000D-01  3.99287990323592100D-03  2.33010626979116800D-01
92 13  1.43095335747606100D-01  1.46213574321313500D-01 -6.13629781579328800D+00 -3.22444235849277600D-02 -3.16865531612055900D-01
92 14 -3.17206368468660600D-02 -3.23780733189312500D+00 -3.26149294894604400D+00 -2.04774143918918200D-01  2.88648002620983100D-01
92 15 -5.62972789305232100D-01  2.74324786684251000D-01  1.63840145767195300D-01 -1.91829334452579200D-01 -2.56630178469142700D-01
92 16 -3.66789024916360700D-01 -6.07013721884612300D-01  7.78982953300884400D+00  2.19939824519336700D-01 -4.29363781129763300D-01
92 17  2.90223913376390200D-02  3.18608299218580500D+00 -2.33820509280996000D+00  2.74546994153977800D-01  5.99423557330129400D-02
92 18  3.38917517165161200D-01 -3.98859872898174400D-01  1.55276977488399900D-01 -5.00727653390889700D-03 -2.65738621140534300D-01
92 19 -8.07697509813102300D-02 -1.77232072555782800D-01  6.70622232514919600D-02 -2.47885147401124400D+00  2.51093150338340300D-02
92 20 -1.12255597148495400D-02 -4.43411948105506800D-02 -9.92926963149471000D-02  5.55769265687253800D-02  2.27843074984569100D-01
92 21 -3.98116984412848400D-01  1.07710597633848800D+00  1.49941149985741100D-01 -3.36006344282901400D-02  7.87354601101387800D-02
92 22 -4.51348256818459600D-02 -4.18516169123498600D-02 -7.14852498333604400D-02  1.18807508769740200D-01  2.82302251780246600D-02
92 23 -3.56575233736092700D-02  7.42729819558810200D-03 -8.31965319654443700D-02  1.38261824460300600D-01 -2.84218276198929300D-01
92 24  2.77451151090961700D-03  3.28648747260715000D-02  6.46465848808011300D-01  2.06898737252360000D+00 -1.43393549630333400D-01
92 25  1.22367527744227300D-01  3.38718316068957300D-03  1.19966305046359400D-01 -5.96544659209195100D-01 -1.56008265391428400D-01
92 26 -1.09284117784160100D+00  8.39254868935567800D-02 -3.46788126171366800D-01  7.51931292149607000D-02  9.75798960123323800D-03
92 27 -8.49511188161946900D-02  4.27963678408890800D-02 -8.94731280631171900D-02 -1.17359497228987500D-01 -2.34834991363954500D-01
92 28  1.11991008039241000D-01  1.22843983324713600D-01  1.06729676284415000D-01  2.75521255743339200D-01  2.08915047734117900D-01
92 29 -1.52223204090180600D-01 -1.37768280813983600D+00 -9.97554396711119600D-02  4.03411797380115300D-02  1.16494199424739200D-01
92 30  3.54638949301096700D-01  1.57715474814263600D+00  5.98687484209574200D-02  2.65717743803680500D-01  1.60903182015541300D-01
92 31 -3.73012545836414900D-01 -1.47804710795771200D+00  1.18509797005011300D-02 -1.35496086054162900D-01 -1.46832519399108300D-01
92 32  2.19026549988886300D-01  1.04820203292627700D+00  1.52550444872569900D-01  1.00924115477608200D-01 -4.01101027376201200D-03
93  1  3.90511039143358800D-01  7.29699695549368800D-01 -2.97204638013268200D+00 -1.94324587392437400D-01  1.29929007690017000D-01
93  2  1.29322875518273800D-01 -2.93136883462027800D+00  5.09741688747370800D+00 -1.17315804634592700D-01 -6.44948668127497000D-01
93  3  5.03684573682728900D-01  1.41264094444770000D-01 -1.65893508932445700D-02 -1.73495364768777400D-02  2.27766824663196000D-01
93  4 -4.10575792162008200D-01 -7.23285632622199000D-01  5.67022626636914600D+00 -1.77213186149723600D-01  2.44512897891811100D-01
93  5  1.30575574850569500D-02 -4.09811833205240900D+00 -5.35968716355511100D-01 -1.25569636437408100D-01 -1.36616610706148100D-01
93  6  3.72005514824511500D-01 -2.35388904118365700D-01 -4.81690713481515700D-01 -1.83104596917946500D-01 -3.79514335552530900D-02
93  7 -1.39032070558253700D-02 -3.05514109801987300D-02 -2.30045247552811200D+00  3.68454546139546400D-01 -1.61422004789675200D-01
93  8  2.97829044711176100D-02  4.74010716867928600D-01 -1.68648215860522400D+00 -1.74083647154121800D-01  1.15220016781664000D-01
93  9 -2.04111195453379500D-02 -9.48088972363281700D-02 -3.43627427243291000D-01  1.41724972070415900D-01 -7.10100662786584600D-03
93 10  1.22805731544062100D-01  2.59092676451444200D-01  3.53263472951169100D-01 -1.51390497268513500D-01  8.83913557831718500D-02
93 11 -3.09103290752186200D-02 -8.32466314316445700D-02  2.58041879775349900D+00  2.12198963120643800D-01  3.29966110637427100D-01
93 12 -3.63582861355442500D-01  3.36167507180127800D-02 -1.26806820020860500D-01  3.11598081333671600D-02  2.47071208018651500D-01
93 13  1.34273271330141200D-01  2.40590263705589300D-01 -3.39067734920780200D+00 -5.39265781854384300D-02  1.33431662437966000D-01
93 14  7.22702896671717100D-03 -1.81799981714440100D+00 -2.38667516480659300D+00 -2.37783536073034300D-01 -7.16555376160283300D-02
93 15  6.37502365649234800D-02  7.90530105110593900D-03  5.44600523496104500D-01 -2.27880084561359000D-01 -2.32488055961825800D-01
93 16 -3.13680472401269600D-02 -5.40836433573260500D-02  3.19494920633565900D+00  1.26844665774722600D-01 -7.18631163645420300D-03
93 17 -3.07217315811751900D-02  1.37794377421043100D+00 -2.50277351301236500D+00  3.07815269050336100D-01 -3.85456710028037300D-02
93 18 -8.50570844250271000D-02  1.23602755427830900D-01  2.65135161506542900D-01  1.48038061743020800D-01 -1.59054990202368700D-01
93 19  3.07679787844287400D-01  5.65162715185205100D-01 -2.93350914320158400D+00 -9.37890035648049300D-01 -1.02064376209509400D-01
93 20  7.95687426350450300D-02 -3.06805368290714800D-02  6.63379351137295500D-01  9.28805790212234200D-01 -4.24395217360241800D-02
93 21  3.11169955579169200D-01  1.04485032078398800D-01 -9.83555110830513400D-02 -1.58354522958068600D-02 -1.11746889657494600D-01
93 22  1.27582341953302700D-01  1.06722085549622200D-01 -5.48796530406480100D-02 -4.23486246162422700D-02  2.17367777621270500D-01
93 23 -6.34755799104332500D-02 -1.53892197710836200D-01 -4.62496929246684100D-01  1.54793842449604100D-02  1.90006206246193600D-01
93 24 -1.05317854357443300D-01 -1.92643050648123000D-01  1.21109681123382900D+00  8.11364862688926500D-01 -5.27825716706578200D-02
93 25  1.64564343542456400D-01  5.52112043206705800D-02 -9.28226102174689700D-02 -7.78143149722567300D-01 -1.60803359486753700D-02
93 26  1.97325875651019200D-02 -3.00021909304563000D-01  2.38459003242411300D-01  1.72574411557088600D-01 -9.11894583487786300D-02
93 27 -8.13849532083097500D-02 -3.72549226991574700D-02  2.79003254060126500D-03  5.77897831607497200D-02 -3.83225373858662900D-01
93 28  3.31236737493185800D-01  5.19886363654770600D-02  2.60432467057765400D-01 -1.45377467081193000D-01 -1.57451654732751500D-01
93 29 -3.37446564460398000D-01 -1.76185126078890300D-01  3.10236721748599200D-01  9.58374096066573300D-02 -3.24488811877660200D-02
93 30  7.75403757506067600D-01  1.00543521282739200D+00 -6.27890683728110500D-03  1.43299742171762300D-01  1.49908506437298900D-01
93 31 -6.30277133398006800D-01 -9.65079663918505100D-01 -3.08108780352710200D-01  5.41295341420584600D-02 -1.84917271554464900D-01
93 32  3.73636217542164300D-01  5.16346408786547300D-01  8.26689503580597500D-02  4.78958457862995200D-02  6.46578616070685200D-02
94  1  2.57125764819976100D-01  4.73811932629518800D-01  7.38516193768982800D-01 -4.46292852029486400D-02  3.65864004056294700D-01
94  2 -1.01477856356577900D-01  1.91880138317452700D+00 -1.07240604304417400D+00  2.48224911308550300D-01 -1.23262375685328000D-01
94  3  1.79234297039267400D-01 -5.59719213539401300D-02 -7.84070321615512900D-02  1.28908630773820000D-01 -1.52896152019836500D-01
94  4 -1.27520178915215900D-01 -2.20901650501996600D-01 -1.68199186002738100D+00 -2.92209484502496200D-01 -2.14891830665462200D-01
94  5  6.92421822196711700D-02  2.18905949746762700D+00 -2.45435960414081500D-01 -2.25670387611617700D-01 -1.04363165400340600D-01
94  6  8.79158133363140200D-03  9.55715840667098300D-02 -1.33276666390163600D-01  2.37855279137690100D-01  8.90771739954920000D-02
94  7  9.25644941080232400D-02  1.60735971679682800D-01 -2.30793679566910700D+00  5.94304940634980100D-01  2.99596045104158500D-01
94  8 -5.94524849542934000D-02 -5.48940284832796600D-01  5.00267763080024300D-01  3.66737672143632000D-01  2.00212727150785300D-01
94  9 -2.65022158354864000D-01  6.48094312040783200D-02 -5.69832873084054900D-01 -1.60250388401692100D-01  6.22846323331715900D-02
94 10 -8.57563948871039700D-02 -1.50086215606705300D-01  8.89483576668366700D-01  2.80749865645201400D-01  1.56792347902094500D-01
94 11  5.33717745515715000D-02  1.55794022242190300D+00  1.40567400238269100D+00 -2.98382797536451900D-01  5.88586929345996300D-01
94 12 -5.15501580345759200D-01 -7.30853490002355300D-02 -1.31427990336343200D-02 -1.86533537559132200D-01 -8.00753892171172900D-02
94 13  5.70273069843467500D-02  1.61463069822357300D-01 -4.16356502942620300D-01  1.07183900149149800D-02 -1.88339935641430900D-02
94 14  2.36487471664902000D-02 -1.02628367986401800D+00 -1.90358813074663800D+00  2.51836754761604200D-01  1.31516167185170100D-01
94 15 -9.38800423646170000D-02 -3.76361248205526100D-02  2.83092113597443100D-01  2.32831007116166400D-02  3.18357517658048800D-01
94 16 -2.05956308828858300D-01 -3.95982310961613500D-01  3.23254265601318300D+00 -1.64601227314753900D-01 -1.01035123427342900D-01
94 17  3.98790290956759800D-02  5.00866512915257000D-01  4.50058921058810800D-01 -3.85704982462159400D-01 -1.27111994474936500D-01
94 18  2.80678984841847300D-01 -1.53566990366909600D-01  7.69609655966210400D-02  1.69967403389866300D-02  2.49971880213008400D-01
94 19 -2.00512374684273600D-02 -5.61874003300472400D-02  2.94191680688172600D-01 -5.74767922165088900D-01  5.83643607649092100D-02
94 20 -4.77335446519183300D-02  7.01876180592432800D-02 -2.04655081806585000D-01  6.33395896438531100D-01 -1.10479916678717700D-01
94 21 -6.86868664492326100D-01 -7.42412611488752300D-04  1.49880218922788500D-01  1.18942705822038100D-01  9.63811819529611100D-02
94 22 -2.15323887774998500D-01 -4.42961537540088300D-03  1.36621134575911000D-01 -3.11711446305610200D-02  5.00702703469422100D-02
94 23 -4.96289770656067600D-01  4.46219500309125800D-01  5.82323388888091500D-02 -1.24693104480312200D-01 -5.91640617737794600D-02
94 24  9.56367848217090600D-02  2.05701047216735200D-01 -6.86787349586285600D-01  3.56473202156638100D-01  9.46495144674596000D-02
94 25 -5.73099268468600400D-02 -6.39542651892699100D-03 -5.37876769937514800D-01 -7.99422466952704500D-02 -6.07137723331956400D-02
94 26 -2.19538207149637500D-01  6.10801777680566600D-01 -4.13873000793058500D-02 -1.81699542263280700D-01 -8.96003640682868600D-02
94 27  2.71299906331567200D-01  9.27402389276662800D-02  1.41152444074173000D-01  1.20845180878706800D-03  4.53012770140466400D-01
94 28  2.05480790565240300D-02 -4.73560849196990900D-01  2.07860555640261900D-01  5.74974280870205200D-02  7.31327923791529500D-02
94 29 -2.64183887517087800D-01  9.98898788168370700D-01  1.46599775315061000D-01 -9.56892782548428300D-02  3.83109146196013200D-02
94 30  6.32312513269340800D-01  3.67757260080663400D-01 -2.71228622997223700D-01  2.63880137921653300D-01  3.68396164830394900D-02
94 31 -5.42083954335565400D-01 -6.60365901659052500D-01 -2.02989085228232900D-01  8.53541167402161700D-02  7.01350769707455700D-02
94 32 -1.26399364590702000D-01 -5.10882853211606100D-01 -2.19761691871824000D-01 -1.29484882213237900D-01 -4.39337612842636000D-03
95  1 -2.24804098888898300D-01 -4.07343581904271600D-01  3.63020989420929900D+00 -4.91789497718595200D-02  2.44887929209762500D-02
95  2  9.37530556032487200D-02  1.29771997318093600D+00 -2.42766637523462800D+00 -7.00211528130433900D-01  6.79587560366919400D-03
95  3  1.66194325230412400D-01 -1.72990200834083200D-01  5.80356744407548300D-03  1.66620531886612000D-02  4.75504719404184300D-02
95  4  2.28040685163098800D-02 -1.84555964077560700D-02 -4.79067486590379200D+00 -2.71895852299822900D-01 -2.04599973192180600D-01
95  5 -4.82734895556498100D-02  1.49341595256904800D+00 -5.70123435104522900D-01  6.55778838033275700D-01 -2.68467306984151900D-01
95  6  1.19520749430406500D-01  1.48946557553745900D-01 -1.88019464697656300D-01 -1.72738515270489000D-02  1.14805827610492800D-01
95  7  3.47467004526804300D-02  1.42338087800799100D-01  1.21340355426332000D+00 -1.44180342907194400D-01 -2.44890817205376400D-01
95  8 -5.53516739142733100D-02 -1.01685076376679500D+00  2.28987443611418500D+00 -3.07914064017606700D-02  5.57739541162522200D-01
95  9 -4.08969989091924200D-01 -1.48769552070598000D-01 -2.26417708888610800D-01  8.61800779455928900D-02 -5.86556036153361000D-02
95 10  1.26305489461166200D-01  1.77662960658297700D-01 -3.38561551661794400D+00 -3.75526454502783500D-01  1.76080559831603200D-01
95 11  1.22517865517886500D-01  2.33424007637613200D+00 -3.25338366335588800D+00 -6.70365683973163000D-03  3.04656392747627500D-01
95 12 -6.02950750788855000D-01  2.98294358041229600D-01 -2.32099367213542800D-01 -2.00250132213798800D-01  2.81776727536583300D-01
95 13 -1.87574697818129000D-01 -3.98435594620058200D-01  3.54755333050712000D+00 -1.33414738428392500D-01 -2.36358845776667700D-01
95 14 -5.19380722491696200D-02  3.50303187423187600D+00 -2.55787131594422200D-01 -5.61188522318748200D-02  3.26338556479076100D-01
95 15 -4.83843196898666600D-01  1.57504640419590000D-01  3.60347818174364600D-01 -3.95373491659000200D-01 -3.48344311266091700D-02
95 16  1.94996398545012100D-01  4.33123730866535900D-01 -1.11803320745943700D+00 -1.61701652204236900D-01 -2.59765491453118400D-01
95 17  4.35670453993199000D-02 -2.84735407861456000D+00  5.50666039819526700D-01  1.35755899198344700D-01 -2.11483331704875100D-01
95 18  3.76283110534385100D-01 -1.64799778829508200D-01  1.15227393392591300D-01  3.29998683161804100D-01 -2.58193641089369700D-02
95 19 -4.31451693494510300D-03  1.26053156712715000D-02  1.29596899435320900D-01  1.37398319509012200D+00  5.36967370673127800D-02
95 20  2.40365597234270400D-02 -1.06469206848080900D-01 -2.36957095075652200D-01 -6.63415458608730400D-02  2.28416057714485000D-01
95 21 -2.25059195986536500D-03 -5.77765887760264300D-01  2.17718020876161000D-01 -2.75383939748457400D-02 -1.82432848329797800D-02
95 22  4.57816788078241300D-02  3.39842225558906800D-02  9.19436167912398700D-02 -3.89541142717479600D-02  1.34348947136158000D-01
95 23  4.14386709180491700D-03 -1.38492814227964000D-01  1.65015250996778900D-02 -1.50116564628928800D-01 -3.71043806040032100D-02
95 24 -1.58049596441768400D-01 -2.79480569878985300D-01  1.32446364382790100D+00 -7.10730109551653300D-01 -2.95461088916904700D-02
95 25 -2.75552301201930800D-02  4.25719419011370400D-02 -8.27062016629189900D-01 -1.62331115801882600D-01 -1.88546735209759400D-01
95 26  4.65591777652192800D-01  1.77557560437985500D-01 -2.32518910591797600D-01  1.28999717022070000D-01  5.53587857671831300D-02
95 27 -1.84358502789254200D-01  2.17986230134571000D-02 -1.46015769688300700D-01 -8.01383008958759800D-02  9.94688086835951900D-02
95 28 -2.52553690391418200D-01  1.53084881707823200D-01  2.05132819008656600D-01  2.47392918282690700D-01  1.22785987250626200D-01
95 29 -1.11344580228423500D-01  6.72990482516484900D-01  7.09034921139726100D-02 -3.96923541162947300D-01 -7.92692014807494100D-02
95 30  2.03815163610385700D-01 -1.29907291502822900D+00 -2.28222551035689000D-01  2.30112908092371900D-01  8.62307075697780200D-02
95 31 -1.11225345939277600D-02  1.24184997858114500D+00  1.15345537497868300D-02 -9.52198802318687000D-02 -2.09568564520482800D-01
95 32 -3.35430174009746000D-01 -1.35285159382617400D+00 -1.57022275512620500D-01  1.05542066935764400D-01  1.66829754365982000D-01
96  1  1.45291844485088700D-01  2.18926524898101300D-01 -4.17148415594689200D+00 -5.52379767175914900D-02  5.81477018332339500D-02
96  2  3.28959863229390400D-02  1.74410309025934200D+00  2.06585716472095800D+00 -1.77976303313328800D-01 -3.99379539642004300D-01
96  3  1.76152230692499200D-01  2.23227308949505100D-01 -8.59924153938552600D-03 -1.01993908782822900D-01 -2.03741132035835200D-01
96  4 -2.67388238209696700D-01 -5.57920117517695400D-01  4.13554787479823200D+00  2.64194129496239800D-02  1.06335272103425600D-01
96  5  4.70246445738220200D-02 -7.54999674978187400D-01 -1.73845323894340000D+00  1.31826565592258200D-01  2.45072409290077800D-01
96  6 -1.86543561473152500D-02 -2.26418053142763600D-01 -2.83382911386689400D-01  4.73561986107103400D-02  1.50294264933727200D-01
96  7 -2.80208043937610600D-03 -9.66998529372163900D-02 -5.42482738984128500D+00  1.99225239180792600D-01  1.03446330372111100D-01
96  8  3.94613131871243000D-02  2.27185010957602000D+00 -5.05644413800747500D-01  7.79701062735024800D-03 -2.43154646565493300D-01
96  9  9.56759230513307700D-02  1.47478723514161900D-01 -1.25133961805684800D-01 -6.03166435235466200D-03  7.88704883607504700D-02
96 10 -4.49625973762649200D-01 -7.31866918365979200D-01  8.12434566574179200D+00  4.02618259027038200D-02  6.69460497129137400D-02
96 11 -2.26431221304902500D-02 -5.27685003199264400D-01  3.08358262171487600D+00  2.30519666002978400D-02  4.96504728182620800D-01
96 12 -1.09289962549162900D-02 -4.85575731927705700D-01  1.83756871249396500D-01  5.21543791607553400D-02 -2.35198521594414100D-01
96 13  2.51868311561718500D-01  3.36362474928774800D-01 -6.23044818466935400D+00  4.81666047079892200D-02 -1.46448825701550000D-01
96 14  1.36348684320659500D-03 -3.21326353839217400D+00 -3.07923086323732800D-01 -1.40050840609066500D-02  3.79867561867615700D-04
96 15 -4.30194486955795500D-01  4.29814619393931100D-01  2.32774508609130700D-01  3.77530122226169100D-01  2.06512662037508600D-01
96 16 -7.12502373484134400D-02 -1.12078328395327900D-02  5.05274782377113400D+00  2.49494009620119400D-01 -4.01933364410864300D-01
96 17  3.54204930392957400D-04  2.57309651089524700D+00  2.69103661985413000D-03 -1.62424040063303100D-02 -2.10971114241746500D-01
96 18  4.58144334571042800D-01 -2.47173220329297000D-01  2.42924675140263100D-01 -1.90668324217344200D-01  1.05209505746598400D-01
96 19  6.52335551822523100D-02  1.49341992928752800D-01 -5.44273237795833400D-01  4.91167543859595400D-01 -1.39931737055541300D-03
96 20  6.71923732430351600D-02 -1.82091155120624200D-01 -2.49550760808402600D-01 -1.78594456522087400D-01  4.24657434187929900D-01
96 21  2.04709474470397900D-01 -3.60528101730254700D-01 -1.55409380427503500D-01 -9.09869961217577700D-03 -1.16432465436323500D-01
96 22  1.25531165048502700D-01  4.25422096896197500D-02 -1.04235693296220600D-01 -1.21080435317254300D-01  3.47227404736581800D-02
96 23  1.72909443174230600D-01 -2.07632183647885800D-01 -7.39537298790917400D-02  1.54201374086976600D-01  7.16343788410539600D-03
96 24  1.10719265832804300D-02  3.48256873179411500D-02  1.99493187487316300D-01 -1.58342490621999500D+00 -1.62406383087835000D-01
96 25  8.25014395370012300D-02 -2.53304333461968500D-02  4.25696518121217300D-01  2.76346433642214100D-01 -5.61585111637894900D-02
96 26  5.88233658067266400D-01  6.39332183551820300D-01 -3.22563329048597600D-02  1.18521149437489700D-01  1.28029118033596700D-01
96 27 -2.46550267471085900D-01  4.49709872114132000D-02 -8.14207349292633600D-02  6.70974231027568200D-02 -1.63037481380783600D-02
96 28 -4.82008984447433600D-01  4.98312732585512000D-01 -2.25210045182673900D-01  2.26463068356222200D-01 -5.20038705723986800D-02
96 29 -1.76081345155011100D-02  3.10369026294026000D-01 -2.91656065055754800D-01  6.42203876599786600D-02 -4.56516434882745200D-02
96 30 -4.76881970875822200D-02  1.57004469288532600D-01  2.19736774701273800D-01 -1.48927776943179200D-01 -1.82518005910637600D-01
96 31  3.01569672191785400D-02 -1.58520386429497800D-01  2.70274585657291500D-01  5.97287502569716900D-02  3.51626952346730500D-01
96 32  2.14406137408188700D-01  1.68738387876133600D-01  3.94117478106688300D-02 -1.49816110220947100D-01 -8.89147062895340200D-02
97  1  8.18185127457020100D-02  1.51816503284006700D-01  3.93661333318449900D+00  3.86487824130403200D-02 -7.59286555858381500D-02
97  2 -2.79205868531893100D-02 -7.63663607477735900D-01 -1.47148092090913000D-01 -5.85871109449253600D-01 -5.67401379251170300D-02
97  3  3.80671542414903500D-02  1.86729836836242800D-02  3.89033110683752500D-01 -1.24440781117396400D-01 -2.35443651305506400D-01
97  4 -6.20945450098006800D-02 -1.14622969774826100D-01 -3.47343074095780300D+00 -1.89838596736818100D-01 -7.20331351931741700D-02
97  5 -2.26360217337022400D-02 -2.47455045682744900D-01  1.83970252624149900D-01  6.41366568686334100D-01  2.03793063398975700D-01
97  6 -3.57144657627596200D-01  1.53351594228621300D-01 -8.04000110992987700D-02  6.78554736624806300D-02  1.31038192347991300D-01
97  7  2.04644829834743800D-01  4.31125719883532900D-01 -8.02305344516770300D-01 -7.01193058468073900D-02 -6.20768303151748400D-02
97  8 -1.54668561713852000D-02 -6.73041687307989400D-01  2.09975344040166600D+00 -2.02649294778968600D-01 -2.49434825774634400D-01
97  9  2.06924646459161800D-01  4.25101793154724500D-02  3.05033042822007200D-01  1.97372967634811700D-01  1.69599784472081100D-02
97 10  7.74917155471232500D-02  1.33861281273691000D-01 -1.67142174007999200D+00 -2.74885415696170400D-02 -2.98576023437503900D-01
97 11  5.35813959897192400D-02  1.77180638212241300D+00 -1.09670972206718800D+00  1.96043207662440200D-02 -2.86804198952700900D-01
97 12  3.79411891032852900D-01 -9.26076920801512700D-02  1.89985684595877100D-02  1.45911891945930700D-01  1.43681331645244300D-01
97 13 -3.41908088766191200D-01 -6.73765226911799100D-01  4.45268443180767700D+00  1.36489676951817300D-01 -7.46041247103008700D-02
97 14 -9.47104817699536100D-02  2.24414450432902500D+00  8.56097519013250800D-01  3.98616672176160800D-03 -1.91422079744774400D-01
97 15  2.31805164958129500D-01 -4.03830852133556500D-02 -2.02888364911178300D-01  4.04413633633475800D-02 -1.27791027701081000D-01
97 16  2.42271267770351400D-01  4.31050375333498700D-01 -4.14654516355289600D+00  1.26339623426702700D-01 -2.68472312997572500D-01
97 17  1.47847464513163500D-02 -2.19176365730788100D+00  1.09498488454926800D+00  1.51642881768985000D-01 -3.52740513821939300D-01
97 18  5.06300441711909200D-02  3.02110469650749300D-01  9.04533904489805000D-03 -5.34492386501684800D-02 -1.36786120253212700D-01
97 19  1.61766881917540100D-01  3.62926016624709800D-01 -6.82429492685485800D-01 -2.18961067164992200D+00 -1.71188234603298800D-01
97 20 -1.34385816325260200D-01 -1.50332650738489700D-01  2.97977882534860600D-01  8.03520193543922300D-01  5.10570989645899800D-01
97 21 -9.55635540195721200D-01  8.38396326583673800D-01 -1.03366599949378500D-01  5.23015324658289200D-02  1.68510647204149000D-01
97 22 -2.20812179669978900D-01 -7.80065788313104200D-02  2.27407137523028300D-02  4.67200963207439100D-02  5.90160895759681400D-02
97 23 -4.09032005134663900D-01  3.50015915558694800D-01  3.56761359710102400D-01  1.37903827009947200D-02 -3.07928863833612500D-01
97 24 -7.08129820415360400D-02 -1.24972299216367200D-01  4.94900266523979700D-01  2.32917745974469300D+00  2.16296611265202600D-01
97 25  3.40710639316162200D-02  1.54575939736407600D-01 -1.06935264464683600D+00 -2.97847811590419300D-01 -4.56132571597397800D-01
97 26 -1.03133678248061500D+00  3.17171037434298500D-01  5.88825351347078900D-02  5.33576695171927400D-02 -9.02922228863502500D-02
97 27  3.69345533691573300D-02 -5.02997155060645500D-02 -1.15522562328948400D-01 -1.33634222723572500D-01  4.29233892298752900D-01
97 28 -9.49611740167861700D-02 -3.34272718281966100D-01  7.22434976740964400D-02  2.23831426341052100D-01  2.11354751138738100D-01
97 29  4.30814133918370700D-01  1.16058182532782200D+00 -1.81997451578097200D-01  1.71171921587733100D-02 -1.08062149350286900D-01
97 30 -3.86536386564547400D-01  2.97848601917897300D-02 -5.77629866861483400D-02 -2.23091289501339800D-01  9.17344651647789600D-02
97 31  3.11783414505050300D-01  6.95519279326290100D-01  8.94110765344096500D-02  2.90037537606484300D-01  3.81929516695585400D-02
97 32  1.99399198438428700D-01 -6.50982327981394300D-01  2.00918347604418000D-01 -1.58275706851777200D-01  3.67922734039007000D-02
98  1 -7.20727196538606800D-02 -1.26935408969583400D-01  2.48493155772836600D+00  7.05179180881741900D-02  2.74522053842398600D-03
98  2  2.35724371710760200D-02  9.29830021120034100D-01  1.82527170997784400D+00  2.38242566543600500D-01 -8.31104091473154300D-02
98  3  4.02159640334765200D-02  4.28944451138400100D-02  1.99058765272394000D-01 -2.79264385102545800D-02  1.93385936327315800D-01
98  4  2.84813107994251500D-01  5.63572564428008000D-01 -1.89506431240386600D+00  1.31982645530228600D-01  1.65327284805718600D-01
98  5 -4.36251751210967100D-02  5.38123535693964100D-01  6.93542710845247600D-03 -8.94908228678842200D-02  1.89622233834185500D-01
98  6 -2.28236241378375900D-01  3.86140075441901200D-02  1.39546576324429500D-02 -4.59287475936194300D-02 -6.90880055528634700D-02
98  7  3.56964536090978000D-02  8.45929507556147800D-02  1.38272968034629300D-01  2.61407399807833300D-01 -3.90120901946878300D-02
98  8 -3.86925205316644500D-02 -1.59084940915879500D+00  1.74853986646022100D+00 -8.28733079868289300D-02 -4.37127702713547100D-02
98  9  5.11436088851575500D-02 -7.43083861380598800D-03 -1.66226499579020500D-01 -1.28497484354067400D-01  8.82323743496173000D-02
98 10 -9.86509235752512800D-02 -1.56124495001039100D-01  5.04110346626895200D-01 -2.86051933954692500D-02 -2.70423598652398900D-02
98 11 -6.43509283319687100D-03  3.42803982825067700D-01 -2.22463260314182000D+00  2.56281030846999000D-02  1.36138128983319500D-01
98 12  1.18086216508364600D-01 -2.54224345491684600D-01 -2.06243429586392700D-02  7.13501931539160000D-02  2.92975937196956900D-02
98 13  1.85980124905022200D-01  3.54692484532734300D-01 -1.68940042802627600D+00  6.37963151228825400D-02  1.47498633902439800D-01
98 14  3.12102388179447600D-02  2.04300063636044600D+00  4.76703748139812400D-01 -1.42217572672656100D-01 -2.73151090325900200D-01
98 15  1.56819843525831100D-01  1.16331246800071800D-01  1.30602922400648900D-01 -4.72358427352316300D-02 -2.53269495096364200D-01
98 16 -2.89926295795052000D-01 -5.81926983976940800D-01  2.39329220076085700D+00  8.34499427497299000D-03  2.26534578451317900D-01
98 17 -2.66462965670941400D-02 -1.09663454226538800D+00 -5.92442515808173400D-01  1.53107910712444100D-01  2.36279419055310700D-01
98 18 -1.71004184659576400D-01 -6.52752343957325500D-02  1.20782371379661200D-01 -8.40452927853597800D-03 -1.87782100059554100D-01
98 19  1.08075958683624900D-01  1.88113451668793700D-01 -1.22555683100319400D+00 -1.86600210458183000D+00  7.67369886403504200D-02
98 20 -9.31232133595599600D-02  1.01520811400592100D-01 -4.61447462279508000D-01  8.04620030647168800D-01 -3.04864845837468100D-01
98 21 -4.99688363194071600D-01  4.79542415923426900D-01  2.09237615314768300D-02  5.72835372796901700D-02 -9.94430473773881100D-02
98 22  4.21595100976977200D-02  6.40644366672857600D-02 -1.05783738280329400D-01  3.37104329652722100D-02 -1.70622950922788300D-02
98 23  4.34057144815363600D-02 -2.63434193892579500D-02  2.60529884199596000D-01  8.75551190217144900D-02  1.32642897387643300D-01
98 24  5.28723526983971700D-02  6.31238337452706000D-02 -4.20741139029258300D-01  7.03192819337874300D-01 -7.95884018669792800D-02
98 25  1.50127240016247500D-01 -8.24437386454149200D-02  4.03605029108311700D-01 -4.61689172668502500D-02  2.09993421478248200D-01
98 26 -7.00604317846099300D-01  4.18351146711054900D-01 -9.93454825485131800D-02 -6.64867614331360800D-03 -1.80912351014810300D-01
98 27  1.87561027158123000D-01  7.84744122475129500D-02  4.73660363719912000D-02 -1.29788125926572600D-02 -1.92328194711810000D-02
98 28  1.56230433781856800D-01 -1.36997614310675800D-01 -2.59098891710008200D-01 -7.76036969702894900D-02 -2.66226310653511700D-02
98 29  1.58919746478752800D-01  1.49848034966019300D+00  3.47990961897901200D-02 -8.53558763156842000D-03  2.73081196778641000D-01
98 30 -5.05310351327048200D-01 -1.63878468732941000D+00 -7.51690597129322400D-02 -3.12309600159768100D-01  3.67669501777864900D-02
98 31  5.10488999629139100D-01  1.64651326002163700D+00  1.95833677338939500D-01  2.16826634582779700D-01 -1.07394592966725900D-01
98 32 -2.21451015885584300D-01 -1.00946609162569500D+00 -4.16591235480885700D-02  3.00391956002927900D-01 -2.15524298989148600D-02
99  1  1.46277553860949100D-01  2.71625371513274700D-01  1.21628482547563200D+00 -6.11727213609993100D-02 -1.01890915002979000D-01
99  2 -2.32186132108473000D-02  9.00176390758462200D-04 -1.32467719619577500D+00  3.88932760967995100D-01  5.08187387804628200D-01
99  3 -4.12636658434480700D-01 -9.55507293701464000D-02  7.07500113832107800D-02 -2.38282449349454600D-02  2.55785056843365600D-02
99  4 -1.06416884650204400D-02 -1.58508512805586600D-01 -2.76073008236102100D+00 -4.30480104584504800D-02  2.90300075996287100D-02
99  5  5.67494389313295300D-03  1.20213867756282000D+00  1.40776860811210000D+00 -3.65916216150138400D-01  1.92269978953611400D-01
99  6 -4.08283503838305900D-01  2.16013524884696000D-01 -1.69037551204741300D-01  1.02753464860349800D-02  1.06496530588941200D-01
99  7 -4.58059290921616700D-01 -8.11628549723120600D-01  6.30069865196074300D+00  3.53886801158393800D-02  8.92408225003990300D-02
99  8 -8.54940742068557600D-02 -1.97933417664013800D+00  8.46773442547838500D-01  3.33173935237683200D-01  2.75450838737236600D-01
99  9  2.99397216210494600D-01 -5.74848054947729800D-01 -3.08132032505679800D-03 -1.18382839935521000D-01  2.05583701087269600D-01
99 10  8.10466799556258200D-02  9.02826947629814700D-02 -3.54055223449151200D+00 -9.17982912502230100D-02 -1.25489940248781500D-01
99 11  1.22832751552354100D-01 -1.38104762962130300D+00 -1.89682577165435400D+00 -3.77761666233661000D-01 -6.87821675906156900D-02
99 12 -2.82036865380304300D-01  3.50819032970920200D-01  2.74583516825446200D-01 -2.09343380974157500D-02  6.69692998245483600D-02
99 13 -1.34826546540966000D-01 -2.04382203073783700D-01  2.78112830412872200D+00  1.94172816150647200D-01 -9.46588606783808900D-02
99 14 -1.01385676360453900D-01  1.42791406881913000D-01  1.61104193250219000D+00  2.49290223354690200D-01  3.19829375817020500D-01
99 15  6.25424710730045500D-02 -3.82371846890026300D-01 -2.48639226209556600D-02 -5.42673768804511500D-02 -1.74760041255227700D-01
99 16  1.87895978691034400D-02 -5.15687949108148600D-02 -2.84837771641200000D+00 -1.02954477151457300D-01  1.48478891610656200D-01
99 17  4.29972079694050700D-02 -6.20987499308762600D-01  5.71244968351346700D-01 -1.05206997108563100D-01 -1.73192683402268200D-01
99 18 -3.38608667140010500D-03  1.76578770073667800D-01 -2.50347399510287900D-01 -7.60280586302370500D-02 -8.13801876072450700D-02
99 19  1.39196139888592300D-01  3.13154846083558900D-01  8.12172981635109100D-02  4.09816794082167800D-01 -1.32883681986919300D-01
99 20 -2.81816251419794500D-01 -4.56808119734028000D-02  2.41639957894272300D-01  1.99033709099994500D-01 -1.49671929271433300D-02
99 21 -7.16565215105384000D-01 -1.66418176721373900D-01 -1.38626684554296200D-01 -5.32034434881586900D-02  1.41753879543411200D-01
99 22 -8.85504360552549500D-02 -2.45094068705546000D-01 -6.90544758661171300D-02 -1.17837790401135900D-01  5.21129749286801700D-02
99 23 -2.41324337852932300D-01  1.89211362924249900D-01  3.79507186559572100D-01  5.67930689073643000D-02  1.97570852045219400D-01
99 24  7.49065880283231700D-02  1.88537100865707700D-01 -3.09817160459653000D-01 -4.11003003904245000D-02 -1.51691742449768100D-01
99 25  1.38840790370475300D-01 -3.23617000602250900D-02 -8.90418494188395100D-02 -2.06918687860028000D-01  1.25250174637021900D-01
99 26  4.57881342677929100D-02  2.73009905960236800D-01 -1.94923057566663400D-02  1.28118656097563300D-01 -9.06225496576359100D-02
99 27 -3.74961064399275700D-02  1.39534604979641900D-01 -1.66306076068963200D-03  1.99872090475357700D-02  1.41420183302625800D-01
99 28 -1.42429796534467200D-01  1.00961323184149800D-03 -1.74430648022873400D-01  8.97830909039567200D-03 -1.36839961857268700D-01
99 29 -2.07695850435632000D-01  8.86297709868167400D-02  1.32350862093511300D-01 -1.87913285890772000D-01  1.20160575881399500D-01
99 30  1.80918417405697700D-01 -4.93839523827705200D-01  2.62896792559855200D-01  1.62877923110420400D-01  8.40500212248445800D-02
99 31 -1.08404852389272000D-01 -1.44447235427215800D-01 -1.43395088970849900D-01 -2.41209513115158500D-01 -1.45679443173641000D-01
99 32  3.60791536962231500D-01 -8.32078398144150300D-01 -9.22337722161087600D-02 -9.26819328360175100D-02 -1.12558194944787700D-01
 0  1  4.88357320907932900D-02  1.09199008623149800D-01 -1.41187731987558700D+00 -2.68100699437408800D-01 -9.04686258720358400D-02
 0  2  9.05451936880807700D-02  7.78560378960503700D-01  2.77793806249263600D+00 -5.18819573395068300D-02 -3.15739987283044700D-01
 0  3  3.31699711959639200D-01 -1.59597246765948900D-02  5.37477315210056400D-01 -9.03827255117402200D-02  1.61799062186685900D-01
 0  4  1.80883036449328800D-02  6.28462742361689000D-02  2.31282257876858700D+00  2.65151886693441900D-02  2.11846626048276600D-01
 0  5 -1.43564387611593600D-01 -1.81242508649382900D+00 -2.41977529270845900D+00  3.31670984774238200D-01  1.99826621571990600D-01
 0  6  2.15986943089063500D-03 -2.01986491002882500D-01 -4.61375010610377900D-01 -7.65921449562263500D-02  5.90704654842870200D-03
 0  7  5.05906073542332100D-01  1.01955745644299200D+00 -6.68583157335715600D+00  1.73546259049273300D-02 -3.21712040131646400D-01
 0  8  4.98161789496646400D-03  3.42975787138515300D+00  1.82504733608651900D-01 -9.31952983598458900D-02  7.84781480390388100D-02
 0  9 -1.01802338336528000D-01  2.33241902974872100D-02 -4.33213310262032900D-01 -8.60827403615155100D-03 -5.16518755857222700D-02
 0 10 -2.63456508477319700D-02 -2.07884733918298200D-02  3.84117074450960300D+00  5.21920880293891100D-02  1.98131142858036300D-01
 0 11 -4.23278753614650900D-02  2.54191223419125800D+00  2.17523398286281800D+00  1.27472757937309500D-01  6.84426165486483300D-02
 0 12 -8.07715303354974200D-02  1.23289137868484100D-02 -2.32365724377948500D-01  1.54948549795344300D-02 -1.25614078974939500D-01
 0 13 -6.61370426198529500D-02 -1.67997305132042700D-01 -2.98685932439908000D+00 -3.62890422200833600D-02  1.57138359559996600D-01
 0 14  3.49398284820353700D-02 -7.13404422166305600D-01 -2.91778448901733800D+00 -7.57592819662565300D-02 -1.87694242099473500D-01
 0 15  1.73810580748973100D-01  1.38836613505024300D-02 -1.05752461930317600D-01  9.83548000278952600D-02  4.96477248572019700D-02
 0 16 -2.99920510609624300D-01 -6.06997400621597000D-01  4.98771254003347700D+00 -7.33602201613282700D-02  3.47239977880816300D-01
 0 17 -3.04786842721438000D-02  1.23669627337009700D+00 -2.85278907189780600D+00 -1.66624695861987400D-02 -2.24391127664938200D-01
 0 18  1.93641281920610100D-01  3.07498457443282300D-02 -2.22173166719962300D-01  5.70204426674483000D-02  2.05600518991437200D-02
 0 19 -7.38461436840974900D-02 -1.93150495108643700D-01 -7.20394490088268700D-01 -8.34987563936749300D-01 -3.02359717735511200D-02
 0 20  1.23777321428860000D-01  7.55378881189502900D-02 -2.93893535178054400D-01  4.73720868976930700D-02 -2.76475568016025800D-01
 0 21 -6.96685409578348700D-01  4.72249537200028900D-02  3.07725621583835000D-01 -2.07503615628060300D-03 -5.26520440636970400D-02
 0 22  5.47270802199802500D-02 -7.96516169128773800D-02 -1.71241722518432800D-01 -1.32739042230867800D-01  3.68954082771945600D-03
 0 23  1.97560427479794200D-01 -2.01249968307510200D-01  5.85474611295413700D-01  2.00435790406123700D-01  2.43227900928991700D-01
 0 24  1.56737870279351800D-01  3.41250614331870900D-01  8.65009991989905600D-02  9.93243682994409800D-01 -1.41205578183425200D-01
 0 25 -1.19137381445515900D-01 -6.35438842823818500D-02  1.03355970912440100D-01  5.32243850670919700D-01  1.86562860564004100D-01
 0 26 -5.42684609550639200D-01  4.51957596682600500D-01 -4.48868360273911900D-01 -4.53471402376292100D-02  1.15675293169751400D-01
 0 27 -7.03281529321227400D-02 -2.27579898318712500D-02  6.10126041600525500D-03  8.62209619581462300D-02  1.89485688995872500D-01
 0 28 -4.56884097382135100D-01  2.67398408386262900D-01 -2.63853656497712500D-01  9.12413499467795500D-03 -1.58829539101515600D-01
 0 29 -4.40964833940023800D-01 -5.72579104163010900D-01  1.75400183396066400D-01 -3.39625862302874400D-01 -1.27249796050905100D-02
 0 30  1.99130588992530600D-01  7.90743467798433900D-01 -1.74306679251700800D-01  1.30974848083279100D-01 -1.45443869264047600D-01
 0 31  1.87506871951848500D-01 -1.01956063682290700D+00  5.51169980252212400D-02  3.99283010189556800D-02  9.36840286810772900D-02
 0 32 -7.49627332002474700D-02  7.52999158806983800D-01  1.84216375031420600D-02  5.28719291379961900D-03  9.44619721855590900D-02
 1  1  1.99283561289498000D-01  4.12570835946289300D-01 -2.08195437642826000D+00  6.42122573655101600D-02  2.82440353880245900D-01
 1  2 -6.75272622198787600D-02  4.37836727516098600D-01  5.98676593062226500D+00  3.99976994674879700D-01 -3.94925114262011000D-02
 1  3  1.56856153220363800D-01 -1.17363641794162800D-01 -1.69410671315295300D-01  7.73177925113676400D-02 -1.84881271398172400D-01
 1  4 -6.23099618089492700D-02 -8.88044677928006100D-02  2.05413123174467500D-01  1.08544613733145200D-01  1.87273257100511300D-01
 1  5  1.87182543173551100D-01 -5.20108520215751500D+00 -2.86700372922781700D+00 -8.18280238496394600D-01  7.61062808345724700D-02
 1  6 -1.30985813034239800D-01  5.48795321996652100D-02  1.23180066610594200D-01  1.53847897801262000D-01  7.96973990848025600D-02
 1  7  2.57517102802606800D-01  4.88066108529494700D-01 -6.76256782181199100D+00 -1.38284984485859700D-01 -1.53771113865871600D-01
 1  8 -2.92553621400448300D-02  4.53451180412457900D+00  9.87633308414609700D-01  3.72042944708578000D-01  5.90970167074011900D-02
 1  9  3.10971500266425100D-02 -9.01941667340471500D-02  1.46060939515627400D-01 -1.56957903497018500D-01  2.00284765978115600D-01
 1 10 -1.55354507653317400D-01 -2.52179635807006500D-01  5.38581023795217900D+00 -1.25096289214544600D-01 -1.51777206980082900D-01
 1 11  1.33979740008209600D-01  3.36877530872299500D+00  2.02094730807227400D+00 -5.04063287141804900D-01 -9.32485955923564300D-02
 1 12  2.69922008640800700D-02  6.62563947282737700D-02  3.89054519156209600D-02  1.13581856570928000D-01 -1.31814005346008700D-01
 1 13  2.38832773837067300D-01  4.44000929326937300D-01 -5.22211856621230200D+00  1.19891714671481600D-01 -2.59377204403792700D-02
 1 14 -7.54327738354910000D-02 -7.75765562697362500D-01 -4.25295501643489800D+00  5.50776059090134900D-01  1.05561373422752900D-01
 1 15 -2.51019880922851100D-01  1.45458507500101100D-01  6.61893014048123700D-02  2.42885905574481400D-02  2.72328797248812500D-02
 1 16 -3.69274762499283800D-01 -6.74525892328954500D-01  8.34416788267123800D+00  2.36722046452362700D-01 -9.50639234331498200D-02
 1 17  6.23256404111828500D-02  2.46096410711088900D+00 -3.70283385943291600D+00 -4.16653107636976300D-01  1.17630722523201400D-01
 1 18  4.95416375261723700D-02 -1.67172360049372900D-01  2.60159703268190300D-01 -9.83203348929872200D-02  6.33980787527412800D-02
 1 19  3.65898640975811700D-01  6.75592194504416900D-01 -3.27010696772914100D+00 -1.80675271248215500D+00 -5.95528406878766600D-03
 1 20  1.02603190128396400D-01  3.47436325140354800D-02  1.15166355671860400D-03  9.22388842486730500D-01 -1.67964408522106700D-02
 1 21 -1.86251676497575100D-01  5.67897576915788900D-01 -1.11601603132739900D-01 -9.07650299169343900D-02 -1.23038549233733000D-01
 1 22  2.13803579150670600D-01 -4.99275111124285500D-02  1.18778868402691200D-01  3.32286274323617200D-02  2.04286534515689200D-01
 1 23  5.63523369110997300D-02 -2.60638871426785100D-01 -4.61461660444768100D-02 -1.25112671304788100D-01 -1.46787640863301000D-01
 1 24 -2.65024044400722700D-01 -4.79944159039900800D-01  2.78162904112828100D+00  2.28438827952911900D+00  1.51111362327447500D-01
 1 25 -5.09953558970167100D-02  1.05196200299933300D-01 -8.61591666155432500D-01 -1.86525428010424000D-01 -1.78024014739919900D-01
 1 26 -6.66964945756982600D-01 -3.20719728694179300D-01  5.04121633974872600D-01 -1.33791667855237300D-01  1.23904494372165200D-01
 1 27  9.88717348307116000D-03 -1.98257843999210300D-01  1.73675721779223000D-01  9.70193053527890600D-02  9.31243438680915000D-02
 1 28 -2.40716415504842600D-01  1.47592071636751100D-01  1.72436172881494400D-01 -1.72009888900465300D-01 -9.75785016515727200D-02
 1 29 -8.66637878831249500D-02 -1.13216342436625100D+00 -1.76250819313487300D-01 -2.06135987272953600D-01  1.36589918803831600D-01
 1 30 -2.08861454199874900D-01  3.35393938351241500D-01 -1.22773686475367900D-01 -1.69130119519282400D-01  3.27439103272876600D-02
 1 31 -6.63343040185179900D-02 -7.40192410880346200D-01  1.02514588878737300D-01  1.22193935239342900D-01 -1.30342583534923400D-01
 1 32  1.18757712504177400D-01  1.21626646511373200D+00  2.18785340691154100D-01  9.90315513775213400D-02  8.97794525976641100D-03
 2  1 -1.25610416627338300D-01 -2.37521550244943500D-01  8.52752658950141300D-01  5.48970200756489000D-02  5.36974303850099700D-02
 2  2  1.05413696058674800D-02 -1.12969536451716700D+00 -4.37521095227572400D-01 -2.38574486578093300D-01  8.99308634187212100D-02
 2  3 -4.60908190494379900D-02 -4.38400443692830100D-02  4.28912358920674600D-02 -1.90743060748216800D-01 -1.44145482280369600D-01
 2  4  1.25225382658666400D-01  2.48814420987192800D-01 -1.19612288940236500D+00  5.64945214147576200D-02 -2.51073792637811000D-01
 2  5  8.72748782377560400D-02 -4.95639795102779800D-01  1.52963395295255800D+00 -5.76540411450622200D-02 -1.52113435613327200D-01
 2  6  7.95948353581312800D-02  7.25186002551964500D-02 -9.54172009279416300D-02 -2.67648245645156900D-02  2.75706658070722300D-01
 2  7 -1.72154160456588300D-02 -4.95685192862454000D-02  1.76023030665398900D+00 -6.18311205731994200D-02  1.49539182065271400D-01
 2  8  5.34716821976770100D-02 -6.17941717807425000D-01  7.17574023723764000D-01 -3.89429936733519700D-02  9.91436792124778900D-02
 2  9 -2.34342674669542800D-01  1.35198995457064200D-01 -1.50559835157859900D-01  3.55681300482959700D-03  2.22135162499278300D-01
 2 10  1.78106326743517000D-01  3.32382606944363100D-01 -2.32168620230420900D+00 -1.05343852126231100D-01  5.13438814227552200D-01
 2 11  7.53181455977725400D-02  6.32184512902165400D-01 -1.29675417184369600D+00 -1.45355717462376700D-01  2.82409129965871800D-01
 2 12 -3.98586907061943500D-01  1.16177777096071700D-01 -2.99915018392627700D-01  2.82343821729325600D-01 -2.50265484412078800D-01
 2 13 -6.88925734929540900D-02 -1.33052127631531100D-01  8.28255432098726000D-01 -2.94129345360433300D-01 -3.02901570516633100D-02
 2 14 -3.31459443489635400D-02  1.21618447262952900D+00 -3.85190465207814500D-01  1.30338209683056900D-01 -1.51610751486128000D-01
 2 15  1.87006013875197200D-01 -3.53952623890697700D-02  1.98942684817339400D-01  2.80818905916933300D-01 -1.44938870690539000D-01
 2 16 -1.94846356171819300D-01 -3.92491858630799900D-01  2.12791738183883400D-01 -3.55153238664166800D-01  2.60056092661777100D-01
 2 17 -5.63511131618151000D-02 -8.36402730917858600D-01 -8.53966101809519300D-01  6.22482415831998500D-02  1.92764087693751800D-01
 2 18 -3.98477331763214500D-02 -1.52916354517429200D-01 -1.28290095047605600D-01  1.18353632746754100D-02 -1.69964232471767200D-01
 2 19 -5.33620191428932600D-02 -1.12102956182119700D-01  3.43553032999692300D-01 -5.31957506118940000D-01 -4.17717697048017800D-02
 2 20 -3.42133007574012100D-02 -2.23771551633313900D-01  1.62138588730589700D-01  6.11183525130090000D-02  5.23864871102456900D-01
 2 21 -2.69579708699164100D-01  3.40973600657156000D-01 -3.33468328129653100D-01 -1.16456048309482700D-01 -2.90240671715757600D-02
 2 22  1.45480115481057400D-01  3.40361065484796600D-02 -1.88054915918539700D-01 -1.07629077857843100D-02  7.97645672873020200D-02
 2 23 -8.00728973138680800D-03 -7.17572775559160600D-02  2.59029646639767000D-02  2.62633248859898500D-01 -1.01356129686102400D-01
 2 24 -6.00737387984061700D-03 -2.18026733570829600D-02  7.06025611712023200D-02  6.87998082817914200D-01 -2.91912273184587000D-02
 2 25  7.44254752597160000D-03  2.06210566768952700D-01 -5.37395407816359400D-02 -3.58510830524176300D-01 -4.63795265095862100D-01
 2 26 -1.57568236477486900D-01 -1.42747561487456500D-01  4.87535304859088900D-01  3.95290936927949100D-02 -5.66437283373296400D-02
 2 27  1.71146346445342300D-02  3.10699763765184300D-02 -8.69979294551285900D-02  2.48927969037381900D-01 -1.22410070654866400D-01
 2 28  2.32070482920480600D-01 -1.09660412265614300D-01  1.94206943969190600D-02  1.63690117938726300D-01 -3.16230169306554800D-01
 2 29  1.51735630175094400D-01  4.24437158237223100D-02 -4.33799861714920200D-02  2.04368641698213800D-02 -1.08540480328563800D-03
 2 30  4.20192469565107800D-01 -3.14992575004464100D-01 -2.04116759736823400D-01  3.88153985231315100D-01 -1.50270449444625300D-01
 2 31 -6.17053505482688700D-02  1.79716473506321100D-01 -2.74378613882574300D-01  4.14695538072631600D-03  6.12903799484340100D-02
 2 32 -3.16304346163592200D-01 -3.87722839449857600D-01 -1.94759043101974900D-01  3.11007227301768400D-01  2.51521735486735300D-01
 3  1  6.01925659808421600D-02  7.84830984597802300D-02 -5.18017261740768900D+00  1.67777135845661300D-01 -2.60321212144370100D-01
 3  2  1.37514523885393000D-03 -7.02001447431168100D-01  3.22641425012397800D-01 -1.81536452091063400D-01 -6.28336118672353500D-02
 3  3 -1.66225610855799000D-01  2.29059222723035600D-01 -1.25567331881242100D-01 -1.50750896101917200D-02 -9.21979005214751300D-02
 3  4  7.74036377423506800D-02  2.16784299165667100D-01  6.56485011963467600D+00  4.44301858256248000D-01  2.54376445936229500D-01
 3  5 -9.19688872369940300D-02  4.00611688608507300D-01 -1.10597391353790900D-01  2.87942932095517900D-01  1.43080802248339600D-01
 3  6  1.05726936454444000D-01 -2.48807738702784600D-01  3.10689524425585300D-01 -3.94112050817470400D-03 -3.91517194249848100D-02
 3  7  3.05104488159655000D-01  5.81664401049943400D-01 -3.55775653951009500D+00 -2.40015790999891300D-01  4.96283040244844900D-03
 3  8 -1.72049823851041800D-03  1.09455992706506000D+00 -2.05259715347745000D+00 -3.08094094005525500D-01  2.89515158391792100D-01
 3  9 -4.07906906950535200D-01  1.18391748558743300D-01  1.64728868039560200D-01  1.23581533141400400D-02  1.64984599568641100D-01
 3 10 -1.30249146973784200D-01 -1.87730252594619000D-01  3.71662396648498400D+00 -4.72261328415064700D-01 -1.39910864354019800D-01
 3 11  1.06307730540443100D-02 -8.02139530120969500D-01  2.90485808251066800D+00  1.28250908095263400D-01  9.98404225388958800D-02
 3 12 -9.30184161129734700D-02 -6.82200642592283400D-03 -4.35987626574290000D-01  3.51243288698867700D-01 -8.33417471169867500D-02
 3 13  2.84074553099730200D-01  4.61222259310950700D-01 -5.74351913502173600D+00 -9.46944167929469800D-02 -1.81520741260404800D-01
 3 14  4.85059625377158400D-02 -2.90361375168365000D+00 -1.30932016149385500D+00 -1.23003254314970300D-01 -2.09069154537869000D-01
 3 15 -7.81354964926162500D-02  2.87204651030485800D-01  5.46726850044804800D-01  1.51265173859094200D-01 -2.75535487171609000D-01
 3 16 -1.28788535426386200D-01 -1.49333262242962400D-01  3.80258941784290400D+00 -2.69690576424217800D-01 -1.17845193188724200D-01
 3 17  1.79978441422508800D-02  2.45832308454235200D+00 -1.45169459067813100D+00  1.89770468915667100D-01  7.77645905429481900D-03
 3 18  3.24850509729075300D-01 -3.32626968783370400D-01  2.56111800018413800D-01 -1.42003004022300500D-01 -1.98312553650679700D-01
 3 19 -1.00132509079617000D-01 -1.55785094237591800D-01  1.03870736169485900D+00  1.53015491505070100D+00 -7.94649378902880400D-02
 3 20 -1.77859285893464900D-02  2.61992069456858100D-02  3.73963792115234900D-01 -9.46884664756986300D-01  4.36235694156938100D-02
 3 21 -5.66812081959264200D-02 -7.50451183469481700D-01  5.40819153752149200D-02 -8.63924132199381700D-02 -9.15741204769018200D-03
 3 22  9.55498252676310100D-02  3.18783383771534300D-02  1.26810951158682200D-01  5.69755516838721000D-02 -9.00143270494796500D-02
 3 23  3.82090407510255100D-01 -2.92076080460773400D-01 -1.54167282383176000D-01 -1.19873899253719300D-01 -1.42470456526542600D-01
 3 24  4.29275020091642200D-01  8.25976000010741700D-01 -2.86016483150108300D+00 -1.09866978659884300D+00  1.19326250428979300D-01
 3 25  2.64664531563967500D-02 -8.25738132542498300D-02  1.23335982420679700D+00  7.46608674246616900D-01  1.07390176378462300D-01
 3 26  5.98113778428933900D-01  1.72484263473273100D-01 -1.56920547660501000D-01 -1.15844003777204200D-02 -6.69495675874632200D-02
 3 27  7.85339679651839700D-02 -1.06580707151894600D-01 -6.60842594837535600D-02 -1.30417053937251500D-01 -3.87868032799204300D-01
 3 28  2.67645715001703600D-01  1.20222317797500400D-01 -3.46653277310156700D-01  2.65980186245117700D-02  1.85108423731271600D-01
 3 29  1.31868169594705200D-01 -5.46708085216275200D-01 -3.85926975757062900D-02 -6.70252225227923900D-02  1.99854151929515100D-01
 3 30 -4.96655100328937900D-02  1.14254359908398000D+00 -9.01930457084687100D-02 -9.49386941697153700D-02 -9.93837710766146800D-02
 3 31 -2.57766135294212700D-01 -6.81231611774314000D-01 -1.78668093067736000D-01  1.23305884332266700D-01 -2.93045705961464600D-02
 3 32  4.97898293616958900D-02  6.06976451252510500D-01 -2.40327019870093100D-01 -9.29545077860366000D-02 -9.50759874423337800D-02
 4  1 -1.34936525423628700D-02 -1.87655446460078700D-02  9.52850262016809800D-01  1.98976093983034100D-01 -1.86179644092025900D-01
 4  2  6.31388483854029700D-03 -2.01690576251728200D+00 -1.37816530594620700D+00  2.69010582672501400D-01  3.97170208481267600D-02
 4  3 -9.77442676672410200D-02  5.80272468191134500D-02  1.63755442889853600D-01  2.39022216237263200D-02  1.86035916470783200D-01
 4  4 -2.11364596246677400D-02 -6.37760227171585300D-02 -2.21570088684746800D+00  1.29169469143090400D-01 -5.82082302607560600D-02
 4  5  2.99038315050932800D-02 -2.21173871530876600D-01  2.59379368998131300D+00 -1.53912661427723500D-02  8.49022695252029400D-02
 4  6 -1.34600562974384400D-01  4.96982934491831500D-02 -7.15280630936430700D-02  1.71519566158890000D-02 -2.38152212305750200D-02
 4  7 -1.93224289615642200D-01 -2.55387178172590000D-01  5.15624726184433800D+00  3.06033222962030900D-01 -1.24526173583232900D-01
 4  8  8.08121148745928200D-02 -9.52287454822810700D-01  1.68517884779511000D+00 -2.87242669793890400D-01  3.22238682825678000D-01
 4  9  6.82187239789285400D-02 -3.90457406804604900D-01 -4.88861475139132800D-01  1.51625041184154700D-01  6.15681512747133100D-02
 4 10  2.23436207013097100D-01  3.81579007204696200D-01 -3.79729652340748700D+00 -1.52399908394101400D-01  3.20902088851159700D-01
 4 11 -1.23844809655579900D-01 -3.28534777854376300D-01 -2.24439459130660100D+00  4.28050068180415800D-01  5.67041555654079700D-01
 4 12 -8.57882745549961900D-01  2.90841189895882800D-01  7.09750649065826900D-02  1.27372576160869200D-01 -1.29783081886814800D-01
 4 13  5.80522132203292700D-02  2.15104794601078600D-01  2.72219687509733100D+00 -5.91933803230810900D-01 -1.89998219084725600D-01
 4 14  5.12654593496194200D-02  2.05751174234027500D+00  9.69480119775062900D-01 -7.87405819784407600D-02  5.82928497685195300D-01
 4 15 -4.64937485278553300D-01 -1.17991012406642800D-01  8.63012576163066500D-01  8.76132336529830800D-02  1.49020564181410500D-01
 4 16  3.21131718029577900D-01  5.61874462076874700D-01 -4.49261697183545600D+00  1.83860169545952100D-01 -2.74509924896612400D-01
 4 17 -2.46084667497728500D-02 -1.65593414472079000D+00 -1.20267643946265500D-01 -8.57023307086107600D-02 -3.38493141269540100D-01
 4 18  2.02654049347841700D-02  3.18227736334756300D-01  5.79912602397639600D-01 -9.03089618401166200D-02  1.30221823290975100D-01
 4 19 -5.08309710248915200D-02 -5.60948615024716200D-02  8.07435640193351300D-01 -3.40220090685221500D-01  1.15602014443621100D-02
 4 20 -1.23597871981293400D-01  1.06299458297311900D-01  6.48250172155858400D-02 -8.58518015818770200D-02 -3.00312229910599000D-01
 4 21 -2.10276379075356600D-01  1.27818205507145300D-01 -1.83401237240533100D-02  5.54385759717742700D-03  8.87299783003624000D-02
 4 22 -9.42738358975419900D-02  4.54192891810433400D-02  1.92091138638709200D-02  2.37512836855268500D-01 -1.60214364728944200D-01
 4 23  2.66375343462637100D-02  1.33576830382679000D-01  1.23768014761967200D-01 -4.18107327546895200D-02  3.08813208395435800D-02
 4 24 -5.72293416709524500D-02 -1.41992419778575900D-01 -3.48383261629151400D-02  5.25751665979058500D-01  2.40448210820081600D-02
 4 25  1.06661276727529000D-03 -2.18047486261100600D-03 -4.69251632676202000D-02 -2.71211826403311200D-01 -4.33513936623086300D-02
 4 26 -4.70879646027611500D-01  7.23290488428298700D-02  1.04942610367086100D-01 -1.06361533847470100D-01  2.77894693349973400D-02
 4 27  7.85720645124718500D-02 -4.64129565456108700D-02 -1.15157455991637400D-01 -6.08128926071517300D-03  2.31814964879264100D-01
 4 28 -6.62052899717609400D-02 -1.65609674907503100D-01  3.53138792191862300D-02  1.13720305069058200D-01  3.93460566336452900D-02
 4 29 -8.41749725805241400D-01  4.67085395337263000D-01  4.36185362551332300D-01 -3.00213793437705700D-01 -6.09630480632901400D-02
 4 30  4.93178384642212700D-01 -4.43672403684010900D-01  1.75009964984651600D-01  5.03879899362468600D-01 -2.34759677798891000D-01
 4 31 -6.32313837393894400D-01  5.43235368954165000D-01 -5.26223897150421300D-01 -4.38735905608478000D-01  9.26659031667490100D-02
 4 32  7.11234506410079100D-01 -5.24677781780150700D-02  4.46929361756469900D-01 -1.33158244532475500D-01 -3.61215103367566000D-02
 5  1  1.33999065871010500D-01  2.89465981256798300D-01 -4.40308058003891800D-01 -1.72001800881573600D-02  2.22976500043522800D-02
 5  2  1.39843365969594900D-01 -7.54490182011270700D-01  4.62449898792641100D-01 -9.81564684584890700D-01  2.28922464519753700D-01
 5  3 -8.73649086088444900D-02 -1.41557555910908900D-01 -7.34413487726015100D-02 -1.53830717909864900D-01 -1.49017008379539400D-01
 5  4 -1.06402949735886400D-01 -2.22903220948580800D-01  2.59098496313994400D+00  2.03984592909646800D-01  8.89349543165797000D-02
 5  5 -1.71353292886338600D-01 -2.97764912622125000D-01 -1.66367939809958100D-01  1.06888029017884900D+00  1.62771582198918700D-01
 5  6 -1.41654702493324500D-01 -2.11168797055948900D-02  3.24136278790747400D-01  1.95695743860421000D-02  1.55572245842585800D-01
 5  7  9.80140817371435700D-02  2.23559332470641000D-01 -2.09435960081119300D+00 -1.48947605525584900D-02  1.28676009236270200D-01
 5  8  4.51789052716769800D-03  1.64356951465769500D+00 -3.98034966744405400D-01 -5.60214275756557400D-01  7.04131297545341200D-02
 5  9  2.38434777268525400D-04 -7.06515645318032400D-02  1.08660826317591700D-01  2.79275027184220800D-01  4.47825290322818900D-02
 5 10 -6.49835605003323800D-02 -1.86783645776739900D-01 -1.41904756034697900D-01  1.64298278158457700D-01 -5.75766467867789200D-02
 5 11 -1.13980808210106700D-01  1.75769691822603000D+00  5.22337424530599900D-01  4.60714270767501700D-01 -6.34006769274057200D-02
 5 12 -9.99487985274694100D-02  1.63349475454874700D-01  2.87322289456888400D-01  2.58156406866283300D-01  1.17565577377433900D-01
 5 13  9.43223386091885900D-02  2.96240175707712600D-01 -7.52905399067380900D-03 -6.47703274042815600D-02  2.98964170785702900D-01
 5 14  4.39904677456341000D-02  1.61591105009232200D+00 -1.50989925771314700D+00 -5.06653962506195100D-01  2.49111774708723000D-01
 5 15  6.25073633524188700D-02 -3.11619138061141900D-01 -2.16059064686272900D-01  1.72267028630576700D-01 -2.90565617668703400D-01
 5 16 -1.70214789236796800D-02 -9.55090135527815700D-02  7.51875783598974300D-01  1.81909333953132400D-02  2.92456114155050400D-01
 5 17 -1.14802063419159000D-02 -5.76824659163076200D-01 -1.17872225571278300D+00  6.36442729036872500D-01  1.59597705599518100D-01
 5 18 -3.30944131147104000D-01  1.71346425547586800D-01 -1.95114511725817300D-01 -1.00668819804307400D-01 -2.37722932329286200D-01
 5 19  7.96139592055171700D-02  1.44314983682489800D-01 -4.49480055277074900D-01  4.77225905657870500D-01  1.97926193655767300D-01
 5 20  6.31538551868501300D-02 -1.92877602974599200D-01 -2.60536234477576100D-01 -4.54781338640414200D-02  5.56537267510740100D-01
 5 21  2.92139942201020500D-01 -2.62455991333545700D-01 -5.69256198037501400D-02  8.57078466049464200D-02  2.02729872861961800D-02
 5 22 -1.05980833891141800D-01 -1.25013764657598400D-01  1.03183209017647800D-01 -1.02052255280049800D-01 -1.28597389132409800D-01
 5 23  5.82260180123538200D-03  1.22774787331175100D-01  9.03169111749310600D-02 -4.02156262696796000D-02 -5.51620311593451700D-02
 5 24  9.58823860816321600D-02  1.95723822319514200D-01 -7.40588225515901000D-01 -6.82466822882731200D-01  6.88247397056043500D-02
 5 25 -5.10771836781738600D-02  2.01858923075788300D-01  4.48652581777348900D-01  3.60009818295743000D-01 -5.79691145051399300D-01
 5 26  1.13952545828956900D-01  2.63118786676426900D-01  5.99748448508175200D-02 -2.38395465769171100D-01  9.16033861865735300D-02
 5 27  1.46792079582597400D-01  1.06193809214728600D-01  8.82049409487097900D-02 -3.79802146345545200D-02  1.70895338747017000D-01
 5 28 -1.47993858452948600D-01 -2.29014802940685000D-02 -2.48385660174258000D-01  6.02214481727235200D-02  1.82799457211015100D-01
 5 29 -3.58168147184102400D-01 -3.41796383112621100D-01 -4.14147063235639800D-02 -7.52354854095125900D-03 -5.89139617202579900D-02
 5 30  3.76918900811565900D-01 -1.20929418865159100D-01 -3.72276701725642600D-02  1.82134383502817900D-02  1.13862214805889900D-01
 5 31 -1.74256803576024200D-01  6.96217231061491700D-01  3.74550200300009400D-02 -1.88465499081694100D-03  8.05905333086439400D-02
 5 32 -1.02734882535888400D-01  8.46667735853386400D-02 -1.32591799037525400D-01  1.38748642330079800D-02 -1.42900900920985300D-01
 6  1 -4.37197622824749700D-02 -1.06491609337933200D-01  2.69605500239066600D+00 -1.29328923778166500D-01  1.00309003914593100D-01
 6  2  1.37872131112300000D-01  1.35263747250471400D-01  2.30307364938313300D+00 -4.03763080862076600D-01  1.21396824763152200D-01
 6  3  1.32560148779016100D-01 -2.53956973542167100D-01 -1.08289411724965300D-01  2.67519916044785500D-02  3.36544911900702500D-02
 6  4 -1.08998188291611200D-01 -1.73576587911164300D-01 -4.68177053251073400D-02 -1.61093353871204700D-01 -2.79456609264921600D-03
 6  5  2.44035696728017700D-02 -1.19684248702744300D+00 -2.25670176180580900D+00  4.15916769282676700D-01 -1.04501198928557600D-01
 6  6  1.04340824011231300D-01  1.60374917325416100D-04  8.92028352431079300D-02  7.34606063551820100D-02  1.26204149445434800D-01
 6  7  9.06052836109628400D-02  1.96845247390283700D-01  8.83471913953453700D-02 -1.16925718612154800D-01  4.63485349386126700D-03
 6  8  1.43595995042259300D-02 -1.54716863153059200D+00 -2.41847217815395800D+00 -1.62117045691075700D-01 -1.19425281294801800D-02
 6  9  8.82470477032251300D-03  3.11782335915576900D-03  3.65028425695555800D-01 -1.51566295780605200D-01  1.73876315683369600D-01
 6 10  1.34398392353898900D-01  1.86318760761324900D-01 -2.75241685276769200D+00 -3.72238260002252700D-02 -4.79418580551247700D-02
 6 11  2.69625721023480000D-02 -1.55781130559712700D+00 -6.93663780973202400D-01  1.39270150321922300D-01 -5.68004882843169400D-01
 6 12  1.85037051888254900D-01  3.82967830954911800D-01  2.98642691892857400D-01  9.47902432076654400D-02 -3.62727870461225000D-01
 6 13  1.14843973933108400D-01  3.06119541231792600D-01  2.51544864633173100D-01  1.74639665196786100D-01 -1.85617222252029500D-01
 6 14  5.47718402797425300D-02  3.90755042010688900D-02  7.49032908110352700D-01 -7.01242252368650700D-02  2.09551701327566900D-01
 6 15 -1.48680241676228300D-01 -6.08714596513373300D-02 -3.68968052867768200D-01  1.87784898849096900D-01  7.80526833314253800D-02
 6 16  2.27550597524763300D-02  3.55079995491535500D-02  4.81578143351806300D-02 -1.45665264512216700D-01 -3.61642696852516900D-02
 6 17  1.39939365345351700D-02  6.28090417711330800D-02  4.36776091365488100D-01  7.11052906531268500D-02  1.37188954506237600D-01
 6 18 -1.27922270969757100D-01 -9.26668353647994200D-03 -4.28064937940822400D-01  2.50359193681858600D-02  7.91118409968924000D-02
 6 19  1.87952021758553900D-01  3.42514497334820600D-01 -1.78439480549335200D+00 -2.27250242638682400D+00 -6.77796619206236100D-02
 6 20 -7.96893720736733700D-02  1.30088542263305800D-02  3.03733773256310200D-01  1.14110874871045600D+00 -2.69496521491579200D-02
 6 21 -2.36182732571679500D-01  6.95671692683841900D-01  2.63969966470461100D-01 -1.65668155310576500D-02  1.46113624261773100D-01
 6 22 -1.29546808730717200D-01 -1.53913711479444200D-01  2.82144785218106800D-02 -5.77839065799042500D-02  7.30129284653942000D-02
 6 23 -3.08882525134438400D-01  2.35869596669042900D-01 -1.34783488837231300D-01 -9.96246307278611100D-02  2.23225344440369000D-02
 6 24 -1.59197962882965500D-01 -2.96681662822117500D-01  1.16542943983537600D+00  2.25915635249905700D+00  1.63041477633132200D-02
 6 25  1.34988402516190100D-01 -1.25459165498776400D-01 -6.14476471456868700D-01 -5.40734001240992200D-01  5.50565296260426400D-02
 6 26 -9.31606495958991400D-01 -3.26903139309403600D-01 -2.90870590905848500D-01  8.85803764957448200D-02 -3.99672213790003200D-02
 6 27 -4.86131551167442900D-02 -1.67694269944083300D-01 -2.39811300182320700D-01 -3.88566376917112800D-02 -7.96076341192154700D-02
 6 28  2.04099691616895400D-01 -1.24492057497680100D-01  3.69814422731501400D-01  3.97950393321264700D-01  1.26059247739508800D-01
 6 29  1.22646236792651200D-01  5.10267072521197300D-02 -4.18536072577159500D-02  1.51026217180110000D-01  2.24219073382269600D-01
 6 30  1.11877735038977400D-01 -3.29012562436327700D-01  1.87330886065247700D-01 -6.68748245003215300D-02 -4.37845638392042900D-01
 6 31 -2.17170285428922600D-01  4.39701208249458900D-01  2.11068234175514500D-01 -1.10109593515520900D-01  1.51220738028487500D-01
 6 32 -3.85111020736521200D-01 -1.03483080161448400D-01 -3.15231734485835700D-01  1.14785621528307400D-01 -4.58177039076309800D-03
 7  1 -2.39250789732022600D-01 -5.22912639187879800D-01 -1.15050822098284700D+00 -5.51763507980924800D-02  4.72008017833815200D-02
 7  2 -6.71688703366263900D-03 -1.63514150443362100D+00 -1.54017254218531400D+00  4.22750380477080200D-01 -7.57184261501217400D-02
 7  3 -1.67178088403908200D-02  9.24362349905123000D-02  2.24383000376795300D-01  5.47226072712039600D-02  1.25248202679808700D-01
 7  4 -1.89489501566073400D-01 -3.67817277611736500D-01  3.13354639289670000D+00  1.44175894379292400D-01 -8.54690948567205400D-02
 7  5 -1.35818062240344400D-02 -9.42267015410181900D-01  4.13360254868974000D-01 -4.73989940334177900D-01  9.96004142307035700D-02
 7  6  1.83502640570890800D-01 -2.83103054801594500D-01 -2.72280716322576700D-01 -5.73128619910855900D-02 -6.07678933167416400D-02
 7  7  1.44277128578376300D-01  3.22856311749466900D-01 -1.49557942774025900D+00  1.97102902792299300D-01 -5.16688993475681400D-02
 7  8  2.62777388366765200D-02  1.76843450804184400D+00 -1.45827632133384800D+00  6.17447890994215700D-02  2.14519198147095900D-01
 7  9 -1.12101815303297400D-01 -1.02417382843798100D-01 -2.81867137092560600D-01 -1.32479617086904500D-02  6.18942264031186900D-02
 7 10 -2.69657363839011200D-01 -6.09132088868113400D-01  2.69967024846331500D+00  2.67027604982912400D-02  6.99772999227131600D-02
 7 11 -3.89671664886422800D-02  3.53237967398959100D-01  1.04957959710050000D+00  6.91839694073129700D-02 -1.60752940934327500D-01
 7 12  8.49857421174634700D-02  7.57671988168637400D-02  2.18538240800043900D-01  2.17675540915984800D-02 -6.51118979698137200D-02
 7 13  1.47200959337400100D-01  1.83840229245046500D-01 -2.73717288599331500D+00  5.71727814002312900D-01  7.31633729081591600D-03
 7 14  5.44024207668589200D-02 -8.57392573432536100D-01 -1.55243419685041100D+00 -9.52633370727903900D-02 -6.11474493605595800D-02
 7 15 -3.08311688777021000D-01  3.69459138137580700D-01 -3.55608081301953400D-01 -2.49527528391252700D-02 -1.00212513229409400D-01
 7 16 -3.11803666036798900D-02 -3.05912729729076700D-02  1.19099254157595100D+00  3.32754350326642400D-02 -5.16814966867392700D-01
 7 17 -4.54658636033548800D-02 -4.53293595365112700D-01 -9.34461500426165900D-01  2.09773225451479600D-02 -1.23358831192387400D-01
 7 18  1.60522723236328700D-01 -3.71638920439410500D-02 -5.17206861095329700D-02  4.62601343219696200D-02 -1.00793745164602600D-01
 7 19 -9.78876287462369400D-02 -1.16998661749021300D-01  1.33444314530097300D+00  1.61170211608011900D-01  1.04288481953805500D-01
 7 20  1.49252201327447400D-01  4.41129952995282400D-02  4.14674874608730500D-02 -8.95371041140641300D-01 -1.89197120830490300D-01
 7 21 -2.40890815031957800D-01  4.79257660097602300D-01 -1.76142915794005800D-01  5.59469297761539500D-02 -4.92233466484236700D-02
 7 22 -6.72358312772968900D-03 -2.88527186945493900D-02  3.85165042234586600D-02 -4.87342339551817300D-02 -1.42113873865030000D-01
 7 23  4.90111407339916200D-02  9.31027331310389900D-02  1.42063615734508000D-01 -7.49793082549797700D-02  2.02351829887833000D-01
 7 24  9.35942725626564800D-02  1.64833673895736400D-01 -6.85780819980935400D-01  6.22456644574043800D-01  5.32435504552463300D-02
 7 25 -1.66881928745355700D-01  4.05908952725951100D-02  1.02845377171146800D-01  3.24412418752784300D-01  5.42282930149797400D-02
 7 26 -2.09571143468116700D-01 -1.05654867255816300D-01  2.56825248653525200D-01  3.99529303138487600D-02 -3.60340649719697300D-02
 7 27 -3.91886534187932800D-03  8.94848181120187600D-02  6.99149254290511600D-02  8.05699888949401800D-04 -2.36693481392948500D-03
 7 28  7.97214134693933200D-02 -7.73544786554638400D-02 -2.63129537569553200D-01 -2.61235360409009800D-01 -1.16162094366881900D-01
 7 29 -6.19932680136851000D-01 -1.20509673410268800D+00  4.09823799849453100D-01 -2.36212611589028300D-01 -3.84469192309190900D-02
 7 30  1.80592619869862700D-01 -4.45557741826210800D-01  8.64541277394547900D-02 -1.31968584992139500D-01 -5.40545421598419000D-02
 7 31  4.34027324243957000D-01 -3.41523002554675900D-01  2.74021155808916200D-01  1.71354720338605200D-01 -7.95927252486482200D-02
 7 32  5.83586500940940200D-02 -3.45056556160789300D-01  5.73802922199634000D-02  4.54065511847560700D-02  8.44646910837114600D-02
 8  1  1.35662466003157800D-01  3.11045760882412800D-01  5.94203434116125200D-01  2.12762493849873400D-02  3.61113258037826400D-01
 8  2  6.85395744008081600D-02 -2.18840250688315200D+00 -2.73390799207681900D+00 -1.06033474828325000D-01 -1.00203707124751500D-01
 8  3  2.44248865207430400D-01 -1.44045158082679400D-01  2.06564668957261200D-01 -1.24899224888977300D-01 -5.94471030723130900D-02
 8  4  3.85068128293370600D-01  7.30691395129807100D-01 -1.85541320137930800D+00  3.08881589822548000D-01  1.82076910687647500D-01
 8  5 -6.25783424507171300D-02  7.50851964155818600D-01  3.44038707343466900D+00  2.03969013200545100D-01  2.12052580571469000D-01
 8  6 -8.77394658856498900D-02 -1.24313114685817700D-01 -2.94555454566061000D-01 -6.05972569001941500D-03  5.17310810214107000D-02
 8  7 -1.68411374370408200D-01 -2.78678156137037100D-01  4.48852036830534800D+00 -1.49529086107638200D-01  9.34822885713151400D-02
 8  8 -2.69738679058209300D-02 -1.34155575491813800D+00  1.84192577792957400D+00 -2.60415416326887000D-02  3.75068151279298300D-03
 8  9  7.74263530134532800D-02 -8.11770345262452200D-02 -2.91642214744595200D-01 -2.95010488561771300D-03  1.90142046135220200D-02
 8 10  3.00801180065968000D-01  5.33208924515443800D-01 -4.76209273161597400D+00  2.02733234285496100D-02 -1.24793593344351000D-01
 8 11  1.01676473975789700D-01  9.34627101627701800D-01 -1.86410457991970300D+00 -1.00309401357018300D-01  1.18672675376189800D-02
 8 12 -2.68562729622474700D-01  2.56695462084856900D-01  4.90615270624437500D-02  1.92344500221466900D-02 -5.66195546698840500D-02
 8 13 -2.68860688565114200D-01 -4.90702761432948900D-01  4.64441560396175300D+00  3.44024527713908200D-01 -1.60464707343252000D-02
 8 14 -1.12093424541699500D-01  2.25029270280041600D+00  5.76571677258284500D-01  3.95169242221664100D-01  1.49876104823886100D-01
 8 15 -2.77795165060097600D-02 -1.22096588317879700D-01  1.42876586720884600D-02 -6.67576270093542700D-02  2.27238449980122700D-01
 8 16  2.12645488560549100D-01  3.95846707327494200D-01 -4.53312546974422100D+00  1.51712567726085700D-01 -1.67290050449377900D-01
 8 17  1.00091289435659900D-01 -2.78773473977954900D+00  8.24658030762708700D-01 -3.81614828585490300D-01 -1.29517404476484000D-01
 8 18  4.11313049594779100D-02  8.83860995170068900D-02  2.03459133778820400D-01 -1.14005693908956600D-01  1.33876347268426900D-01
 8 19 -7.36911288335543000D-02 -1.64707690333035100D-01  7.30920993675434100D-01  1.10535815099284700D+00  2.42203032667464900D-01
 8 20  1.20195948746634700D-01 -8.90993471602792600D-02 -3.11195943297680300D-01  6.81839121279029400D-02  1.70923102741566900D-01
 8 21  4.92430273171509800D-01 -6.22370636297883700D-01  1.17537377922282200D-03  1.78094159918143600D-01 -1.69619832712470300D-01
 8 22 -8.47432720567521800D-03 -4.61331508439466300D-02 -6.24257619989975000D-02 -1.22134662751155700D-02 -1.90626226612905100D-01
 8 23 -8.50696109748555000D-03  1.99133187710388600D-01 -2.70916784847675800D-02  2.34828571464711900D-02 -1.23593500253719000D-02
 8 24  3.13629159811724700D-01  6.21523008672550200D-01 -1.78006099608263600D+00 -3.25793923590778400D-01 -1.04837460280960100D-01
 8 25  1.04176786984604600D-01  4.89418585608528100D-02  8.42788729353431700D-01 -1.10384973477472300D-01 -8.01117897372645200D-02
 8 26 -1.46918185841330700D-01 -1.29732044792991500D-01 -9.63702490888617300D-02  1.34742403162200500D-01 -2.64313930865460900D-01
 8 27  1.29571527703260100D-01 -1.73465886805911300D-02  6.12966667682636600D-02  7.61839111640350800D-02 -2.55591863619629300D-01
 8 28  2.81839275375861400D-01 -2.62474117562319800D-02 -2.62500025361476800D-01 -5.94058120314507700D-02 -5.87928154457016500D-02
 8 29  1.28213592047648000D-01  2.10464932739913500D-01  1.58772103017523900D-01  1.27919614913245400D-01  7.32889974420940100D-02
 8 30  1.17932478501876500D-02  1.38032182431893400D-01 -2.22987466547227200D-02  3.05406740312106900D-01 -1.38358106777957500D-01
 8 31  1.32991178836058800D-01  3.50740600051179300D-01  1.74685194829064100D-01  1.38633912956883100D-01 -3.12448083222425200D-02
 8 32  6.52419889728288500D-02 -9.21757427897248100D-01  2.47002440301556600D-01 -3.37555247037377100D-02 -1.11190913127690300D-02
 9  1  2.85662285876814400D-02  4.81085233974832500D-02 -3.98668143823979600D+00 -2.33049409273865600D-02 -3.74373513724683600D-01
 9  2  1.32326855485787800D-02 -1.71318763509301500D+00 -2.83384124943024800D-01 -1.90497015738080800D-01  2.33428019933143000D-01
 9  3 -1.75128852235238200D-01 -5.82991676979053400D-02 -1.87062661349453500D-01 -6.22861486090067200D-02  2.68225634316246700D-02
 9  4 -8.91458031988914500D-02 -2.17023753010283600D-01  1.23641516119135200D+00  8.96610136954212300D-02  5.47916697476683400D-02
 9  5  1.75934960251918400D-02 -1.78918670634365500D+00  2.37489197173131400D+00 -7.35263581761875400D-02 -1.18218432180915400D-01
 9  6  5.93478635585934700D-02  5.88705686223219800D-02  3.46948396504708400D-01 -1.60178011388603600D-01  1.22322159585889000D-01
 9  7  9.31850658021646100D-02  2.72306610154422700D-01  1.08732099457489800D+00 -2.73852877169489300D-01 -1.96097586956753900D-01
 9  8 -2.62392427777335700D-02  9.79235015203514400D-01  9.64688353418713700D-01  1.02149168399396700D-01  1.91573064459176300D-01
 9  9 -2.81054806607676900D-02 -1.63467583798407000D-01  3.05329548437533800D-01  3.67144076464037400D-02  1.32790429520005700D-01
 9 10 -1.04714826734048600D-01 -2.79598963709553200D-01  8.03216895334861700D-01 -4.38846172055412100D-02 -2.23229707288650800D-01
 9 11  9.42410842417488900D-02  2.79276558232373500D-01 -3.60796926849896600D-01 -1.87553767156486600D-01 -3.67981356945823300D-01
 9 12  2.44614500957118800D-01  1.23366855988705300D-01 -4.42839310923176800D-01  3.81954848322984100D-02  1.52873208156292000D-01
 9 13 -2.17853881821670200D-02 -2.45825623770878200D-03  1.07558716496427000D+00 -3.30570416059441000D-02 -1.12150569112604200D-01
 9 14 -1.36443041203523900D-01 -3.39770448703652700D-01 -3.38645936625654400D-01  2.74471945103216900D-01  5.89149298736576000D-02
 9 15  2.96672495541937000D-01 -3.55587425415596100D-01  1.03869580295486400D-02 -4.43132045384382500D-02 -6.61185164904082700D-02
 9 16 -2.35837309258992200D-02 -3.29738334078428400D-02 -5.46616172159306000D-01  1.16455476585130900D-02 -2.34671204159575800D-01
 9 17  8.84111023896895500D-03  6.75189410531644800D-01  3.78745077501004300D-01 -9.38306014238344300D-02  8.46980547822377400D-02
 9 18 -2.14541324209033700D-01  1.29843269426795100D-01  1.52688820080867300D-01  1.10484169482214600D-01  2.92259237442777800D-02
 9 19 -1.38219988071796300D-01 -2.33140503891203700D-01  1.33299845748127700D+00  3.98888088446254500D-01  5.09003181773344200D-03
 9 20 -6.00119955680261900D-02  1.00765429446816600D-02  3.22834969865646100D-01 -8.22622580558555600D-01 -3.66866033904478500D-02
 9 21  1.52191732561855600D-01 -5.40636032293888100D-02  2.66855090079420500D-01  5.11309183918682000D-02  5.76487246564334800D-03
 9 22 -5.68957908575109000D-02  6.77197721186163600D-02 -1.60819014992442200D-01  5.44735391608733100D-02 -3.85391235523549300D-01
 9 23  3.02836923330017700D-01  8.25543121935320100D-02 -3.62589011700963900D-01  2.17680216988549600D-01 -1.18569198142786600D-01
 9 24 -1.25465264276676900D-02 -1.81865967358231200D-02 -8.26770913082237200D-02 -2.73535417366667300D-01 -6.10831094973194700D-02
 9 25  6.13709686844152600D-03 -1.48403409221104800D-01  6.06486935719657100D-01 -4.21982442606617500D-01  3.16724301646710900D-01
 9 26 -1.26775180423450300D-01  2.45806527979067300D-02 -2.47832050226444900D-01 -2.44126420790282300D-02  4.10957979331416900D-02
 9 27 -1.66831558541133100D-02 -3.49469660946630200D-02 -6.79446893828622900D-02  3.01324197196139500D-01 -2.29242801086451400D-01
 9 28  2.65476220387607900D-01 -3.62334193011565200D-02  3.43760231981292300D-02  1.98556218632465100D-01 -3.36399927348830600D-01
 9 29 -4.69662495551842600D-01  3.47150171668360500D-01 -9.87270912535828000D-02  1.16799771771284000D-01  5.77737651622239300D-02
 9 30  1.15330427983502900D-02 -7.09970985885647600D-01 -2.75656051249971100D-01 -2.41554985836976800D-01  4.39043341875727900D-02
 9 31 -2.77970717736860800D-01 -4.31945899865634300D-01 -2.22295616182646500D-01  1.53065194529523100D-01 -6.28842168001434900D-02
 9 32  1.95050699090320200D-01  3.52769981191169400D-01  1.29459570877815600D-01 -1.45564185910205900D-02  1.39897391230190300D-01
10  1  2.67970772687842300D-02 -2.60421413561641300D-02  9.07637668452345700D-01 -1.80760788250854500D-02  2.86301919182260200D-01
10  2 -7.68461763404938300D-02  2.49859215442771600D+00 -3.79152794785956100D-01  2.14140520885751900D-01  2.31441595981273500D-01
10  3 -1.57616887392069500D-01 -7.38247085892042200D-02 -1.66153606194927700D-01  6.57958576222466000D-02  5.98119367135267300D-02
10  4  1.46170426042803300D-01  2.18845904380180500D-01 -3.19636394347826300D+00 -1.42103755449159800D-01  1.30120402764292100D-01
10  5  7.09643962486597000D-02  1.14345743268446200D+00 -1.33752627679315100D+00 -9.38263754919001400D-02  1.23767906415689100D-01
10  6 -2.54808084891417800D-01  1.31040178475729500D-01 -6.49464839633173100D-02 -9.08548724064751100D-02 -1.75137967256904700D-01
10  7  1.90872933987996300D-02  8.98617743131236000D-02  6.43915853421594500D-01 -1.25776320919268100D-01  2.44957484585182000D-02
10  8  1.46568245920682600D-01 -2.83570793942250100D-01  1.58922377152052000D-01 -3.50148455844791500D-01  1.58710429502068300D-01
10  9  1.14979032786536600D-01 -2.73689462288605700D-01  1.00683411218911500D-01  1.20489994704773500D-01 -2.02634037700141400D-01
10 10 -8.28052010260444300D-02 -1.68896875851436000D-01  2.27267163825187600D-01 -7.96873819317855900D-02  4.96595378614911800D-02
10 11 -1.47287206688431500D-01 -5.94202331325038700D-01  1.81450006216649000D-01  5.99378193106066700D-01 -1.89128888920951000D-01
10 12  2.25909019356930000D-01 -3.67801304359783500D-02 -4.50318192233062500D-01 -1.14067885856969300D-01 -2.47244858530171600D-04
10 13  1.03456368128368500D-01  2.07853068443562000D-01  2.74617656942726300D-01 -1.33949803133502900D-01  1.46623724390423500D-01
10 14  1.12012040880447900D-01 -5.79111045616620700D-01  9.85423826410266200D-02 -5.02246564345057400D-01 -3.17561332201520400D-01
10 15  2.26817398367025000D-01  9.07439338344954900D-02  4.64975700684614500D-02 -1.58210097552087100D-01 -2.18031453639470400D-03
10 16 -2.22522938106102200D-01 -3.97518862058552800D-01  2.03429349362259700D+00  8.34205727014924500D-02 -7.10332238041371000D-02
10 17 -8.70141240771665500D-02 -1.00631856494968900D-01  1.96777781577220100D+00  3.02279089038464700D-01  5.18947433236813500D-01
10 18 -1.73072424980165000D-01 -3.45875008256649800D-01 -7.41521239189785700D-02  9.26496932404774800D-02 -7.13974457463942800D-02
10 19  1.58868947378705800D-01  3.27822770220693300D-01 -4.79413793210209800D-01 -1.99397277453861600D-01 -5.58063781534875400D-02
10 20 -1.19877002187239100D-01 -1.53601301783814000D-01 -1.41178708956743800D-01  4.61429055692148500D-01  2.68383527089839700D-01
10 21 -1.42657260629540800D-01 -4.47502885823611100D-02 -4.91857674052989900D-01 -3.70835354178825500D-03  1.56632101289660500D-01
10 22 -1.52923747747872300D-01  7.53302817128702300D-03  4.77151071092394200D-02 -2.26190430738308000D-02 -4.47301120248315900D-03
10 23 -2.58359081126152300D-01  2.62832092328635200D-01 -6.81947638914888000D-02 -2.61653570578009500D-02  1.38751947055223700D-01
10 24  4.86961349237069400D-02  1.32189083129320500D-01  1.39338473115085500D-01  5.83564985707199700D-01 -2.18310761822641300D-01
10 25 -1.05832778521448400D-01 -5.10064620201542600D-02 -8.96241530569654400D-02  2.19572853820422800D-01  1.05895445435735600D-01
10 26 -5.12570020224298000D-01  2.36236238201986300D-02  2.09018103013251900D-01 -1.09049436050211900D-01 -1.00896720627615700D-01
10 27  2.09946156677827300D-01 -5.01029887540203500D-02 -1.90092646584656300D-01 -9.47658029385578000D-02  2.89955174481147500D-01
10 28 -1.54130543960035900D-01 -1.35824630521111700D-01  5.39211926369071900D-02  4.15525965134293600D-02  3.05706994375938300D-02
10 29  8.46110119575867000D-04 -2.23169722011007000D-01 -6.10744613465213200D-02 -2.18155994534398500D-01 -1.55818279075727500D-01
10 30 -6.37126949690220300D-02  1.63816272722988300D-01 -1.44288093505699700D-01  3.60638902148185500D-02 -2.34101661890859100D-01
10 31  4.34353693985272100D-02 -3.89262175533138400D-01 -1.86075299374575600D-01  8.98760333989519200D-02 -2.14501066340581400D-02
10 32 -6.20386194818060600D-01 -7.51937137599728700D-01 -2.77167222056009800D-02  5.28102555418049900D-03  4.35914355791498000D-02
11  1 -6.48359646324844600D-02 -1.77780716123016400D-01 -2.75426970627588900D+00 -7.31683440901450500D-02 -1.93117334283454000D-01
11  2 -7.52201299127718400D-02  1.04565461230646100D+00 -1.65695974170474200D-02  3.58858308795330300D-01 -1.90977874599773100D-02
11  3 -1.71182319783608700D-01  1.90280107243586700D-01 -1.80961094377541100D-01 -9.66924315002221500D-02  3.69374078237082900D-02
11  4  2.28153263151124500D-01  4.31055035782841000D-01  7.71702712682699200D-01 -9.96323085138327000D-02  2.70828705205670700D-02
11  5 -2.30909496922808500D-02  1.46748844236235000D-01 -5.39028990610022400D-01  1.43626283396373100D-01  8.39757151110740500D-02
11  6 -6.73058454661402700D-03 -7.72451305644603800D-02 -2.38347869172236700D-01  1.28233687181122200D-01  8.03886103779442600D-02
11  7  8.14295201423896300D-02  1.19614556705745400D-01 -1.68023633205006500D+00  2.84785377650510900D-01  2.47060592331169000D-01
11  8 -4.46552736685249000D-02  6.29361749374900100D-01 -1.36493255168128900D+00  1.60124184557038600D-01 -1.08222842381780900D-01
11  9  1.90638411305770300D-02  8.91590012512042500D-02 -1.00054873059398900D-01  3.01912920626831600D-02 -7.13027445266453700D-02
11 10  8.59441427230400700D-02  2.80304870684703700D-01  1.21465444607495300D+00 -5.82026315389231000D-02 -1.28096245070716600D-01
11 11  1.21834658511924800D-01  1.16340677927004900D-01  1.27786079114014500D+00 -3.08820743765942200D-01 -2.32761038880164000D-02
11 12  2.88780468640077100D-01 -2.65504364752060300D-01  1.45660813669539900D-01 -3.24649104119220600D-02  2.97049402178970500D-02
11 13  3.50908286201810100D-01  7.28610493257806200D-01 -2.83910029083885900D+00 -3.03922852358138300D-01  3.39216788112083700D-03
11 14 -1.03784574637119300D-01  5.91868359343372700D-02 -2.71289245938172600D-01  4.58777798441165600D-01 -2.79262473596922500D-01
11 15  1.69612170665185700D-01  1.09650302931737800D-01  1.09786932924444700D-01 -1.76367181339000000D-01  8.18008379134312300D-02
11 16 -6.68147759203611800D-02 -1.05337296637468400D-01  1.89856202811784600D+00  3.69468216474510700D-02  1.27516147215664800D-01
11 17  3.81689689197877800D-02  1.07616141593785900D+00 -1.65939565713302700D-01 -4.89497567656553700D-01  2.25344189722416500D-01
11 18 -9.31419503859225300D-02 -1.32202239336494300D-01  2.32684804072726400D-01  1.12200647733611200D-02  3.66740772976903800D-02
11 19 -3.59360508290298000D-03  6.14253026900655100D-02  5.50216206150974100D-01  1.03748073670759300D+00 -5.31653272924226900D-02
11 20  1.04024706628415500D-01  8.47872975611710200D-02  4.27664665243551500D-02 -9.65183816434519100D-01 -2.56325411145937300D-01
11 21 -1.28057697413068500D-01 -2.58522659946595900D-01  1.22534015783644300D-01 -9.92538808509609200D-02  6.21809963743247100D-02
11 22  3.70728844766371100D-02 -2.25869127464775400D-01 -6.42078362569155500D-02 -3.63658785642430900D-02 -5.03476691474884400D-02
11 23  2.48746413232095600D-01 -1.98398744084606200D-01  1.95218930282061200D-01  1.46051155997893100D-01  1.06166163130106500D-01
11 24  9.13631363822812700D-02  1.87755293354902900D-01 -3.22815059084237600D-01  3.75736133910346200D-02 -2.09197225322913100D-01
11 25 -1.73981807595838200D-01  1.37292339599649500D-01  3.85019784972857300D-01  3.85410107828330900D-01 -2.88354115036392100D-01
11 26 -1.55743520411288900D-01 -3.99102819409401700D-01 -5.97248372678519000D-02  2.37841364644560500D-01 -8.02497231110924200D-02
11 27 -1.57591641533467800D-01 -6.19053490723187700D-02  9.81050569205401500D-03  4.29790187743853000D-02 -2.86330509365931900D-01
11 28  3.23420950376920300D-02  2.53988414328239700D-01  6.94790676707178900D-02  1.03347297006162200D-01  6.12580062585697000D-03
11 29 -1.29608856253479000D-01 -5.76622002806308200D-01  1.00353684850431400D-01  2.95955235865061400D-02 -1.12330153603820000D-01
11 30 -3.76135276246385600D-02  7.49134254536701200D-02  3.48853440962546200D-02 -2.76544705134824500D-01  4.71385738837635700D-02
11 31 -1.93295047156055300D-01  1.13992357669507400D+00  1.06791817203166100D-02  1.50136796497867700D-01 -1.66460785828041900D-01
11 32 -1.83390713795200500D-02  4.13101701450467300D-01  1.71126694042456500D-01 -9.39547358842646200D-02  1.73728878778199000D-01
12  1 -3.22325452721403200D-01 -6.14189729811377900D-01  3.05644457544902100D+00 -8.98821686374741800D-02 -1.72702802236709100D-01
12  2  3.63664082296238200D-02  7.61328789740095000D-01 -1.13171859871885000D+00  1.30896492211541300D-01  7.75269238022624600D-02
12  3  7.52027763671690600D-02 -1.52729700169432900D-01  1.70508430711324700D-01 -5.48454491832170100D-02  9.60653720420086000D-02
12  4  5.90023863964061500D-02  7.49489762493112800D-02 -2.65436412374473600D+00 -3.97654169642762600D-01 -1.01639548860440700D-01
12  5 -2.14585173158679900D-01  2.22338783899067900D+00  1.26887269039825700D+00  7.89160424638995200D-02 -7.67833939226097700D-02
12  6  1.86010983023985600D-02  5.81822956202119300D-02  6.42046810200267900D-02  4.61328744468130600D-02  6.66972351092894300D-02
12  7 -2.36782513608081400D-01 -5.06254659742016200D-01  2.01198112614272600D+00  4.37816894681911600D-02 -1.72769912406684800D-01
12  8 -3.19713781243031700D-02 -7.54077215998353200D-01  1.76939010123005900D+00 -7.67143478375902800D-02 -8.17030303612422700D-02
12  9  7.86607992082705700D-02  3.04223115297226200D-03  1.51548988349387900D-02 -5.79906023367704300D-02  1.22937023211733100D-01
12 10  3.14615435112959700D-02  5.07194844157674200D-02 -8.43804308943822000D-01  1.29540226909710600D-01 -2.07395285855138700D-01
12 11 -7.00093938987369900D-03  5.01452444263808000D-01  1.49318215119211800D-01  1.06161839724678100D-01 -1.45016012110809600D-01
12 12  2.16280473613674900D-02  1.23387964749444700D-01  1.00150446011373900D-02  1.17739188977958800D-01 -2.71518977949751300D-01
12 13 -3.04892874365234700D-02 -3.10751738184170900D-02  1.27382920273930300D+00  1.21943578706115200D-01 -2.90173651302521500D-01
12 14 -5.18795531407036200D-02 -2.60267049002873700D-02 -2.30486338362406500D-01 -4.98394409888945100D-02  1.54015480836344600D-01
12 15 -7.70794315505716300D-02 -7.69360492857736900D-02  1.70768803655165100D-01  7.88943056632176700D-02 -2.58278900511225500D-01
12 16  1.33515809349597100D-01  2.91171670766039900D-01 -1.22044227937369100D+00 -1.85321888311627900D-01 -2.28563900024006700D-01
12 17 -2.78370652695454400D-02 -6.95765549464761700D-01  3.18952810075107700D-01  1.39567053329803200D-01 -1.22742096623114000D-01
12 18  1.74791649664764200D-01 -5.20495530416502900D-02  1.38693933240231100D-02 -8.32683637911789100D-02 -2.02851699041574800D-01
12 19 -5.57908403472368400D-02 -1.14294947353997100D-01  1.25136582131986000D-01  7.94600530691462900D-02  3.82248968945015200D-02
12 20 -1.60308180290004500D-01  7.11504376850755600D-02 -2.30364148333701100D-01  2.28040647812161500D-01 -2.05769823801727000D-01
12 21  4.86993769555406800D-02 -1.10771475003674000D-01 -1.54368828385013400D-02  2.27099045748950600D-01 -9.18952573846511500D-02
12 22 -1.35203788364299400D-01  1.65482083138966500D-01  6.67239460218748000D-02 -5.70446418816445100D-02 -2.68968504440481300D-01
12 23  1.69596043665377400D-01  9.93724607751032700D-02 -1.91431126145816300D-03 -7.76152432764536900D-02  2.06144093404368800D-01
12 24 -2.12301391586085400D-02 -3.59202024379546400D-02 -2.02847057033681000D-01 -1.39410040356088100D+00 -1.79856634063367900D-01
12 25 -4.76489628650541700D-02  2.62079628084544400D-01  1.77396642820138100D-01  4.58173755519018700D-03 -3.99738145414428100D-01
12 26  3.84314436077298400D-01  2.45920990358873100D-01  2.19317105539627200D-01  1.52443582218823600D-01 -2.63272907912098600D-02
12 27 -1.26116291427613800D-01 -5.14847016118193600D-02  2.96466848124069800D-01  9.34919057093440100D-02 -1.49706420641452900D-01
12 28  3.13307820985631200D-02  1.18375638542889700D-01  2.64267940931041100D-01 -4.22877070896557800D-01 -1.37250911939547200D-01
12 29  5.64299320966665200D-02  6.83334032744399000D-01 -5.67256050714238100D-02 -1.31905994423459500D-01  5.74008064080876200D-02
12 30  8.79456772253521500D-02  3.53695149379857900D-01 -1.51260575258641600D-01 -3.50814107434243100D-02 -3.04986680130502100D-01
12 31 -2.53764551040499100D-01 -3.47864374612368900D-01 -1.33990050635893600D-01 -1.00976722716849400D-01 -2.12217584600525000D-02
12 32 -2.08958544581048700D-01  9.51885065545311500D-02  5.76698935879860000D-02 -1.37850315971902300D-02 -5.80542243981798200D-02
13  1  3.29024099391391600D-03  5.02314232872909100D-02  1.58234760629849300D-01 -6.83570867718587800D-02  1.66530080781380600D-01
13  2  1.05793105539414000D-02 -3.74407562355595400D+00 -2.00460525050909600D+00 -1.11185363327786000D-01 -1.91175239417164400D-01
13  3  1.91034055129080400D-01  1.41184288083115400D-04 -9.98775510840308200D-02  2.88309708111903000D-02 -1.70960799525872600D-01
13  4  3.14678414753075100D-02  7.13444273644180800D-02  6.83486737641349900D-02 -1.58801840992950700D-01 -1.82583267690924900D-01
13  5  3.99427983808975400D-02  6.49888826830786600D-02  4.19102179183026900D+00 -8.43689231917356400D-02 -7.72515702360550300D-02
13  6 -1.08500386464717100D-01  1.85751956700773100D-01 -1.65674046819381700D-01  5.93869385293136300D-02  5.11320651332167800D-02
13  7  9.37697445363327000D-02  2.94519221024549700D-01  4.25008996781880900D+00  1.71355771937712400D-02 -1.47249300566378100D-01
13  8 -5.92098924558748200D-02  2.83754269989060100D-01  1.65449020461689200D+00  2.71850595691356900D-01  3.02994272219909800D-01
13  9 -2.16771915765912900D-01 -8.62223564539954000D-02 -2.88572021779779500D-01 -1.88714201646002900D-01  5.67481471681696900D-02
13 10 -1.24691818557043000D-02 -1.02859195626023600D-01 -1.31542242518720800D+00  5.16319343499147500D-02  5.38538512244887100D-02
13 11  1.27705263830923000D-01  1.12626139120269500D-01 -1.49115752816388700D+00 -5.13292452955312600D-01 -2.05713639880510000D-02
13 12  1.95127809666936800D-03  1.86200858913833700D-02 -3.89319376453224300D-01  9.46729950253839100D-02 -1.33190768368739600D-01
13 13 -2.30079733453797600D-01 -4.05115469687832400D-01  2.92510570052872000D+00 -2.38049731490082900D-01  1.46065492335319800D-01
13 14 -7.50255257060980500D-03  1.51288958604873300D+00  1.15117000953242200D+00  2.50582948990013800D-01 -5.80575572120109300D-02
13 15  1.30116997980670500D-01 -7.20594407686616200D-02  1.90444682633979000D-03  1.52602718396721500D-01 -8.62536236015757400D-02
13 16  9.13731269721305700D-04 -1.39801816667006200D-01 -4.91940147170111500D+00  2.88344636586174900D-01 -7.32199545188249700D-02
13 17  7.19335929631399500D-02 -1.66805219085857000D+00  1.60991597536007400D-01 -3.23970166704228800D-02 -9.71974062612401300D-02
13 18 -1.86112868805169300D-01  2.83310275066408900D-01  1.70055540998429500D-01 -1.26694948155747200D-01  1.98562222278449600D-02
13 19 -5.70798161483033200D-02 -1.29138965532616700D-01  5.75429233961285200D-01  8.69742851968521000D-01 -2.73097945204072700D-01
13 20  2.05920825256067100D-01 -9.35623363155349200D-03  8.97526808601354000D-01 -2.80887269645128200D-01  8.56362385437055100D-02
13 21  4.57984123474356000D-01 -3.36769236609699700D-02  1.03278544345018100D-01  6.94105266342564700D-02  1.02025301847343200D-01
13 22 -1.71435828481600300D-01  2.30552573595908200D-01  6.94972513973855600D-02 -1.31119727541330300D-01 -6.48981858057241800D-02
13 23 -4.39964870999749900D-02  1.08894672905697600D-01 -5.72086168440648700D-01 -5.75116631803738800D-02 -3.76848247479148100D-02
13 24  8.76688192898163600D-02  1.73572870962310300D-01 -7.58948006425314600D-01 -1.16170003857006200D+00 -2.14517788615783700D-01
13 25  1.21280513453716800D-01  4.72192425227795600D-02  6.07243672731920900D-01 -5.10133781639489700D-01 -1.00689661427632600D-01
13 26  3.02552564878805400D-01  5.58989121860189000D-02  3.03574704327542600D-02  1.56734265371252900D-01 -1.99297544799391100D-01
13 27  4.25632794281384200D-02 -8.98902547002978400D-02 -1.35138694912197000D-01 -9.44226953113347500D-02 -1.26584718480192700D-01
13 28  1.93281965174597200D-01 -6.66972466944043400D-02  2.24288283760635100D-01  6.04752200000893000D-02  8.95349992764241900D-02
13 29 -5.70776727515740900D-01 -2.38333272425631700D-01  4.14253029210899700D-01 -4.57269712605753600D-01  1.18046011596823300D-01
13 30 -1.07049787158255500D-01 -3.42725903863979800D-01 -1.71156962744283900D-01  6.38018854030327900D-02  1.08454344699281600D-01
13 31 -1.90033944478843700D-01  6.93234866344058400D-01  4.04459749392570100D-02 -8.51384537327393200D-02 -1.33627880863947800D-02
13 32  5.50563505701536700D-01 -2.59501050147486600D-01  3.84670030676250100D-01 -8.58867167702550800D-02 -2.31982054611999600D-01
14  1  7.83612455352680500D-02  2.09944773564598100D-01 -4.19966328868022600D-01  6.67878067696807300D-02 -7.65570275179336100D-02
14  2  1.72241918596434300D-02 -1.20966609558579600D-01  9.51298262360308000D-01 -3.45169656403078400D-01 -9.82811554018948300D-02
14  3  1.36361333159485100D-01 -3.80801777575895500D-02  4.29308512560149000D-02  1.65593708435748600D-02 -2.86131315470911300D-01
14  4  1.01015207756572000D-01  1.76261368440110000D-01  3.45966544411319500D-02 -1.53158496933466500D-02  2.79926875309333300D-02
14  5  2.88887898127453900D-02 -1.11711982718812100D-02  1.03363181391393500D+00  1.78041643186125100D-01 -3.52499771859882300D-01
14  6  2.59928629668474500D-01  9.25711421914077000D-02 -1.05365380494469800D-01  3.29476329836493100D-02  7.95184652802828600D-02
14  7 -2.97789570097110300D-01 -6.55333700555975700D-01  1.16022825818949700D+00  1.86624566186675700D-01 -2.37073721188967800D-01
14  8 -6.50919483988360100D-03  4.20753020212362900D-01  1.14159256833203000D+00  1.86861134443422200D-02 -1.35989698254336100D-02
14  9 -5.10749706835234400D-03  1.87064668937858800D-02 -4.42496291489419000D-01  5.96837482341492200D-02  8.70766612660699900D-02
14 10  1.14774904558134000D-02 -2.36354036847431500D-03  1.07126308286725400D+00  1.73995244786446800D-01  2.80781485660372000D-01
14 11 -5.87327605062627800D-02  5.14620778017213300D-01 -3.64394558567676400D-01  1.41462942036003600D-01  1.29607440477744600D-02
14 12 -6.96037532723816100D-03 -6.00036872053651700D-03  1.67591420349335700D-01 -3.95415654435816400D-02  2.98097996897818500D-02
14 13  1.90581338524340900D-01  4.29785403438532500D-01 -1.47733041195469300D+00  3.00890605299385100D-01 -2.24478960572175500D-01
14 14  4.50207431224114400D-02 -4.84503632613024500D-01 -2.01208750874360500D-01 -1.91362946178078800D-01 -1.93444940755810500D-01
14 15  2.05152209558003300D-01 -1.17072688021929000D-02  1.06925180603421200D-01  4.63756975531777300D-02 -1.35545249070959200D-02
14 16 -7.34016303509200400D-02 -1.78064193242948800D-01  6.23317236975561100D-01  4.20183598250773000D-02  8.64678051544375400D-02
14 17  4.60778839906352500D-02  7.49284403409571700D-01 -1.49689960564982200D+00  1.12935137179056500D-01 -5.96815225459292300D-02
14 18 -7.76150119108350900D-02  1.37296534456764400D-01  1.65009507882728300D-01 -9.98779830977326900D-02 -6.84994622576149700D-02
14 19  1.28337176853836800D-01  2.61306811369210600D-01 -9.22837036861156300D-01  5.21068701910169400D-01  1.10614392743994000D-01
14 20  2.00397331886255100D-02 -1.60052885150554000D-01 -2.38522318526573700D-01  2.02320381254846400D-01  4.44263249188139600D-01
14 21  2.57024192520325600D-02 -3.77290138831653900D-01 -1.69307835229969700D-02 -9.96348143385442600D-02 -4.11293665049616000D-03
14 22  1.03747750989041000D-01 -1.69415469315775800D-01  2.02613212060459200D-01 -1.14264799656760800D-01  4.95103356424896300D-02
14 23  1.34638893575135500D-01 -1.84149229217624500D-01  3.54723457423695300D-01 -1.27090872124034900D-01 -1.06109559103802700D-01
14 24 -3.48417212506440800D-03 -4.92175280103516600D-02  3.02739339097841700D-02 -9.78473937606331900D-01 -1.57515069651899500D-01
14 25 -3.67286059222056000D-01 -1.28736598962495800D-01  4.87393058312481900D-01  4.18354266341921100D-01  1.28435394619023400D-01
14 26  3.94105821508905200D-01 -1.70976748514404700D-01 -1.73367779350819800D-01  1.22881679917324600D-01 -1.15569070642189100D-01
14 27 -7.31260927513567100D-03 -1.85416205690286500D-02 -1.56796327485379000D-01 -1.35415853542022300D-01 -4.25455058926988900D-01
14 28  2.40769628817257900D-01  1.84685430109730900D-01  1.36144509972087700D-01  2.44224088178440000D-01  1.77517186219286500D-01
14 29 -3.21168936922726900D-01 -1.09180659441126700D-01  2.07232767074294800D-01  2.66249796690834400D-02 -4.91816017290891500D-02
14 30 -1.37703316639592300D-01  2.92125308953388000D-03 -1.44095185737806400D-01  3.57822337007395100D-02  1.30799497442128300D-02
14 31  9.45116202624342600D-02 -2.34896677486834900D-01 -2.54753299918520600D-02  1.72282337063592700D-01  2.81784892000870400D-03
14 32  4.07249331178268800D-01  5.45450282410072500D-01  1.61518600182705200D-01  2.11481709393804400D-01 -5.72436798660762400D-02
15  1 -9.96911843531140400D-02 -1.73299567120993600D-01  1.16029958232663700D+00  6.08836203530958000D-02 -2.51804261175087500D-02
15  2 -4.46201934997108400D-02  3.49702142278146200D+00 -1.73218194462657300D+00 -4.26474580352470000D-01  1.13912407582555300D-01
15  3 -6.69515699254268900D-02 -4.69608376571286800D-02  3.24914441897723100D-01  4.75487766019449000D-02 -2.01669290389213800D-01
15  4  4.66593601688873900D-01  9.55220415111082800D-01 -3.29522919015616900D+00  2.01667893408415900D-01  2.59571441094868800D-01
15  5 -1.11429715865149200D-01  2.12961515390942200D+00 -1.06397878917835700D+00 -9.20132965928518700D-02  9.76013607437326800D-02
15  6 -5.00285576046317300D-02 -4.75728031391001900D-02  5.10581434774191700D-01 -2.65811421365017500D-01 -1.62389628054129300D-01
15  7 -1.12903684637849400D-01 -2.28562672355505500D-01  4.53984557971468200D-02  2.20435307036849400D-02 -6.57141826036619200D-02
15  8 -1.77140097790946800D-03 -1.79745299552854400D-01  2.57519811284674600D-01 -6.89816898874994300D-02  1.03557073922859100D-02
15  9 -1.48418607099513000D-02  4.48615331766534900D-03  2.43419303805790500D-01 -1.54868061906746800D-01 -1.38507138807700300D-01
15 10 -1.24488832940805200D-01 -2.38860339716014800D-01  1.02982396048806900D+00 -1.55350741248492900D-01  5.42092435300507600D-02
15 11 -4.94498866576225400D-02 -2.50608850688826900D-01  1.16815311226464400D+00  1.76038987066839200D-01  6.19139714988592500D-02
15 12 -9.78239102849998300D-02  3.59099387861422000D-02 -2.32521144390874700D-02 -2.33685157659994600D-01 -3.75786402188337000D-02
15 13  1.82902430458109700D-01  4.18970968131129400D-01 -4.79376952362517900D-02 -2.54975317701906800D-01  8.05829965957763600D-02
15 14  3.28102035324665700D-02 -1.32621741091195400D+00  1.18576913767136000D-01 -1.75245967169151000D-01  1.42578413356683400D-02
15 15  1.38579666934952700D-01 -1.52837508270621000D-01  7.39644733325235700D-02 -1.03032115008656000D-01  1.81813627043626400D-01
15 16  3.15307186273752800D-03 -6.50045530768167100D-03  9.77859333957778900D-01  5.54499647877636300D-02  1.03938557351151900D-01
15 17  6.92295652421448600D-03 -8.39062505999326700D-02  1.47178156075763700D+00  1.34765176560461500D-01  4.06600632643790700D-02
15 18 -1.66419554235598600D-01  1.25759490971219100D-01 -2.00902413620570600D-01  5.40203591282253400D-02  1.00922290872246000D-01
15 19 -3.01347164642063300D-03  4.37802752220729100D-02  5.05202609368762400D-01  7.14418287399924400D-01  3.57849123426694700D-02
15 20  1.61748088068494000D-01 -4.08767719898668300D-02 -7.34163648719595800D-01 -5.39308235514142100D-01  2.66720441120907900D-01
15 21 -6.20677672345427900D-01 -2.24454563825645600D-01  6.68228213657051400D-02 -4.13176896946108600D-02 -2.65545275245287000D-02
15 22  6.78722172191395800D-02 -1.85416900124553600D-02  7.43212840107966400D-02 -4.11592977447346800D-02  3.11167381444756400D-02
15 23 -2.47332201585564600D-02 -6.38351798591861900D-03  5.57669899412771900D-01 -3.90954574643252000D-02 -2.71795897831223100D-01
15 24 -6.83593178735847800D-02 -2.24345005976597700D-01 -2.91586891682080900D-01 -3.32274395369182500D-01  2.80440482496223300D-01
15 25  1.44217449032268000D-01  4.84290437521159000D-02  1.21691327334355200D-01  1.32205416854931100D-01  1.20661029434805500D-01
15 26  5.80529096239571800D-02  6.23030934058409700D-01  1.08540636628938500D-01  7.79550128588049600D-02 -1.71840170335747700D-02
15 27 -6.07709958252302700D-02 -2.24133263373677400D-01 -6.18458282365707500D-02  9.16847907717204800D-02 -3.20969447685639700D-01
15 28  3.28317360051578300D-02  2.88137711680482100D-01 -1.60429710131054900D-01 -3.34440114827275300D-01 -2.03831835562696800D-01
15 29  2.24408786675535600D-01  4.04403645744490900D-02 -1.18311973080021800D-01 -5.89399084612538300D-02  1.83164800058572400D-01
15 30  4.66215115431697700D-01  3.29351439428045100D-01  1.08085569474632900D-01  9.32682209138761500D-03 -9.84014301065881100D-02
15 31 -5.41873558416601100D-01 -3.20483541404086700D-01 -1.16450738399433500D-01 -9.63148880848716700D-02  4.78827332477110300D-02
15 32  2.77664587719609600D-02 -9.90636925444861700D-01 -7.40983361726801300D-02  9.87083714858118800D-02 -7.62576104264728000D-02
16  1  5.26552374978776400D-02  9.52218115503139000D-02 -6.46293374324025000D-01  6.17096441652045100D-02 -2.67183175770865100D-02
16  2 -7.34837613188285800D-02  2.81831846757846400D-01  1.27140306300023700D+00 -1.31355721756109400D-01 -1.10146345792089800D-01
16  3 -9.28934586957740600D-02  2.03039804487863400D-01  2.38581555914931700D-01  1.84879728871029000D-01 -2.82285520003033900D-01
16  4  8.87376859118294800D-02  1.66321448326955800D-01 -3.87622235835643600D-01 -1.85379640372667400D-01  2.00442625187039500D-02
16  5  5.96322332335670100D-02 -1.87677420072898800D-01  1.25323355480634100D-01 -7.90617310266444900D-01  3.33895307226461800D-01
16  6 -5.07863370004633400D-01  1.73968062778171700D-01 -3.14078167106580300D-01 -2.23853534991859300D-01 -1.13278094668051000D-01
16  7  1.58553288767400000D-01  3.93759428721637400D-01 -1.91372391633424600D-01  1.59712220324762500D-01  1.74474144129589600D-01
16  8  3.18279178373283600D-02  7.48872712826802800D-01 -1.96165755322326800D-01  4.10595859104521600D-01 -9.51891670953300300D-02
16  9  3.40010814872232700D-01 -2.44821647776902300D-01 -2.36123557899660700D-01 -1.01230499796294600D-01 -6.47746929642296900D-02
16 10  7.41433827887014900D-02  1.93404324878089800D-01  8.94265683357196300D-01  2.38770391087133800D-02 -3.15806643224786200D-01
16 11 -1.20428559259261000D-02 -3.80124136808542200D-01  1.37903481913469400D+00 -2.18922715786769000D-01  1.88993047129377300D-03
16 12  4.31024308139730500D-02 -4.49923612852664600D-02  7.09663675774827600D-02 -1.41774004809819200D-01 -4.41739770886934900D-02
16 13 -5.84600846036959900D-02 -1.63365495620906500D-01 -1.05486700924327100D+00 -2.58793756270881500D-01 -3.28950520995720900D-01
16 14  2.71244057480769400D-03 -6.40044503355274600D-01  3.06456356550737900D-01  1.78619341658160100D-02  2.28863363057327200D-01
16 15 -1.75587365738229300D-01 -5.32759973190967200D-02  8.19566083720105800D-02  2.05241721142011000D-02 -7.85907672514054300D-02
16 16  4.01783113387694000D-02  1.47472468177449100D-01  1.06047649579542700D+00 -3.86108258492079100D-01 -3.06582017242514200D-02
16 17 -6.41179375362268500D-03  1.11169704983934900D+00 -8.29105726418181100D-02  1.28929731972803400D-01  7.89472345002236200D-02
16 18  1.36929357911132200D-01 -2.15876592411356200D-01 -2.19692943057481300D-01  1.15374339066563500D-01  4.26190024354295600D-03
16 19  2.43890455569549700D-02  3.13908828613685800D-02 -2.91465156548158700D-01 -9.74709819942050000D-01  3.22343255067809900D-01
16 20 -6.84065529419706600D-02 -7.97084740751525400D-02 -6.71518557523363200D-01  1.84943419764147900D-01  2.97055055831128400D-01
16 21  2.33313885389961600D-01  4.35962646631284700D-01  3.44481299736271500D-02 -1.86831371006440100D-02 -1.20317217082076100D-01
16 22  1.39000354182720900D-01 -4.69563211648274800D-02  1.74569750892636000D-01 -1.30236104548852600D-01 -3.42315276554225200D-02
16 23  9.81713113848559400D-02 -6.39397837294327800D-02  2.41433126122787200D-01 -1.33411808257759400D-01 -2.04767659625263800D-01
16 24  8.04191827641274200D-02  1.85380234453933900D-01 -1.48871137807776600D-01  5.26750634553603300D-01  6.07614030634970800D-03
16 25 -5.05761342080432600D-02 -1.37671042811027500D-01 -2.56436300227907600D-01  1.47042508467824900D-01  5.15812442679580700D-01
16 26 -3.20089606312014400D-01 -1.34374866923647700D-02  4.80608313255683100D-02  8.84911442920656600D-02 -2.62479796950583900D-02
16 27 -6.22431645970072000D-02  1.25444706954249200D-01 -6.78383557139695800D-02  6.91411202198648900D-02  2.83799966597991300D-01
16 28 -1.66553800629113800D-01 -1.17246165968877400D-01 -1.55741351827724800D-01 -2.74430584138521300D-01 -2.93658904000898600D-01
16 29 -4.63163882209403800D-01 -1.46640182884255800D-01  2.04511789335167200D-01 -1.57499139839933100D-01 -1.34936120525017400D-01
16 30  1.38557177802710800D-02  6.93846140908883200D-01 -2.38104991909621300D-02 -2.05559841585790900D-01  7.75349135681966300D-03
16 31 -3.25501061843987000D-01  2.03968070355314800D-01 -8.18638486350111700D-02 -2.57929984217275800D-01 -6.27763514928361100D-02
16 32 -4.32937589040546000D-01  6.67557199044875300D-01 -2.84163750769792600D-01  2.00636983111930100D-01 -8.55632393191261600D-03
17  1  2.24501541249372500D-01  4.97186375365224500D-01 -3.25419058232928200D-01 -2.06216906907644500D-01 -2.13073683309911400D-01
17  2 -1.11286079653018800D-01  1.71009885421271600D-01 -4.12248955893024000D-01  4.02259475106494400D-02 -7.14640684609018500D-02
17  3 -1.14117538063351300D-01  1.85581606524254000D-01 -1.67613289547826300D-01  2.92022674297591200D-03 -6.76078934664244700D-02
17  4 -5.81940594090212300D-02 -4.40907596191042300D-02 -6.34038006154884900D-01 -3.67278007402832700D-02  2.60289030082049800D-01
17  5  9.43610792296041400D-03  1.25264598235755600D+00  1.97895432103333800D-01  1.55239725422725600D-02  1.99827609027244200D-02
17  6  9.88565090076536900D-02 -1.18839269910377900D-01  3.01880056665837000D-01  6.66408156647608100D-02  6.13551892420177900D-02
17  7 -1.58707745293305700D-01 -3.56162746207412700D-01  6.16415305062642400D-01 -1.06394024356873200D-01 -1.43395203077380300D-01
17  8 -8.66341719173865200D-03 -1.22958433064229900D+00  8.13173515285719000D-01  3.37493193073383200D-01 -1.33686683602681100D-01
17  9  1.30094762144899300D-01  3.59192145778171500D-03  1.08020670228406200D-01 -1.22278264152506500D-01 -7.35505366435894500D-02
17 10 -5.50722929421393300D-02 -2.28012388859799700D-01 -2.36907904000795500D+00 -4.57663295178931900D-02  1.33519129393308000D-01
17 11  4.17448940704063900D-02  1.11645016331336100D+00 -5.35571992446937700D-01 -3.24046089159383000D-01 -8.08263754874003300D-02
17 12 -3.15180275385428600D-01  3.96006650872829300D-01  1.85501055257606600D-02 -1.22826170344678000D-01 -1.38236032078353100D-01
17 13  5.22006395111689100D-02  9.23928078654738400D-02  6.74577389371746200D-01  2.58668550076892700D-01 -3.61341303730399300D-02
17 14  1.92831811058537700D-02  1.16212433397058200D+00 -7.62134810506970100D-01  2.38920803198567800D-03  1.65531954967047500D-01
17 15 -9.32796234325624900D-02 -7.22523315344854300D-02 -1.04843341339315400D-01  1.53701404517130900D-01 -2.43059866923840000D-02
17 16  2.43888135792245700D-01  5.38372093490907400D-01 -1.45081421511112000D-01 -1.01531190639562600D-01  1.49734359761907900D-02
17 17 -4.32440031869421900D-02 -3.85640128581096500D-01 -3.93948021330315400D-01  4.71730731038835600D-02  2.84477873317331500D-02
17 18 -6.44808113460435700D-02  3.60330240143112400D-02 -3.57656241399577000D-02  4.29697073490893200D-02 -3.26270989364596900D-02
17 19  8.20119526984825900D-02  2.09458083116322700D-01  4.26100644732974500D-02  4.90895167601437300D-01 -2.90840641158359600D-02
17 20  1.28945800045113200D-01  8.17270296455322900D-03  6.23386997702828800D-02 -5.22608567908346600D-01  4.49116834806502800D-02
17 21  2.38409599002912400D-02  1.03051422857720400D-01 -3.11271758471588600D-03 -1.85469173133839700D-02  3.98219803854914800D-02
17 22 -2.12750630721079400D-02  6.23794948144020000D-02 -9.43962546222359000D-02  1.03796534725436300D-02  2.60600736096160400D-02
17 23  1.07658521619577000D-02 -3.68259257715739300D-02 -1.79408816538979500D-01  1.03495587569141500D-01 -1.18144038168033700D-01
17 24  1.75423079112131100D-02  2.29110015982591000D-03 -7.25867314842617800D-01  1.52896043292644700D-02  4.54653949300546400D-02
17 25  1.86412664391366400D-01 -5.25711601015051600D-02  3.00636797705871200D-01 -7.95930634010288800D-02  5.65825242576700300D-02
17 26 -4.20241207351104300D-01 -1.48663802468275600D-01 -1.54868596756495300D-01 -2.92849321833095100D-01  4.83345749209201200D-02
17 27  2.44514746912174900D-01 -1.74960344267434500D-02 -3.56988170426448800D-02  5.74750330937445600D-03  2.69481613655012700D-01
17 28  4.17155472237839800D-02 -3.11197160878796800D-01  1.17006392433236400D-01  1.62979100130005100D-01  1.08593334782581000D-02
17 29  5.98451748709086700D-01  9.81472844066662300D-02 -2.02850155704531300D-02  1.04889590609982900D-02 -1.92598573226917900D-01
17 30  3.97801170442540100D-01  1.55069568796786700D-01 -1.05090015161654000D-01  4.52137424580679000D-01  1.02295729825161800D-02
17 31 -1.10018633343775000D-02  6.89344333688253900D-01 -8.01266766203767300D-02 -5.47480484847445100D-02  1.10986548782205400D-01
17 32 -2.40683671543081200D-01  3.14805513816942900D-01  1.92042135694994500D-02  1.80658704069611000D-01  1.97008733474885600D-02
18  1  2.97076602100428900D-02  9.93727133150995700D-02 -1.50277315819468200D+00 -7.56481837389417800D-02  1.90232257603980700D-01
18  2  1.39232868143137200D-01  2.67587997151029400D+00 -1.25175447570011500D+00 -3.42539704939114300D-01  9.03692827152086100D-02
18  3 -2.30490074474246300D-01  1.40120791759038300D-01  1.56205602382050900D-01 -5.79159106602456300D-02  9.36898271389458400D-02
18  4  8.00479128893347200D-03 -7.54992796869988400D-03 -3.56495183993326900D+00 -5.70662459267898300D-01 -9.51560720006535400D-02
18  5 -7.96503799156359500D-02  2.15750561859834600D-01 -1.57708270947310300D+00  2.53774864382965200D-01  3.32618455073175800D-03
18  6 -3.42465491963414600D-01  3.39139307412683200D-01 -1.39637690869796200D-01 -6.11125282646796100D-02  2.22197416125205600D-01
18  7  9.36475997794356800D-02  2.23280232952156200D-01  9.17162271458284800D-01  1.46502813314172000D-02  1.98862644223430200D-01
18  8 -8.58560258076534700D-03 -7.76693283309309600D-01 -8.38340683339377800D-01 -2.22085819829575800D-01 -2.20723694805350000D-01
18  9  1.98548430750723200D-01  2.21752640546272900D-02  7.22631349240734200D-02  8.73244675895130400D-02  3.56140367850862800D-01
18 10  1.44246057231491800D-01  2.97065371746332600D-01 -4.44514112479379800D-01  3.23767619911606900D-02 -3.89636156883916900D-02
18 11 -6.27271326687788800D-02 -1.76763512008357200D+00 -1.94786279645548000D-01  5.04474275447146100D-01 -1.21417055084077300D-01
18 12 -9.88856055185977500D-04  1.22405911139262900D-01  1.43534287825869900D-01  1.25556592304435200D-02  1.42064332206965300D-02
18 13  1.39572597510917400D-02 -5.98983940887003900D-02 -1.11673518150706500D+00  2.57666866920355600D-01  1.96121654642773200D-02
18 14  1.97612664281043600D-01 -8.51350965639116400D-01  1.88870403508091900D-01 -4.88549093249203900D-01 -2.18795038590873300D-01
18 15  8.29849575516489900D-02  1.35810081039225000D-01  1.27123538439559600D-01 -9.75206392751529500D-02  1.21003853190579100D-01
18 16 -6.21733768696067500D-02 -8.92111330303135600D-02  1.32771848742576900D+00 -6.84685076011695000D-02  2.98796964657443600D-02
18 17  4.97758188350786200D-02  8.72291613048640800D-01  4.77608457184067000D-01  1.52534571668928200D-01  7.66032926991962300D-02
18 18  2.79978384311177300D-02 -1.04601131130315200D-01  1.65386997218327600D-01 -4.95381913339698300D-02 -3.41336357326442300D-02
18 19 -1.43509856965044500D-01 -3.00959266701376100D-01  1.10665851444536000D+00  1.12715965403328600D+00 -7.22480832135179900D-02
18 20  1.96943535547889600D-01  1.34853777364459800D-02 -4.34281730049316600D-01 -7.76308292042609900D-01 -5.83430825370384900D-02
18 21 -5.89100006965087700D-02 -4.02302459033561400D-01  1.86625619959487100D-01  2.43251884210795600D-02 -1.03860655901526000D-01
18 22  7.95354674804454500D-02 -2.19295407562697500D-02  1.03034143943797800D-01  1.63615325751919400D-01  3.09175241133606200D-02
18 23  1.29242397877359600D-01 -1.60159921990720200D-01  2.50430057348911700D-01 -6.53622737614391700D-02 -2.41909751115428100D-02
18 24 -2.21498502530230300D-01 -3.80926498519271500D-01  1.78966875433025500D+00  5.94218851540603200D-01 -5.49640725545754600D-02
18 25  8.26747327145400400D-02  2.83087751568759400D-02 -1.07264586396419600D+00 -6.26810889041417400D-01 -1.40381668854234200D-01
18 26 -6.48083464161015400D-02  9.81336067264957000D-02  3.95130959872899700D-02  7.51183550498028500D-02 -9.08948114701642100D-02
18 27  1.57764564203611300D-02  1.73224419908442000D-01 -9.75795383874656900D-02  1.05548941283063700D-01  2.33988232128273500D-01
18 28  5.90688823779529300D-03 -2.39895120366068700D-01  1.34244863049352700D-01  1.89720980123835300D-01 -1.07369216959188200D-01
18 29  2.38672820437003800D-02  2.21996885263416500D-01  7.07406911767387600D-02  7.37080131797066800D-02  8.24334057728082200D-02
18 30 -6.24226908979184300D-02 -2.75320606481397900D-01  3.26354271524070700D-01 -1.89222291194758100D-01 -7.04157929080713700D-02
18 31  1.84210839864604800D-01 -3.30046456255318700D-01 -5.13239749092763200D-02  2.64969388051394800D-01 -4.35830644750352500D-03
18 32 -2.15076753893960000D-01  5.98911002572000700D-01  1.26856244590468200D-01  1.37518013624140800D-01 -8.82020863550183100D-02
19  1 -5.33308954555085000D-02 -1.35074914434727000D-01  2.50495276772055800D-01 -2.37015452212521100D-01  1.18989282465149100D-01
19  2 -4.72447489632936900D-03 -1.06086981542696700D+00  3.99613105894733400D-01 -5.10393944478044400D-01 -9.78576459701813000D-02
19  3  1.52395639067865500D-01 -5.45379930976840300D-02  2.66005874881435200D-01 -9.75883659216053900D-04 -2.97129008486206200D-01
19  4 -1.02529498049110800D-01 -2.03586656821980800D-01  5.37499651081095900D-01  6.18321723814349500D-02  2.45617353245425900D-01
19  5 -9.10555934795293600D-02 -5.63121475159129100D-01  1.82005836868371000D+00 -1.10301461519098200D-01  2.09195903525609300D-01
19  6 -1.55017442725493200D-01 -5.41784608001157300D-02 -1.63583759085237900D-01 -3.08685140218778500D-01 -1.79467352247827000D-01
19  7 -2.36235629755753500D-01 -5.14280365071309800D-01  1.87942388355805700D+00  3.04419275923303900D-02  1.70631308449585700D-01
19  8  8.40794333972607800D-03 -5.22963255447960000D-01  1.53880739080356500D+00 -1.97443458053240400D-01 -2.94462011632463200D-01
19  9  1.52124608514760100D-01  1.42337403117702500D-01 -5.34276140731936600D-02  1.54087537194405400D-01 -7.76229039844340400D-02
19 10  2.39048433620818700D-01  5.21684436815431600D-01 -1.81677156055989500D+00 -3.61614000389613400D-02  1.18531399856062200D-01
19 11 -5.82143971054379000D-02  1.64328689555871300D+00 -2.07838562451686300D+00  1.45934347223353100D-01 -1.39446175365369600D-01
19 12  1.51608423488980000D-01 -1.21622481236106900D-02  1.24070501701246800D-01  8.27776718223339800D-02  2.30179099855907400D-01
19 13  3.54982335746515000D-02  8.09783519464765000D-02  1.02398572425277600D+00 -5.22769012686546000D-02 -2.82029506903423500D-02
19 14 -9.24332943258465300D-02  1.25150360878458600D+00 -1.85830706895963300D+00  1.15221085602790800D-01  2.12401441404701700D-01
19 15 -3.29716288423464300D-01  1.17314847018761300D-01  5.23649230247926100D-02  3.82193591945574700D-02  1.30504802370271600D-01
19 16  4.69934982684053300D-03  1.90590284958234000D-02  7.57137300251622800D-01 -1.98732347877799400D-01 -2.33610209859594900D-01
19 17  6.47911547947825100D-02 -9.85608582038842400D-02 -1.06492023128918800D+00  2.22247223850409800D-02 -1.43974307585869500D-01
19 18  1.68600641230901700D-01 -2.46263336450306200D-02 -7.32954803103270900D-02 -1.32106448467868900D-01  1.70812751671151000D-01
19 19 -8.16041980716656300D-02 -1.95544247986440500D-01  7.35104445063282500D-02 -8.82908827014841400D-01 -2.05021484007374100D-01
19 20 -1.58140800829496100D-02 -1.02327295677231700D-01  3.77489633694783900D-01  3.27570811229395500D-01  4.20454146080425300D-01
19 21 -3.24935665364937700D-01  3.03635190458351300D-01  5.96410743663587200D-02 -1.19706594804070300D-02 -7.31295274134012000D-02
19 22  8.51001868938074900D-02 -6.95409894771629700D-02  7.10185776485335000D-02  3.22686425228714800D-02 -6.39301239415840500D-02
19 23 -1.10116292991473100D-01  1.74046416933056600D-01  1.43695273582655400D-01 -3.45417719295510500D-02 -3.66012214959136600D-01
19 24  4.99523214626699700D-02  1.00928142302879400D-01 -3.55332178066322100D-01 -3.53144045635994100D-01 -2.24291736228833200D-01
19 25  8.50137623642863200D-02 -1.21353942047884000D-02  6.58208422427117000D-01 -7.75774324492490300D-02  2.64430427472908200D-01
19 26 -3.03103691996540200D-03  5.62418185755484200D-02  7.53224389809809300D-03 -1.26008609576010800D-02 -1.12833261929359000D-01
19 27  1.25434122886959800D-01 -2.87133472180043000D-02 -7.71868164217585600D-03  5.58644536610970400D-02 -5.89624279736248200D-02
19 28  2.09180479824210000D-01 -1.50218051850585100D-01 -5.31710347708064500D-02 -3.83380445087263200D-01 -1.97642829446693600D-01
19 29  2.09779583769067300D-01  3.08783597213013200D-01  5.66048455023702800D-02  1.32259374970517000D-01  7.57300433411791100D-02
19 30 -3.82990862571417900D-01 -1.09690018313273700D+00 -1.61110946984534900D-02 -1.51914556655206100D-01  1.50679304725078300D-01
19 31 -1.69822904030887500D-01 -1.11532520085013600D-01 -1.22532848505593500D-01 -1.51970347155939600D-01  6.49653071752866500D-02
19 32 -2.38351954416390100D-01  6.23587772398315400D-01 -3.55188469726387700D-02 -1.47966677778210300D-01 -1.97004673834423800D-01
20  1  1.60914375402000700D-01  3.14766288729905100D-01 -1.17133444310906600D+00  2.12362263462495500D-02  1.90781770266922000D-01
20  2  9.20333161552367200D-02  4.36757534861998000D-01  1.02627831634897100D+00 -2.15845120698033900D-01 -4.20024409811548100D-01
20  3  2.96185758555542500D-01  1.23838651256007000D-01 -6.98487058429910100D-02 -3.12494385809085500D-02  8.57036559751386700D-02
20  4  1.29341474840319800D-01  2.42648650878883900D-01  1.62346876507888100D-01  8.79086032258696700D-02  3.28781114944206700D-01
20  5 -3.61714871178906700D-02  1.32751457289085400D-01 -2.59892279509722800D-01  5.05397162754232100D-01 -1.34035255819716300D-01
20  6 -8.39425030953062600D-02  2.17977758915022300D-01 -3.57225883879737100D-01  1.61073882087045000D-01  2.08926741431342300D-01
20  7 -7.39065440486312700D-02 -9.98742379689886400D-02  2.63558150582725500D-01 -1.30997835794317300D-01  9.81632415091886700D-03
20  8 -4.85389520299108000D-02 -9.40986024742698500D-01  3.44006445455530800D-01  6.30605433710503400D-02 -1.08249729655698900D-01
20  9  2.45820077049248600D-01 -1.37570347393550500D-01  2.66145472137925000D-01 -6.87338750943419600D-02  1.02570280107879100D-01
20 10 -9.80677073823757300D-02 -2.09846771279547200D-01  2.52337913675839900D-01 -1.70767091611860200D-01 -3.19309637758249700D-01
20 11  7.41370406367870500D-02 -8.01850259887780900D-02 -3.69875144671663500D-01 -1.36240226340079800D-01 -3.70190311585908600D-01
20 12  5.31761223608652400D-01 -1.61570912022744700D-01  1.07316328962629100D-01 -9.78394113402970800D-03 -1.81590795905923000D-01
20 13  1.81746682814801600D-01  3.91314970222166200D-01 -1.21356593834190900D+00 -2.31357337311371400D-01 -3.10862208643285600D-01
20 14  7.83655365152609500D-03 -8.23953432694975800D-01 -1.33580657900146900D+00  1.46516211392760300D-01  2.02035110245941000D-01
20 15 -1.46018100320508500D-01 -5.60170099254324000D-02 -2.87443593396787200D-03 -8.36931060339838300D-02 -5.35432354077027800D-02
20 16  1.54173089401690200D-02  1.25955282232834800D-01  2.71421115804771900D+00 -2.44737102061159700D-02  3.96518655110227900D-02
20 17  4.07345258593766700D-02  1.39765299417792400D+00 -8.28221731388156500D-01 -8.02073538552854800D-02 -1.31894539864381100D-02
20 18  1.56986355363405600D-01 -1.43796901376967200D-01  4.27341076311086800D-02  8.15184602187187000D-02 -3.82602485346289200D-02
20 19 -8.16108524617169300D-02 -1.97341374147159700D-01 -1.09245880682240600D-01 -5.52393243880518100D-01  3.51574726771172300D-02
20 20  1.98090374553040500D-01  8.06858968348441400D-03 -1.13872173259136400D-01  5.22596548977973700D-02 -4.38950373421368000D-02
20 21 -1.51481496413722800D-01  1.40381652695728500D-01  8.05683105092134000D-02  6.36321166709872800D-02 -1.43283195207290600D-01
20 22  7.96510785363035700D-02  5.53502623889125200D-02  6.55234422929580800D-02 -1.28875437490237400D-01  2.63567749258840900D-02
20 23 -7.18777948349452300D-02  4.55210199090612700D-02 -6.52025929252684100D-02 -1.51141727011267200D-01  1.27028731964591300D-01
20 24 -3.47841214321450700D-03 -5.57754647685853700D-02  1.47326604918443500D-01 -1.45657415857965500D-01 -1.12428162817866500D-01
20 25 -1.52192267288442800D-01  1.10800956182258000D-01  3.37361415795421800D-01  2.68885356199544000D-01 -4.13016367723932200D-01
20 26 -2.43140541676774600D-01  3.14111123799624100D-01 -1.31716963604573500D-02 -9.89246226888832000D-02  1.14674466881114800D-01
20 27 -1.57498441922316100D-02  1.48460589100195200D-01 -8.98676219945707000D-02 -5.26574360724851000D-02  1.75565634281530600D-01
20 28 -1.84628076183937800D-01  9.06244190240698700D-03 -3.61838034845266600D-01  2.86922146684427400D-01  1.97506622931480100D-01
20 29  4.45649161722675600D-01  4.28572509566891200D-01 -4.04237604888054600D-02  1.58510432220404400D-01 -1.37358382007685000D-02
20 30 -6.57979291983933200D-01 -1.93906941402572200D-01  9.64442300214233400D-02 -3.86139791784988100D-01 -1.27730033124164500D-01
20 31 -2.21350579776004900D-01 -9.99579922306125800D-01 -4.25135355025771000D-01 -2.17635511752378600D-01 -2.06708061629312500D-01
20 32  2.99941374234248500D-01  1.68644272152355500D-01 -2.05864656276465000D-01  4.70042315156469000D-02  8.73876628422301100D-02
21  1 -7.68340348932009000D-02 -2.27114669488768100D-01 -4.06416344673878100D+00 -1.03988713518716800D-01 -2.52795828110073500D-01
21  2  7.34764399599678300D-02  2.14057502009293200D+00  2.40338685785085600D+00 -2.03012565820579300D-01 -1.48522164420001800D-01
21  3 -9.66606751501667100D-02  2.45182839570170200D-01  1.29107764109097700D-01  1.31360979703911400D-01  1.12531563777231400D-01
21  4  3.64746841266168300D-02  1.67509317350467500D-01 -5.91779644216353700D-02 -8.20909611424738700D-02  2.71519947118830400D-01
21  5  6.43013914180209100D-02 -1.39667015659847700D+00  1.88988723920690800D-01  1.45098868072695600D-01  9.87539085611367800D-02
21  6  7.12251844405605200D-02 -1.69979093001697100D-01 -9.64345777586723300D-03  7.01793882856480800D-02  7.67052715028736800D-02
21  7 -1.90884974506650200D-01 -3.43475503678362700D-01  2.24303554927079500D+00 -1.44525564674197800D-01 -1.53692560088392700D-03
21  8  2.89587158275338500D-02 -4.05139268563009400D-01 -2.40280089789721800D-01  6.40910362737728600D-02  1.58035597091625400D-01
21  9  2.83806053387532600D-02 -1.86416202430379500D-01  1.89197157115634800D-01  7.63623321603854200D-02 -9.78990115729187800D-02
21 10  1.36366279400753500D-02 -4.73302145804114800D-02 -1.24353384433583800D+00 -1.42653740289222400D-01  2.66931795922911400D-01
21 11 -7.04698678170302800D-02 -1.12170205478195000D+00 -4.59767585340113100D-01 -5.70327996461979900D-02  1.54275080540819500D-01
21 12 -2.92799605413131400D-01  1.38524524872310500D-01 -1.92596310094398100D-01  1.30635131990486300D-02 -1.12598525400146900D-01
21 13 -2.53116013994123100D-01 -5.87135633569354600D-01 -3.63136707669920500D-01  2.63353478048156300D-01 -1.39051040250457500D-01
21 14 -1.30998496088385000D-03 -2.15516607771456600D-01  1.24916598058418900D+00  1.09859276654104000D-01 -1.62760425551465100D-01
21 15  1.08406505333540100D-01  5.43539202179259000D-02 -1.14063752902768000D-01  9.51443841994768400D-02 -2.70803605196693800D-02
21 16 -3.75566771778651400D-01 -7.29166343776939100D-01  3.04604516440245300D+00  1.85131828407929800D-01 -1.33850379971154600D-01
21 17  1.22556572536537200D-02  2.62978881205369500D+00  1.04196594284792300D+00  1.38293423756935900D-01  9.88037380778687700D-02
21 18  2.03946956042128400D-01 -3.02750694119998200D-01  2.81631133597793800D-01  3.74379761697192300D-02  2.23241261334463100D-01
21 19 -1.55988469972451200D-01 -3.32660571899769200D-01  4.05902110368340200D-01 -8.36432442606796700D-01  8.23298581583093300D-02
21 20  3.79445933151602600D-02  5.62708831155132900D-02 -4.79737596629055600D-01 -4.68827698380426000D-01 -1.67971316563942600D-01
21 21 -2.31701131517372800D-01  2.60873052799573900D-01  2.08529565276457700D-01 -5.62559129023126000D-02 -4.37500758315250600D-02
21 22  1.00005988733837100D-01 -1.49806771792855200D-01  1.22543093310807400D-01 -4.59450874962547000D-02 -2.42408929458364200D-01
21 23  3.05973732305466500D-01 -6.35648028471022000D-02  3.76343485329412900D-01 -1.46169744248459600D-01  1.37081074993973500D-01
21 24 -4.21798537131951800D-02 -7.79583162833684400D-02  4.90473816090750200D-01  2.52751208123984700D-01  7.64820359861136700D-02
21 25  1.24828112442437100D-01  9.94242461463287900D-02  1.18895716289388800D-01 -4.83037523309830000D-01 -2.74053461307661700D-01
21 26  9.17364531227648800D-02  6.64060013415850900D-02  7.80840289502893100D-02 -1.99088203284524100D-02 -9.57279147857822600D-02
21 27  1.15636735114234600D-01 -8.25295795326418100D-02 -1.56479708278664900D-01  5.26349200684890000D-03 -1.77066338222419900D-01
21 28  2.29283899868915700D-01 -5.22175616464956900D-02  1.56175071229044700D-01  1.95040448899313400D-01  4.79635632442522400D-02
21 29 -5.12096959486086800D-02 -1.06576501396545600D-01 -5.50866093856978000D-03  1.49263365751184900D-01 -2.17192337272440000D-01
21 30  4.19996292969546000D-01  1.06763084095394900D-01 -6.94519300554268800D-02  2.99043309350821800D-01  7.99695563136885000D-03
21 31  4.51089227801189300D-01  6.24651512717090500D-01  4.18174338298787300D-01  2.38163039273428000D-01 -6.18967224468722000D-02
21 32  4.42064402808389200D-01  3.84501428336420500D-01  1.28764883933522900D-01 -3.54388466978907000D-01 -2.53272657605764700D-01
22  1  1.61880535952463900D-01  2.92634141933919900D-01 -3.08651290169854200D-01  1.74161447362477900D-01  8.74610158244583000D-03
22  2 -5.88448958993518400D-03 -1.04558062781679300D-01 -1.99475317138202500D-01 -1.74755091580512900D-02  2.26803526841331500D-01
22  3 -2.40516628573502700D-01  1.37131017321713700D-02  8.69986343680107100D-02  7.00918052200326700D-03 -2.00749713244691900D-03
22  4 -2.53846130859524000D-02  2.14046166007419400D-02  3.89453329839874200D-01  1.52667806720950800D-01 -3.17641726484022800D-01
22  5 -5.98848381568636700D-03 -1.09902159417441300D-01 -7.83510898377528400D-02  1.73281408270750000D-03 -2.45659530524110400D-01
22  6  1.96534702661262400D-01  4.91248278628479600D-02 -1.92770805078074300D-01 -3.37007328064329500D-03  4.57018037508000800D-03
22  7  1.66035940693979300D-01  2.83726332609536800D-01 -6.85428993390610100D-01  1.82321290844639100D-01 -3.14959004157568500D-01
22  8  9.78420014852358300D-04  5.42009551676828000D-02 -4.13196343599370700D-02 -3.96583149312333900D-03 -6.75798482766753800D-03
22  9 -1.56323076571494100D-01  1.63081061399161700D-01 -1.49375029217177700D-01  8.88767201918861300D-03  1.03311738524291300D-02
22 10  9.12808840469043200D-02  2.16549642237149500D-01  3.05872641160287200D-01  2.31596525651976600D-01  8.81181920381602000D-02
22 11 -6.90390892482436500D-03  6.34146241564524200D-02  4.74476670538970900D-02  1.65361986944350300D-02 -2.64248977017422200D-01
22 12  1.88328987609838100D-01  7.59199894075838100D-02 -9.96491942271937600D-03 -1.34224660391826100D-03  6.55599702041224700D-03
22 13  8.47107379841346400D-02  1.79695512820368600D-01 -3.19420532814613900D-02  1.00081804558840900D-01 -4.83359223343633400D-02
22 14 -1.29699568601548200D-04 -7.99709361203548000D-02 -1.03376591734918700D-01 -6.31421940135050300D-03  1.67982055794282500D-02
22 15 -6.41055914988812700D-02  4.73073859194527500D-02  1.89049176741000500D-01  6.69336520092543500D-03  5.41663236334960400D-03
22 16  2.05408816382548800D-02  3.83502136602057100D-02 -1.17859942301502700D-01 -4.78416026856118100D-02 -1.85060233687736400D-01
22 17 -4.21883827371305800D-03  8.73355324921890900D-02  2.54646732826672800D-01  1.23709295661635200D-02  9.55486304474492500D-02
22 18 -1.45806298891389300D-01  5.02576684439398500D-02  7.72035166454076700D-02  1.00715246188465500D-02  1.07748947785990300D-02
22 19  6.51390216808387900D-02  1.13815701950592400D-01 -3.49615465990147800D-03  4.64396239136679400D-02 -3.98646654845258900D-02
22 20 -1.31700497710963000D-01  5.74779799797622000D-04 -9.38498746196900900D-02  1.55517476936247200D-01  1.16272141818228400D-02
22 21  1.95576601669141700D-01  1.25271207227274300D-01 -1.08275142728985500D-02 -1.14236584438706600D-01  1.85132723953572900D-01
22 22 -7.08961395148659000D-02 -1.57759609400245800D-01 -1.59922926179702100D-03 -1.12512348741405700D-03  2.53901144385148400D-01
22 23 -3.13628700165195600D-01  5.97275557800473500D-02  2.47550326473900200D-01 -1.16756052904623900D-02 -1.83169345113608700D-02
22 24 -9.03661306152261400D-03 -2.88922661349367600D-02  2.12403312559838700D-01 -1.35793145183918600D-01  8.12163887773580500D-02
22 25  1.26851739904434300D-01 -5.75202539734190500D-03 -6.29690200824658300D-02 -2.45467162263810200D-01  1.04365316665444500D-02
22 26 -6.96786882422665600D-02  1.21072599139127500D-01 -7.55345681168220700D-04 -1.53105637445852600D-01  2.78259643721106800D-01
22 27 -1.25154006275253800D-01  6.39261407236995000D-02  1.56500332908754800D-02  8.30643899871736200D-03  1.78478687305230800D-01
22 28 -1.45504176539656500D-01 -3.29745107655743700D-02 -1.13036920208499700D-01 -6.64138342482254300D-03 -9.68558619575825600D-03
22 29  3.04265794353713900D-01 -3.59504677513560100D-01  2.72742327077169100D-01  1.84387861726450100D-02 -7.99145744550398700D-03
22 30  2.25638788134417300D-01 -3.54391697725966300D-01 -1.01328485556853100D-01 -1.60459363718370200D-02 -1.03414745762751000D-03
22 31 -9.98467985429903900D-03 -6.08426356234459300D-02  1.66913311530557300D-01  5.90447153847554700D-02  3.94429733515506800D-03
22 32 -1.11682314612485600D-01  2.94329167191968400D-01 -7.34557805030954400D-02 -1.71604746245103000D-01  2.46278018280029700D-04
23  1 -2.46696777982624600D-02 -4.04442084348398400D-02  2.42966219823165100D+00 -1.69533065897618800D-02  6.87978997834049200D-02
23  2  1.76126089611970700D-01 -1.96941989806532100D+00 -1.53587884920942700D+00  1.85286429990653000D-01  1.43913688493109300D-02
23  3  6.92331382196305200D-02 -8.36245070689416000D-02 -1.72988618625672900D-01 -1.13334951141145400D-01  4.01696795770355800D-02
23  4 -4.54157665573464200D-01 -8.89387442247105300D-01 -6.08306661379573900D-02 -4.62176321838396200D-02 -3.78811246011455500D-02
23  5  1.30969886044285100D-01  9.27856877603398500D-01  2.52901674945250000D+00  7.66727395388417500D-03  1.14860233512387400D-01
23  6 -4.78420657438706600D-02 -6.70181677685162300D-02  7.76122232555356300D-02  1.15135839293377000D-01 -1.64564124304574400D-02
23  7 -1.22363493077885700D-01 -1.76907935741314700D-01  2.64812766508014100D+00 -1.05750443225896600D-01 -5.62593363878926400D-02
23  8 -5.28679773313299500D-02 -1.75570435639658200D-01  1.48443311127685000D+00  4.42828912015817600D-02 -1.11093970363270500D-01
23  9  2.98549928297219200D-01 -1.87455957933949000D-01 -1.53101282857126700D-02 -1.44961744944541100D-01 -2.25136045174948400D-02
23 10  1.57425217893171700D-01  2.88322381702823400D-01 -2.81001888153235100D+00 -9.19392344334415300D-02  1.14684333162585400D-01
23 11 -7.95644214990291300D-02  1.25279555413512300D+00 -9.38261224706614300D-01 -4.49798622066687000D-02 -1.55842434522772700D-01
23 12  4.64675255757340300D-02  1.09374908947040400D-01 -3.65642493893990500D-02 -5.09323844101187700D-02 -1.06406253156788300D-01
23 13 -5.88199343935876700D-02 -9.84159274446362300D-02  1.23562732259745500D+00 -1.83693549210762300D-01 -4.90955131674086300D-02
23 14 -5.10169360277262500D-02  2.44519741107017600D+00 -1.30513066445660100D+00  1.98759437089666800D-01 -1.63089676200275700D-01
23 15  3.19216604062584300D-01 -1.56126927862309700D-01  1.88794869972326700D-01 -3.69596522250836200D-02 -6.02129919907975300D-03
23 16  9.17828028468395000D-02  2.37239106184746300D-01 -1.69580634911533100D+00 -1.49169097887953200D-01  1.27650970574992500D-01
23 17  8.17112509344083400D-02 -2.26255301072368900D+00 -1.45571819098792200D+00 -2.19242079050988600D-01  1.01391151476354100D-01
23 18 -4.27442254354291700D-02 -5.86469260409238400D-02  3.40709018178360100D-02 -2.81076351337516600D-01 -3.89978452228809200D-02
23 19 -1.09310730849284200D-01 -2.36914891504119000D-01  6.06811375678153600D-01 -7.61115186427772000D-02  1.48269825352985400D-01
23 20  7.28510103346533700D-04  1.91988807474579500D-02  5.06223964897054700D-02  1.22598243788839200D-01 -1.41452518654454900D-01
23 21  9.48325514427828900D-02  1.50174461552316100D-01  1.61243761821033300D-03 -6.67061997354161800D-02  2.93018584342374100D-02
23 22  3.74043413011778300D-02 -8.17747275240517500D-02 -8.54802930653840400D-02 -2.15680245108389500D-01  1.71466236940264100D-01
23 23 -2.74657248020361300D-01  1.03191011080095900D-01 -4.64558148311584200D-02  8.62536908874766000D-02  2.74594620678186800D-01
23 24 -8.25611117243852000D-02 -2.05113685686449500D-01 -4.83047395081998500D-01 -8.88457177880733200D-01  2.53398706613890800D-01
23 25  5.00985298667594200D-02 -4.83065496946049300D-02 -2.57371141795327000D-01 -1.83726336934692700D-01 -1.07671864381265300D-02
23 26  5.04090079414785900D-01  1.58885955900010700D-01 -5.63991063277220500D-02  2.67910388708486200D-03 -1.40106027816747400D-01
23 27  1.37426923929662100D-01 -1.29099198142114700D-01 -1.35851906970735500D-01 -1.96707089972435000D-01  1.92908766393154900D-01
23 28  1.07269780724995100D-01 -3.00178547118150200D-01  2.58535494276473200D-01  1.84809487762912300D-01  2.66703808739984600D-01
23 29 -3.45858483427885800D-02 -8.73400687822549800D-02 -1.26512423465201800D-01 -4.36412079577893400D-02  2.54083417740846200D-01
23 30  2.32427524127410100D-01 -3.17807696757701400D-01  1.02661671095805900D-01  1.83352089798860100D-01  2.37727116005245200D-02
23 31 -6.97978235357270100D-02  4.16767156293798800D-01 -2.61724510741962000D-01  2.42002710014949000D-01 -1.51540274905249400D-01
23 32 -4.83463834339461500D-01  9.65689392073487100D-02  2.61908480385020200D-01  1.93608664442876200D-01 -1.09780359967082300D-01
24  1 -2.11241374739514600D-01 -3.21460133805009500D-01 -1.37229283860860600D-02 -1.63777783871448200D-01 -2.02017252242399300D-01
24  2 -1.51463113734388300D-03  6.73703726977801300D-01  2.07657633975948700D+00  2.10074227447099000D-01  3.94819454778099000D-02
24  3  2.78768104880829900D-01 -3.18250050358639500D-01 -5.81409200401878100D-02 -4.49350411482215900D-02  1.47883606061259500D-01
24  4 -1.31020169115470300D-01 -2.98494493480532900D-01 -2.26466409265265700D-01 -2.38037759293299300D-01 -1.24042338244826800D-01
24  5  3.66003710466423200D-02 -1.13142462213889400D+00 -1.21963008217679600D+00 -1.77974285298601100D-01 -1.06716577728668100D-01
24  6 -5.45881700522997500D-02  1.61304747780966700D-01 -2.96467892609745400D-01 -1.22738423306973900D-01 -5.41270424860645800D-02
24  7  8.34606747143526000D-02  1.29661565133658500D-01 -9.25699292345846900D-01 -6.55252959214175900D-02 -3.48810265961485700D-03
24  8  2.67919908811920700D-02 -8.49380784252596200D-02 -3.13861276819833700D-01 -1.49658605845136800D-01  1.32089839223246600D-01
24  9 -1.57939036456810500D-01  2.58491972335624300D-02  1.36205226128788000D-01  8.65380215255050600D-02  8.21859413551681600D-02
24 10 -1.99019254432874800D-02  1.00601846521803100D-02  4.70394033401287500D-01 -4.78445272084209700D-02 -2.79294902253072500D-01
24 11 -8.38097784569726100D-02  1.00946678545811000D-02  5.94392760986852700D-01  2.24217033342596600D-01 -2.49710837262518700D-01
24 12  1.43001114167114400D-01  1.06709723095403500D-01 -3.53280246556231600D-01  5.36669365743946600D-02  1.49395885118877000D-01
24 13  1.39421291638583600D-02  4.03537542051493200D-02 -2.51234941596563000D+00 -8.26499954932102300D-02 -1.87683947894525200D-01
24 14  1.22785674130145800D-01 -7.46303550625301100D-01 -1.09862714237025700D+00 -2.73537037759579100D-01  7.07595546267869400D-02
24 15 -5.13271082917411300D-02 -1.94324463350441200D-02 -1.19286050856431400D-01  8.06679984183387300D-02  1.21793937516456000D-01
24 16 -1.05807262851684400D-01 -2.11995245429431000D-01  2.69609005716004700D+00  9.49884123040329600D-02  8.41591454389032100D-02
24 17 -4.60015491506655500D-02  1.11318276585524100D+00 -1.68855364917242500D+00  4.55964757317405800D-02 -3.26147310329862400D-01
24 18  3.35087031333809300D-01 -8.93972100394697900D-03 -1.70002003924333700D-01 -1.86785478191842700D-02  1.63953809348751200D-02
24 19  2.92596367099902700D-02  7.23896851399796500D-02 -8.61093337478076700D-01 -7.86404939333118300D-01  2.31356470434367100D-01
24 20  3.10719182050034300D-01 -5.34448461847853800D-03 -3.12323557876802700D-01 -3.02472588215480100D-01 -6.66777821776367600D-02
24 21 -3.66093526761077100D-01  3.68834348389962400D-01 -1.62076664268182100D-01  2.22433594679078800D-01 -2.00319117759358800D-01
24 22 -2.21144769197198600D-02  5.07095327707074600D-02 -1.53264118356746200D-01  2.16596085688026000D-01 -4.45620428829561200D-01
24 23  4.49087464735949000D-01 -3.46703590638722900D-03  7.57161161761253200D-02  1.50630368737600900D-01  1.30589158261621200D-02
24 24 -1.67103082531898700D-01 -3.10709192294960100D-01  1.43500604133845600D+00  8.21609207247931200D-01  2.65782528365529400D-02
24 25 -8.28898472312679900D-02 -2.68159444799985400D-02 -7.29834272927031100D-01 -2.31888312403871000D-01  1.03475811885093000D-01
24 26 -1.56465258753244400D-01  8.77539507237371200D-02  1.12836112052051000D-01  1.39513685713359300D-01 -1.33468643098381600D-01
24 27 -6.04504261497828700D-03  2.13197903403102700D-01 -1.86285746329804500D-01 -9.00038581032198000D-02 -8.22308105386449100D-02
24 28  8.14523565682782300D-02  7.78453970366621200D-04  1.16320449939452200D-02  6.45696516235264000D-02 -3.23643364270139900D-02
24 29  3.65822864216438100D-01 -2.28951951159039000D-01  7.20865226293405400D-02 -1.00117311168055500D-01  4.75599345645076000D-02
24 30 -1.85358102978611000D-01  2.16436738032259500D-01 -2.24880316831809100D-01 -3.62608823329805400D-02  1.91611117163790500D-01
24 31 -2.15133420378615100D-01 -1.55627319871009200D-01  2.00583602112737000D-01  5.00872718245547300D-02  1.45536589595035800D-01
24 32  2.79087863832154100D-01  4.45899790598452300D-01 -2.10788746024337200D-02 -1.42557691170137100D-01  4.19704021350283700D-02
25  1 -2.08034712716508800D-01 -4.18474192293954400D-01  2.45950226192072300D+00 -2.23945439368240700D-01  2.02346578990675200D-01
25  2 -1.85567968076805200D-02  1.70327676868004600D-01  3.49638070378042500D-01  2.35786245424750800D-01  1.72555967826661800D-01
25  3  8.47928106008880900D-02 -2.57348778427550100D-01  2.01621393918328600D-01  1.13484677500968700D-01  1.99734923662597500D-02
25  4  7.50023842564281400D-03  5.88855854578992100D-02  1.33089844245490000D+00  1.45757299682358300D-01 -1.71443758263697400D-01
25  5 -3.48455135005624700D-02  5.03332500904957100D-01 -1.67662021980475700D+00 -1.03733078091177200D-01  3.05454684629119200D-01
25  6 -1.97357627928727400D-03 -3.03481108349832100D-01  4.70312083247410100D-02  3.94044145174803100D-02  9.02944468530600500D-02
25  7  3.12686282012671400D-01  5.82489624143507600D-01 -3.22344824452334700D+00 -7.76103710732786600D-04  5.04063181717398200D-02
25  8 -2.31474387931790200D-02  2.24550523007386300D-01 -1.36578894683225300D+00 -1.14364547901474700D-01 -2.12715865679565900D-01
25  9 -9.63130760453087300D-02  3.09028941724874700D-01  1.59051775951172400D-01  5.40971607475579800D-02  2.78723982094260500D-01
25 10  2.64531103877448300D-02  9.77538651277996100D-02  7.71158396524700000D-01  4.52265762837869900D-02  2.18047444115397300D-01
25 11  1.04858496821587500D-01 -4.94117238054684900D-01  1.44095615300254400D+00  5.62583572282114200D-02  4.86678786161073600D-02
25 12  3.50199985150879600D-02 -8.36878771311961200D-02 -4.38978531022772200D-02  1.04312224104955300D-01  2.15829776064577500D-01
25 13  1.36412561611430500D-01  2.39359432327650600D-01 -1.78778998195473800D+00 -1.27767367392372100D-01 -5.20835523883519500D-02
25 14  2.08867770154367400D-04 -4.07530506676613300D-01  3.51757524251661300D-01 -1.16587068311818500D-02 -1.19565213936872500D-01
25 15  1.33377850693661800D-02  1.06227428867507800D-01 -1.35022547963016200D-01 -1.20997278021032800D-01 -5.30230565323758400D-02
25 16  1.65485965261315700D-01  3.38683570795474800D-01 -1.21733361606735300D+00 -1.18086327203183000D-01 -1.38646598624413500D-01
25 17  6.66097246124123700D-02  7.94857362074068300D-02 -6.59293522378304400D-01  6.65188021352521700D-02 -1.00921144319232700D-01
25 18 -3.08173437746561100D-02  1.31738488093889500D-01 -3.39786418701914000D-02 -3.75815392221972800D-02  1.08510338960417000D-01
25 19  1.40697485986536700D-01  2.80960761629659800D-01 -1.04756802769295200D+00 -2.16601852670294700D-01 -6.71180172775924100D-02
25 20  2.07985411217790700D-02 -1.12923210754954700D-01 -2.60479040467949500D-03  3.74187166807784000D-01  1.23110922585009000D-01
25 21 -1.08381689189534800D-01  3.97915359515529700D-02 -2.06921015743187500D-01 -2.18270947263270900D-02 -1.33775303689468800D-01
25 22  1.55602398415796300D-01  2.08162467382047300D-01  1.57839882692819200D-01 -1.98318968744443500D-01  5.93578679999367500D-02
25 23 -2.58292666208189800D-02 -3.35286013791176800D-02 -3.47087780254207100D-02 -1.90193851075405300D-01  3.02272551451884800D-01
25 24 -5.58844065393868700D-02 -1.40310333062642300D-01 -9.33220694748227900D-02  1.33965937685502000D-01  2.95444938418188200D-02
25 25 -1.29777092399524100D-01 -1.16211885301986700D-01  6.06405379469904600D-02  5.78551956680702100D-01  1.81513703134708800D-01
25 26 -2.63386574293501200D-01 -4.40731809835517400D-02 -4.65079276620815700D-02 -2.88310079932172700D-01  1.51399332262719700D-01
25 27  1.36910747669453200D-01  6.98651121058901100D-02  1.36806953820388600D-01  1.12417431069467800D-01  3.31645728873242200D-01
25 28 -3.08730507689863100D-01 -2.29152211833792900D-02 -1.49427560214726700D-01  2.16947561472958600D-02 -9.91600996060356100D-02
25 29  3.25728244741325700D-01  7.99745915682301100D-02 -8.90125284889504400D-02  1.15008794989006200D-02  1.88045729158561500D-01
25 30  3.14903850224961100D-01  7.32918897382735600D-01 -3.22838330270352000D-02  2.74995931726520900D-01  1.17065216734149900D-02
25 31  2.04838459872795100D-01  2.22461079750260600D-01  2.52582177503618700D-02  5.78045713532534900D-02 -1.08936551742639800D-01
25 32  3.82561405745145100D-01  1.79825376055651500D-01  2.44213283308991100D-01  8.00081894738394700D-02 -3.24036737988888800D-01
26  1 -8.63692562325205200D-02 -1.56802661641597500D-01  1.25814003221577200D-01 -6.59661183707198900D-02  6.76780110234119900D-02
26  2 -5.06138569113288000D-02  3.25480771696919200D+00  3.08813172647727400D+00 -2.67731505369587100D-01  1.74443176210036100D-01
26  3 -1.35940859043495800D-01 -3.85023171665388400D-02 -4.08012265834583700D-01 -9.50660708766781900D-02 -9.13946643969257700D-02
26  4 -3.17327985906472900D-01 -6.67493428491685000D-01  2.73978950718822600D+00 -3.09627762352677100D-02 -2.66597903123281100D-02
26  5 -3.02934608955047400D-01 -1.47461188866514100D-01 -5.75376907799308900D+00  5.30367336996814000D-01 -8.49676098509617700D-02
26  6 -1.69546206258395700D-02  1.01922230476799700D-01 -8.16614729436116200D-02 -1.42119500309358700D-01 -7.50627753001799100D-02
26  7  3.21467544027742600D-01  6.69628946803398900D-01 -3.10236471823859800D+00  3.16562538024633400D-03 -1.56334166159841600D-01
26  8 -6.20622116529888800D-02 -5.62520691660351900D-01 -4.59164029330999300D+00  4.92737169696437500D-02  1.99748174545124300D-01
26  9 -1.11505387083138900D-01 -8.82427874619858800D-02 -1.51212237869768600D-01  3.54008750764138800D-02 -1.59070858292061600D-01
26 10 -8.18530271079790400D-02 -1.38892102836192400D-01  2.75202611036355700D+00 -1.64030268487885000D-01  9.60544841786409400D-02
26 11  1.53498758435235200D-01 -4.20852110766892700D+00  1.38586415557446900D+00 -2.84855993112313400D-01  1.04187931486146800D-01
26 12 -1.52490107366691100D-02 -8.89389207494811200D-02 -3.41545980635099300D-01 -5.83194407296854500D-02 -1.82574287325606400D-02
26 13  1.87574850815809700D-01  2.92647222962862400D-01 -3.48634843456361700D+00 -8.46583689972732500D-03  1.03809554207609400D-01
26 14 -1.93616150140694600D-01 -3.56577858973208900D+00  2.63272146780338400D+00  4.92136016478629300D-01 -3.54482064326468800D-01
26 15  2.12391671272539900D-01  1.42090393053932400D-01  1.85487819110416500D-01 -1.35535163252043700D-02  2.11096334504098100D-01
26 16 -1.24046696592301700D-01 -2.09566568012779500D-01  1.89823564534851300D+00 -1.19950509605820700D-01  1.47660419694811400D-01
26 17  7.60226821078949400D-02  3.31187060064538300D+00  1.34524915396498600D+00 -3.49952111560609000D-01  3.41592082438561700D-01
26 18 -3.46065360990358300D-01  4.47327855179453800D-03 -4.65914546513467300D-02 -3.73535961874766800D-02  1.46721995792731200D-01
26 19  1.57856017911058200D-01  3.07895676699750400D-01 -1.38161936442242200D+00 -1.70765318469270500D+00  1.26833609018274100D-01
26 20 -4.91018317028585800D-02 -7.00080006624244900D-02 -2.30555463966541400D-01  5.03110013029478800D-01  2.36581339899358900D-01
26 21 -1.27945282045602500D-01  6.22943707827939600D-01  1.00762507510635900D-02  2.46030188086611100D-02 -6.20273311530287200D-03
26 22 -1.84002856933581000D-02 -1.50209472561351300D-01  1.71269532294208700D-02  1.07959861812519400D-01  3.23546436896624800D-02
26 23  7.02672249015222200D-02 -1.02621868591184100D-01 -7.75260198521293400D-02 -1.25630952877311400D-01 -2.04734982058369600D-01
26 24 -2.36099676412876400D-01 -4.81319857737965100D-01  1.53053421602479100D+00  1.12939079175744900D+00  1.42217042120579800D-02
26 25  7.19561991319784100D-04  1.10764736077478800D-01 -8.30631559503167900D-01  2.87770736216075900D-01 -8.95986580832435300D-02
26 26 -3.89755692678373400D-01  5.06567712036816000D-02 -1.91159341249584600D-01 -1.85236070425418000D-01 -7.14183367575349800D-02
26 27  2.56654407182953900D-01  5.44360931742334000D-02  5.46488927756406700D-02  2.53271481636608800D-02  2.00506266278517700D-01
26 28 -8.30859851796308500D-02 -1.17420281098887000D-01 -2.24576024649386000D-01 -2.88806901689296100D-01  6.17682825577664000D-02
26 29 -2.82472416944925600D-01 -6.03944029900598900D-01  4.14883872613793600D-01  5.68464948628707600D-02 -1.21829601991420500D-01
26 30 -3.18266150306258000D-02  1.93842347428216300D-01  4.59933181381694600D-02 -9.79251843846036900D-02 -1.05948538928690600D-01
26 31  7.71969846242675000D-02 -3.62809693734935400D-01  5.03855440099936500D-02 -3.05646070819379500D-02  5.23730453451887100D-02
26 32  4.90700777148336100D-02  8.41019674550270200D-01  2.05673738244241500D-02  1.10228588884520000D-01  2.17449910598139100D-02
27  1  3.49267385678961300D-01  6.29354581783886500D-01 -2.54298550398420900D+00 -3.86929285620753500D-02  4.95891394898004700D-02
27  2  7.22782606950333200D-02  4.47049822365987800D+00  1.05979093109287700D+00  7.83511629945874100D-02 -6.35800051680567600D-02
27  3  8.18045741961812400D-02 -1.82245690281242700D-02  1.27366467759958900D-01  7.98145992299924000D-02  1.30057793999503200D-01
27  4 -6.26404899623737300D-02 -1.10406796451097600D-01 -1.32806545844457100D+00  6.78822408553227600D-03  1.03880171483088200D-01
27  5  4.09336400758009400D-02  7.35746077213448600D-02 -1.62572700203882200D+00 -1.96621658017962900D-01 -1.39375552018821400D-01
27  6  2.58169807080786100D-01 -1.18794255061964800D-01  1.90249448769951800D-01  5.14015617645088700D-02  4.39865910948597800D-04
27  7 -5.37851757583188600D-02 -1.77025828245204200D-01 -4.77401993478079300D-01 -3.34886133366650400D-01  2.21629363782341900D-01
27  8 -2.21254884838927700D-02  2.81074881158252900D-01 -7.56117126987035400D-01  3.64808648384578000D-02 -1.01740577004372100D-01
27  9 -7.89257371487836900D-02  1.80666314153156300D-01  1.04069683067038900D-01 -4.72329079839463000D-02  7.92742563597807600D-02
27 10  7.37823114172849700D-02  2.88307518792409500D-01  2.58070918382374400D+00 -1.51917798432364700D-01  1.23220634224088400D-01
27 11 -4.13630016378735900D-02 -1.56713981520121100D+00 -1.52745073403512500D-01 -1.14407281962825400D-01  7.76233452255851900D-02
27 12  1.69811291264075400D-01 -2.47434636489661800D-01 -1.66426464641834800D-01  1.25922528352659600D-01 -7.36469701241825800D-03
27 13 -7.29928270977884300D-02 -2.32782732920399700D-01 -7.03074338805467100D-02 -1.69176979923334700D-01 -1.93548346866712700D-01
27 14  3.51153866535886300D-02 -2.42519607689219500D+00  1.80361786967812600D+00  7.41565026881891000D-02 -2.91822259014151800D-01
27 15  5.86188107074813000D-02  2.33203448306671300D-01  2.05968108511847900D-01  1.35813380577367400D-01 -1.00044845995920400D-01
27 16 -1.87157953220456800D-01 -3.27980102979070700D-01  2.30689728635356600D+00 -1.57608787668941200D-01 -1.62099458184974100D-01
27 17 -3.59176861449684400D-02  3.33704736887792900D+00  2.40268666335928800D+00  2.46719028454010600D-02 -2.13410256499148100D-01
27 18  1.59077883961329500D-01  5.43323725378173400D-02  5.79154445932829300D-02  1.36841744941093400D-01  1.94573479779726600D-02
27 19  2.27728924196182900D-01  5.06637672193230500D-01 -8.15232264304971100D-01 -2.93748747405274300D-01  2.77331277237260800D-01
27 20 -7.38318242114294300D-02 -6.48207861054426500D-04 -1.26116656162548500D+00  3.90116038825086600D-01 -1.15793536923872300D-01
27 21  2.18538489549350600D-01  3.09889055890083100D-02  3.54534916574713100D-02  9.67033984130672800D-02  2.37150600364108100D-01
27 22 -3.33853998777175300D-01 -1.73121496898431400D-01  2.41428030601919100D-02  6.65584812364480900D-02 -2.09326397747532500D-02
27 23 -4.10165813693781300D-01  4.31098453468536000D-01  5.53797592771933700D-01 -8.25778341538894900D-02  1.55534753570877100D-01
27 24 -8.52827870767303300D-02 -1.90668661474776400D-01  5.30536608001243400D-01  1.93139201044253300D-01  3.66589140786616700D-02
27 25  7.53266551616048700D-02  1.68211537939058200D-02  1.57105217813269900D-03 -3.01417985477811600D-01 -1.01353492977219200D-02
27 26 -1.74703261396327900D-01  8.69826482903363800D-02  6.90963298823654400D-02  2.05371979923156400D-02  2.06949003043201100D-02
27 27 -4.12320982966350600D-02 -2.84578162626271600D-02  1.30721207050879600D-01 -2.84250582518318100D-02 -5.40460581206118500D-02
27 28  3.70433620038982300D-02  1.70026961167135800D-02  3.01487667183894900D-01 -1.26712220821971500D-01 -1.74125989145695000D-02
27 29  2.97594574910167400D-01 -1.61825139496219000D-01 -2.54536476738553700D-01 -2.39150390539063900D-02  1.34121676636509100D-01
27 30 -3.73050180902892000D-01 -5.75339465588809000D-01 -4.27870844914348200D-02 -1.33012068722224900D-01  1.47598342112691800D-01
27 31 -1.54210216134202200D-01 -4.12563790910531600D-01 -1.06659890081878900D-01 -1.61116734760527700D-01 -4.97291421606974800D-02
27 32  2.21732827206972800D-01  7.97751725957202100D-01  8.24499648734486800D-02 -1.69673175310306800D-01  1.18285693102795600D-01
28  1 -2.32331453617152900D-02 -6.31013450780776300D-03  3.87657463414956400D-01  2.14757135915230500D-01  3.22785269701969400D-01
28  2  3.18454433238880600D-02 -1.84721846114763700D+00  8.52273218065640800D-01  2.23875557640728000D-01 -2.63296373292935500D-01
28  3  2.28522797103457400D-01  3.47735761894787100D-02  2.31024984543120200D-01 -6.36018976854790100D-02 -5.87816340136876000D-02
28  4  6.29699838987021100D-02  1.78959597161364200D-01  2.60477699446738600D+00 -1.15643094641210600D-01  2.67895978588729000D-01
28  5  9.06937768788499500D-02  4.33517345327177800D-01  1.14467025176873000D+00 -9.96115288496199500D-02  1.29807225430386000D-01
28  6  1.06443398376963300D-01 -2.36250623807349900D-01  3.34537829411450500D-01  1.29724425778184600D-01 -3.02136495708512500D-02
28  7  4.01882994190170700D-02  1.12463720107072500D-01  1.27314363553193800D+00  1.48980933408774700D-01 -2.22963529540596800D-01
28  8 -3.13839553789315000D-04 -6.24027222691022100D-01  2.29917946055977200D-01 -6.73664574886039400D-02  2.35187104197856700D-01
28  9 -1.66330461665843600D-01 -6.88566425320129000D-02  1.77419493255834700D-02  6.20144096770644500D-02 -1.58350592450103300D-02
28 10  1.76909575002114100D-01  3.79623609031826700D-01 -1.54234263607449000D+00  4.69506273031725200D-02 -9.48449693627463900D-02
28 11 -1.67101216746579100D-01 -6.28524869143579900D-02 -1.29124476517558800D+00  2.70422176817865600D-01 -1.09089644839020700D-01
28 12 -5.54728276975119900D-03  1.14636927608771800D-01 -5.08866283309751700D-02 -5.65939506001322600D-02 -1.49072721521059800D-02
28 13 -1.88030689448819100D-01 -3.43544485961069000D-01  1.52352194053784900D+00  4.95147921144645000D-02 -2.47630172761201900D-01
28 14 -8.85210193338705600D-02  5.94393261945899500D-01  6.17379855579406200D-01  9.59635068123264500D-02  1.08544593469421600D-01
28 15 -5.05693796324369300D-02 -5.79752138369852700D-02  7.09715617725190100D-02  1.19326128872477000D-02  6.87361543031512500D-02
28 16  8.66973119930333200D-02  1.89524538467734900D-01 -1.65042839576023600D+00 -1.88219799950991500D-01  3.03054804870545500D-02
28 17 -1.43645423835371100D-02  3.64860848460940200D-01 -5.04751210255100100D-01 -2.43040233328181400D-01  2.63605286044369100D-02
28 18  1.62571402991822700D-01 -1.88931931596258700D-01  5.26702240859026700D-02 -1.08727179391755700D-01 -5.04120338644369600D-02
28 19 -1.75766392485000100D-02 -1.31071678276688800D-01 -7.24265669887862600D-01 -4.77046013010584000D-02 -1.41545420977419800D-01
28 20  4.14927146405514000D-01 -3.80044895943474700D-02  3.73786391724764300D-01 -4.24277441771168200D-03  4.75797787530531400D-02
28 21  2.32406971584094500D-01  3.33461571663916600D-01 -1.13436223547060100D-01  4.41931643701843900D-02 -1.71363509720054300D-02
28 22 -2.70568133981790800D-02 -1.16154719230728300D-01 -7.43515789706869800D-03  4.45666878118694600D-02  1.21296529904932800D-01
28 23 -9.37154499252003700D-02 -2.75810799797335000D-02  1.21516177390416200D-01  3.71345249843015700D-02  2.39090900668374100D-02
28 24  1.71734350439759500D-01  3.49792314761596100D-01 -1.40955363817374000D+00 -9.41343184417466300D-01  2.14293937225016800D-02
28 25  8.33269371479626200D-02 -4.91390352118187700D-02  7.64804401862845900D-01  2.68902642540714400D-01  3.80335831942880500D-02
28 26  2.89840300023569100D-01 -2.50651542254459000D-01 -1.98358344857676900D-02 -6.85684751177156600D-02  8.73961148633772700D-03
28 27  5.98288636313782600D-02  9.91919399364149500D-02  1.36029050658476700D-01 -1.02919498468490600D-01 -2.15185402826413100D-01
28 28  1.33130997569498200D-01  8.20544052569149700D-02 -1.00824528515242100D-01 -2.11411131140328800D-02  1.36503345231180800D-01
28 29 -2.53890696759526200D-01  1.78214192121486800D-01  1.61101005676777600D-01 -2.00981517152067600D-01  5.37002008073040500D-02
28 30  3.41648220674083800D-04 -7.35593951636499300D-01 -1.55845417886389700D-01 -1.87784880183616200D-02 -7.69567552728548700D-02
28 31 -1.14075703761234700D-01  3.22939235119085000D-01 -1.99792781227636200D-01  4.69145316133263900D-02 -1.27168064598045500D-02
28 32  4.44067171697242000D-01 -1.78555047168676600D-02 -1.22854080192776900D-01  7.65784852347072400D-02  2.32354490019021200D-01
29  1  1.61197764900835100D-01  2.89751747588698300D-01 -9.31984595140210400D-01  6.74830171615560200D-02  5.43541769210237100D-01
29  2 -1.63808024753948100D-01 -2.12907483760419500D+00  3.39236250920144900D-02 -1.12113311657996300D-01 -5.59379104697698700D-02
29  3  1.34389387613835100D-01 -7.84514771440647800D-02  9.04039360655950100D-02  1.13508269122457300D-01  3.87278975709924400D-02
29  4 -5.55815747952532300D-02 -5.24042612557521200D-02  2.27161830608197000D+00  1.67289233522780400D-01  5.31613940472232100D-02
29  5 -1.43977092122546600D-01 -1.96657858025331700D+00  1.08486717626719300D-01  1.01513391921468200D-01 -3.02683876277756900D-02
29  6  2.65799098283315700D-01 -2.35530710655540600D-01 -8.76122363642078800D-02 -7.65476677584491200D-02  1.23966602543584000D-03
29  7  6.46714846936937300D-02  1.08430167273526300D-01 -8.66771872773437900D-01  8.45997714785868100D-02 -2.48462153243506800D-01
29  8 -6.80585076286645300D-02  6.97375344284387200D-01 -5.93376878950032200D-01  3.49791122835230700D-01 -3.93924997412667000D-02
29  9 -1.32334170760871900D-01  1.71726670502138600D-01  7.56038588556097900D-02 -1.29154428213267500D-01 -8.65828015812625300D-02
29 10  2.03975341213722700D-01  4.65262863661635900D-01  6.06765770607310800D-02  5.59231958839530800D-02 -1.10405624483750200D-01
29 11 -4.47466574335168000D-02 -2.60609039937067600D-01  8.43476340124121500D-02 -3.82639836193162000D-01 -1.79976769011240800D-01
29 12  1.57470719330910600D-01  2.25060496803283400D-02  1.95771256311138300D-01 -1.50461073165848900D-01 -4.95720910611222400D-02
29 13  1.27181986336828400D-01  2.38647984871670600D-01 -1.81705540170150300D+00 -3.05743236025231500D-02 -1.37356083196539500D-01
29 14 -5.82032552353573400D-02  2.60898793361370500D-01 -7.17251200389341100D-01  3.09022078998657500D-02 -5.07607181056819500D-02
29 15 -7.14654864013275900D-02  1.22226204507009500D-01  3.11532865386473200D-02  2.83782302265483500D-01 -2.44900858417578600D-01
29 16  1.13033708416249200D-01  2.65876384371376500D-01 -4.61145421898681700D-01  6.89108966988401100D-02  2.18043112259259200D-02
29 17 -1.13419912486744700D-01 -3.06774906241641600D-01 -1.61583169115348000D+00  3.38699026213311300D-01 -4.73920136662712600D-02
29 18  2.05896740637843500D-01 -1.58504726971571900D-01  1.85728914393058000D-01  2.17231023209276400D-01  1.16066451513392300D-03
29 19 -5.37518591297838400D-02 -1.64513966126626100D-01  3.39168401226060700D-02  8.45138262766435800D-02  9.96844232835363000D-03
29 20 -2.75484366569430400D-02 -4.54626194628261100D-02  3.29639219427858800D-01  3.97639402750878900D-01  1.40322907892847300D-01
29 21 -1.90844265014490400D-01 -8.59660037266164200D-02 -8.82348047358134700D-02  3.52936358355573700D-02  1.30842706598901200D-02
29 22 -4.83779064954479000D-02  6.15998160478741400D-02 -2.69969385076510400D-02  1.49959367297312500D-01  7.07574371407405100D-02
29 23 -1.20253881739429200D-01  4.94964445986885400D-02 -1.96228037819194400D-01 -5.25291090253869800D-02 -1.19920665318807900D-01
29 24 -9.94713950886127600D-02 -2.39291609836359200D-01  4.68767677303207600D-01  6.00884151167986900D-01 -1.01823759091357700D-01
29 25  3.94304071094810800D-02  1.20932211413949100D-02  2.31860587423846300D-01 -1.58030880886301300D-01  4.42772109530974900D-02
29 26 -1.10743314737866300D-01 -3.21221254439820300D-02 -9.47891160680719600D-02  8.30233432796407800D-02 -3.31798675974526900D-01
29 27  2.48775332694886000D-01 -5.46419593885214100D-02 -5.89921706768304900D-02 -1.63333841263760000D-02 -2.03736735532311400D-01
29 28  2.80727527450655400D-01 -7.69907919183439900D-02 -1.01555442399357200D-01 -3.00307089499137700D-02 -1.71110230926210100D-02
29 29 -1.35595851510974900D-01 -1.79153729270761100D-01 -2.19094685324142100D-01  2.02931472638972500D-02 -1.27762851935223900D-01
29 30 -1.22093936480251600D-01 -2.07780750946004800D-01  1.27410205374811800D-01 -2.00817380825026500D-01  1.49858328396262600D-01
29 31  4.61757356817623600D-02  6.24899339944480200D-02 -8.55275330758410400D-03  1.19851005172934400D-01  5.26921119055654800D-02
29 32  1.68269424418048700D-01  3.15230344703424800D-01  1.09606127564712600D-02  5.95782446713938000D-03 -4.57200061706659800D-04
30  1  2.22063884844486500D-01  4.46008356720249200D-01 -1.62091361481897600D+00 -7.66919051939491400D-02  9.88851829646669000D-02
30  2 -1.44734435481318100D-01  1.05965567756849600D+00 -6.40217888379075900D-01  7.75101105448123200D-01  8.96201561529908400D-04
30  3  6.46188551032040300D-02 -6.55150566647337600D-02 -5.52955471462044000D-01 -3.46758735261295100D-02 -6.60977695004065600D-02
30  4  7.87526711821419200D-02  6.91655370648476400D-02 -2.45062132783355900D+00  2.02855864415783400D-01  1.28770016898935100D-01
30  5 -1.17376818097884300D-01  6.49897705313273700D-01  2.23814176668942700D+00 -5.64319137105185200D-01 -9.24962867567108700D-02
30  6 -3.22531461393146800D-03  9.57216013706425100D-02  2.88525744811057700D-01 -1.18080520459254900D-01 -8.08900476353461900D-02
30  7 -8.21694288262173200D-02 -1.17034366309486700D-01  2.90959640962039700D+00  1.94338367570575900D-01 -1.72211390590895600D-02
30  8  1.41893948835288800D-02 -1.54802664637761600D+00  2.46273260693672200D+00  1.47122147070281800D-01 -8.09651089370592000D-02
30  9  1.32580348669437100D-01 -5.16152397323777100D-02  2.23453129327740200D-01  1.13179415664628600D-01  8.34750188942542400D-02
30 10  2.24387108430416200D-01  4.35916902437116300D-01 -2.28562048572421700D+00 -1.68781016708800500D-01  3.02443105290257900D-01
30 11 -1.06371130262061000D-02  8.75417733578566800D-01 -2.12656224463702000D+00  1.31358745522618400D-01 -1.16013969007558700D-01
30 12  6.86704543114966000D-02  4.73435146960633800D-02 -6.21264084080562300D-02 -3.78332328520236700D-02  1.08374878830728500D-02
30 13 -2.15148694058792100D-01 -4.61396826628246700D-01  2.25458857062394400D+00  9.92319111452002900D-02 -7.20375519366592300D-02
30 14 -9.81126787049295000D-02  4.95650572878267800D-01 -1.54261986778922700D-01 -2.85294730499584200D-03 -1.76671406613915900D-02
30 15  5.47436394431138800D-03  1.21927767170790400D-02 -5.04028475977218100D-02 -6.54769589313913000D-02 -1.15153552537250100D-01
30 16 -5.05893412620349100D-02 -9.68998887953927600D-02  5.34994936213213500D-01  1.83944700595371000D-01 -8.41669603175711600D-03
30 17 -1.61935495501680900D-02  7.92385717022637600D-01  4.33330290127045600D-01 -1.78529431399496000D-01 -2.77910464124543900D-02
30 18 -4.32873963082892300D-02  7.10784427207447300D-02  2.79981137471350700D-01 -2.02258835951395200D-01 -2.05600646635174400D-01
30 19 -1.31135755600344500D-01 -2.92930120892170500D-01  7.36899073220071900D-01  3.77153554105450700D-01  1.76304177857650300D-01
30 20  3.14777611227124800D-04  3.82423436383137500D-02 -2.05582191217154300D-01  1.65782266754248500D-02 -1.43952067009309300D-01
30 21 -9.12569496244141900D-02 -2.91959955069208200D-01 -2.21302972828243400D-01  6.56772274073538400D-02  7.42987603514139600D-02
30 22 -1.39975987758768300D-01 -5.09868645745285100D-02  7.53313451399146800D-02 -1.12586646778083200D-01  5.50036773667052500D-02
30 23 -1.52111365258879900D-01  9.71076878921743200D-02 -6.68072995198822800D-02  3.61230651272598300D-02  1.71135928479866300D-01
30 24  9.94063063785313700D-02  2.03886371044022400D-01 -7.02818469905476100D-01 -5.92541064228218400D-01  1.40194969475286500D-02
30 25  2.11903934709006700D-02 -5.12424273813090200D-02  4.19484219531698800D-01 -2.26512970500212500D-01  3.17735640493598000D-01
30 26  3.05186667232050500D-01 -7.84178866890627700D-02  3.71120497767001200D-02 -2.05298552724286200D-02  1.20294710939648200D-01
30 27 -9.97648556672197500D-02  8.00519109605839500D-02  3.01608595290476300D-02  2.73516536076913400D-02 -1.97613732505624600D-01
30 28  2.16590245335180500D-01 -1.89765128295557700D-02 -2.24159596555637100D-02 -2.78646227929157900D-01 -1.67241309694845700D-01
30 29  3.45843902950962200D-01  8.66624909719774400D-01 -8.87408432916261800D-02 -2.05522154237867300D-01 -1.92553442808157600D-01
30 30 -1.74822480440827900D-02 -6.46580929850674500D-01  1.75575295596711400D-01 -1.55777550733371300D-01 -2.02140447692485200D-01
30 31 -2.89648366783622300D-01  2.62638509005652400D-01  2.40079235228395200D-01  8.17917968030769700D-02 -8.73020434443244500D-04
30 32  3.83225796417708300D-01  1.12335714865995500D-01  9.61688266954442700D-02  3.91220004040932400D-02  3.30469896468349000D-02
31  1 -7.60014838224080300D-02 -2.57314887580171000D-01 -1.59397179200998100D+00  1.68749578639201500D-01  3.41802278902347800D-04
31  2  1.48865392159956400D-01 -2.87300964422323100D-01 -4.95811396802821500D-02  1.47747501620313800D-01  1.16111876516869200D-01
31  3 -2.65242816991159000D-01  1.49130940474288500D-01  1.80251180722497100D-01 -7.20883921755612500D-02  7.04056844145809100D-02
31  4  2.01233182344652700D-01  4.10691798878367200D-01 -1.91541715616467800D+00 -4.40704556823310400D-02  7.44664478507323300D-03
31  5  9.77450658463358500D-02 -8.41427708743082900D-01  9.52011677764237000D-01  6.55490929427199200D-03  1.24543697637093700D-01
31  6 -6.44213207848878800D-02 -6.01223768522061300D-02 -1.69211501613430700D-01  2.46976385251190900D-02 -2.99808540994965900D-02
31  7  3.89208482111383200D-02  9.21834508241592800D-02 -4.47050093825922000D-02  7.68932840893169400D-02 -1.89186240513533300D-01
31  8  3.81999867509021500D-02 -2.75249376410975500D-01  2.05919371274909500D+00  5.64495940769039800D-02 -1.19367829145475900D-01
31  9 -2.37715075092289600D-02  1.43139336654705100D-01  1.38013780094556600D-01  1.20629101444031900D-01 -9.51617411270755700D-02
31 10 -6.36948407878218700D-02 -1.88406416341418200D-01  1.28385920965231100D+00 -7.15613200907315900D-02  2.02300118191116100D-01
31 11  1.12944564436803300D-01  8.41463467315298900D-01 -8.44860084237886400D-01 -3.19510534928186200D-01 -2.30029582606216600D-02
31 12 -9.88005066421604700D-02  1.21803464902782700D-01 -4.31305005836542500D-02  1.61602877438408800D-01  1.00152207805713400D-01
31 13  6.51005231822269500D-02  1.38769950476683800D-01 -1.01023708712301900D-02  1.46261056901076100D-01  1.86990819659097000D-02
31 14  4.08097235276997400D-02 -1.31718761240275900D+00 -9.22720611854256200D-01  2.49496028620979600D-01  5.03026345792128600D-02
31 15  3.22891109025631600D-02 -8.25917454817763100D-02  9.51225752871136400D-02  2.53148554677312100D-02  1.57536656107946800D-01
31 16 -7.53513330336163000D-02 -1.14308499727436700D-01  8.70709002107759300D-01 -1.78411038265153000D-01  2.10366575462581300D-01
31 17  1.06321894232818000D-01  1.40338945939277600D+00 -6.51213520352521000D-01 -2.83236791265483500D-01  1.68309630361122400D-01
31 18 -2.27564810956074200D-02 -1.45553149265514900D-01  6.57234997489694400D-03 -1.92955463544803900D-01  1.10607149153365200D-01
31 19 -8.22639137015702000D-02 -1.61499798607836200D-01  6.98053059552945600D-01  5.56420603200209500D-03  2.38430133773309200D-01
31 20 -9.78124760338221200D-02 -4.82847195973398200D-02 -4.02955482026054600D-01 -3.65832337003724800D-01 -2.13220969318284100D-02
31 21  7.66648516268776800D-02  1.56818544745177600D-01 -8.98619143819964100D-02  3.61381858555630700D-02  1.29050728170716800D-01
31 22 -1.65188914026279500D-01  1.21445372406477000D-01 -2.96742744603888700D-02 -9.73502104433917300D-02 -2.62853381527281500D-02
31 23 -1.03242810671052500D-01  1.29528148823781600D-01  6.63072862109191600D-02 -7.48118620666770300D-03  2.43806294391038700D-01
31 24 -2.75347758080461800D-02 -4.51169142984396600D-02  4.13593997118883300D-01  4.75700173821296400D-01 -1.02255204639236100D-01
31 25  4.68248131733711000D-02 -7.41281757224085400D-02  7.17612707223933800D-03 -1.88939853430200800D-01  4.11527031750871000D-02
31 26 -3.20437228534018100D-01 -1.76666699625010100D-01  3.47095962255847800D-02  9.84577140645713800D-02  7.57980459318549900D-02
31 27 -1.74255759996426700D-01 -2.14082110764481600D-01  1.07618137105764700D-02  7.88709202177180300D-03 -1.25778721942316700D-01
31 28 -2.10893868885378000D-02  1.46868108830854400D-01  1.52203741493129000D-02  9.87109705834057500D-02  1.93795801384163300D-01
31 29  1.87071057418570300D-01  8.22793197220751900D-01 -2.29912826907513100D-01 -1.96053842387718400D-01 -1.80754756974716900D-01
31 30 -6.74086234723576000D-02 -5.43727262306167300D-01 -8.21708330018772700D-02 -1.20997389050168500D-01  2.79867619228379100D-01
31 31 -5.06376329103346800D-01 -6.35697646755720800D-01 -2.62980258528427300D-01 -4.46071164131269900D-02  4.57330887072159900D-03
31 32  4.06762125865999900D-02  6.63909384264320100D-01 -3.15600624054222300D-02 -1.72559892888400600D-01 -1.45344850683793900D-01
32  1  3.35662596722219900D-02 -5.16423197337996800D-04  2.21116368456244600D-01  2.90368975115427000D-01  9.37971279785710000D-02
32  2  5.93908139868919200D-02  1.31632660850436100D+00 -4.98239518466609800D-02  1.70342445196241900D-01 -1.11800664378885500D-02
32  3  1.73762362552640500D-01 -1.62582296114751600D-01  1.38718502257656200D-01 -6.92533417209181800D-02  2.07564099768852300D-02
32  4 -1.62408532378418600D-01 -3.79774246027625100D-01  2.31946742650591500D-01  1.84285660732284700D-01 -6.67224558575968800D-02
32  5  6.03852395703862200D-02  2.77428859442550100D-01 -1.20840518454581400D+00 -1.37951827626998800D-02  3.06843023662364500D-02
32  6 -5.03300839179596700D-03 -2.56512939744407300D-02  6.84100231304977800D-02  3.46600762272019100D-02 -4.48473534827805800D-02
32  7  1.10961727975232200D-01  2.37354224532021200D-01 -5.66534681451012900D-01  1.41130721643026600D-01 -3.06297935368049200D-02
32  8 -9.00166471215640100D-03 -5.37702858568730200D-01 -9.36902697950057000D-01  3.51396442614768000D-02 -1.43661848330870500D-01
32  9  1.92476312853516600D-01 -4.88144645226459000D-02 -1.15597839249450000D-01 -8.18161330398028700D-02 -1.03957435778753500D-01
32 10  8.88663445261539100D-02  1.39222451634029300D-01 -3.01272717928461600D-01  2.35964643589706900D-01 -1.43810650405548200D-01
32 11  6.13747190750076200D-02 -7.28429967574349000D-01  2.69386847112656500D-01 -1.53514948776671700D-01 -4.33508092478952300D-03
32 12 -1.06517141846972100D-01  1.10852222771761100D-01 -3.24166124569061300D-02  1.13691177332362100D-02 -6.24456783256487800D-02
32 13  2.35719807075880800D-02  4.64299888705323200D-02 -4.74395479803962600D-01  5.95587111646758100D-02 -1.24714563454867500D-01
32 14 -3.56573416020159800D-03 -5.01966453032618000D-01  8.13922762031808500D-02  6.54965829985805400D-02  7.71385511211447900D-02
32 15 -6.45099778277416200D-02 -1.26285732934026300D-02 -3.67644077201640700D-02 -6.30724103570398500D-02 -5.30871473656917400D-02
32 16  1.10059771081882800D-02  3.27412326894722400D-02  6.24339637913712700D-01  7.16799644381328800D-02 -5.68087623989219800D-02
32 17  4.08062965900517100D-02  4.38375995594416200D-01  4.22211897052073700D-01 -1.21405338688418800D-01  2.20859487821237400D-02
32 18  1.51701927222272500D-01 -1.73787876004396200D-01 -8.13468568319043300D-02 -1.02486362878065800D-01 -1.02856471509809500D-01
32 19  8.45859826981049400D-02  2.26728247203551000D-01 -3.05501465874297200D-01  4.70884010846584100D-02  1.16275461658780000D-01
32 20 -1.51723068390493000D-02 -6.47090403461428500D-03 -3.88047900457251100D-01  1.69738245465022100D-01 -1.12929587860973900D-01
32 21 -7.92522655019988900D-02 -1.84831812760233500D-01  1.04170284051870400D-01 -1.60928236142286500D-01  9.93262214166658600D-02
32 22  6.16020147256205700D-02  7.73617526251661700D-02  1.59448859554263000D-02  1.34330196176591900D-02  1.13441480692765300D-01
32 23 -2.34607332277199800D-01  1.21165851584434500D-01  2.62601268463063100D-01  1.14308199453523300D-01  1.80267532560501700D-01
32 24  2.57642952108289400D-02  1.04219328723169200D-01  6.72767131118772700D-02  8.49607697361171700D-03 -2.00284643049191700D-01
32 25  4.44899306048232600D-02  5.41577499225892800D-02 -6.64312303473078800D-03  6.31122104761742100D-02 -1.01490742622072000D-01
32 26  2.05350475870799300D-01 -9.79088086296039100D-02  7.63271514664846500D-03 -1.01930115928439000D-01 -2.13926235879595800D-03
32 27  1.04069378287235100D-01  5.01949059030959800D-02 -1.47931829734039900D-01 -7.77242848409479400D-02  2.96906411698053400D-01
32 28 -2.95011214429880500D-01 -1.89519726817282900D-03  2.82609244211030600D-02  6.64765066264211700D-02  9.72428664447515800D-02
32 29  1.72180155509080200D-01 -1.79050314681781300D-01  3.45053481251160400D-01  2.54499467911832000D-01  7.58179109094871300D-02
32 30  1.34271118032025800D-01  1.57513573117092600D-02 -1.17029586996052200D-01 -2.46752113138540400D-01  9.58057319622234900D-03
32 31 -1.20331335874408300D-01  3.02007504762027500D-02  1.43022708464111200D-03 -1.02508245676639300D-01 -3.81528389418100300D-02
32 32 -5.66328281085453200D-02  2.22447983189512200D-01 -5.75300643652809600D-02  1.56329812564125400D-01 -3.14100337913401600D-03
33  1  1.28307833928457000D-01  2.95746087986355200D-01  9.28597364078252400D-01 -7.39812779056859300D-02  2.32276920946622500D-01
33  2  1.59968648287262800D-02 -8.03002028526906100D-01 -4.46407702844769100D-01 -1.73293323338289800D-01  1.00623996153135000D-01
33  3  1.50487050672004700D-01 -2.51111046825140000D-01 -1.57488602516861900D-01 -1.09623838641452700D-02 -5.73589777616527000D-02
33  4  1.24956919149507800D-01  2.41202841300398400D-01 -1.16764283394015200D-01  3.70893015925958700D-01 -5.72691260019356100D-03
33  5  1.42298535442935800D-01 -4.77195037116779600D-01  1.79332532723449200D+00  1.03268697256246400D-01 -1.28290001089741600D-01
33  6  2.65846555593936600D-02  1.01705345530348400D-01  1.21622067023938500D-02  1.05508599246464600D-01 -1.68330526446733000D-03
33  7  2.62547724657972700D-02 -1.96662352681722000D-02 -3.76081791157539000D-01 -3.47605104058668200D-01  1.98343335048548000D-01
33  8  4.15575788442541900D-02  1.71047946219092100D+00  6.42789994429099700D-01 -2.18976569058327400D-01 -4.71768958942081600D-02
33  9  1.11814343278693200D-01 -6.46374473844853100D-02  1.71146103558302600D-02  6.51193077619467700D-02 -1.19748134473977500D-01
33 10 -8.55225292804474200D-02 -2.02099568329914400D-01  8.78289180650409500D-01  3.50430417592721500D-02 -2.24174282983982800D-01
33 11 -1.13160001905261000D-01  1.08335056131247500D+00  1.35957534705942500D+00  3.59204841099837000D-01 -1.54714913072694100D-01
33 12  2.54562230733781600D-02  1.29258689999316900D-01  1.24512546806954600D-01 -1.11688874114322500D-01  7.39560214839255400D-02
33 13 -4.84013506177798900D-02 -1.24424311937323900D-01 -7.07172076585128600D-01  1.85488613189994900D-02  7.63051946927047800D-02
33 14 -5.48395750476056200D-02  9.19711821181467900D-01 -8.60054961334822700D-01 -1.27534469332676600D-01 -1.85335994793102100D-01
33 15  1.02035816087689500D-01  8.33001787054124900D-02 -6.77020137788882000D-02 -1.13497553185643400D-01  5.87490435418353300D-02
33 16 -7.69608665653863200D-02 -2.23215004249141900D-01  1.26962114729070700D-02  4.96906860349271400D-02  1.36319540373236800D-02
33 17 -2.49464038077552800D-02 -8.48711857323625400D-01 -9.56315726387235600D-01  7.89675867838430900D-02 -1.56121158511831400D-01
33 18  7.99055324124511700D-02  7.62156260993805300D-02  1.27749474473549100D-01  2.97362625169402300D-02  2.64379496540602000D-02
33 19 -4.30535880990079000D-03 -4.36300804996496400D-02 -1.20715460186070300D-01 -2.85123491168880700D-01  1.15742946820395900D-01
33 20  1.55245185621206200D-02 -5.84326579738156900D-02  3.84864208905285500D-02  4.32815247606362800D-01  1.42454518013529800D-01
33 21 -2.32266146730728800D-01  2.14047800629984000D-01  1.81991166185681300D-02 -2.67995034770470800D-03 -2.35731004848636600D-02
33 22  2.62530508325686200D-02  6.12958758773324000D-02 -2.93027460868450500D-02  5.47825991806651200D-02  3.37756515533413600D-01
33 23 -3.58840149206330500D-01  2.10836336729175000D-02 -4.79549070864967200D-02  1.10585127392191000D-01 -8.04968763880826900D-02
33 24 -6.14852136943145100D-02 -1.77762663106112700D-01  7.51479413949823100D-02 -6.51968154269023800D-01 -1.66171456761378800D-01
33 25  1.47285543243917900D-01 -2.40516022242095800D-02  6.87935798476953400D-01 -2.36209687045071100D-01 -5.42556834124891500D-02
33 26  5.82363777439617000D-02  1.38714330401572800D-01 -2.95252083621906600D-02 -1.55322665231047700D-02 -1.03733684500886700D-02
33 27  2.59056349731933300D-02 -3.49980809901631900D-01  9.06348344167800500D-02  3.58085283951875600D-02 -2.62592973467912600D-01
33 28  2.08179046029355000D-01  5.44139274385577000D-02  1.44223679187893900D-01  1.17629925128998500D-01 -3.95690888972674900D-03
33 29 -5.80475814728957200D-02  9.79798523891332000D-03  4.25431689780454700D-02 -1.16879227107326300D-01  5.22914929581776200D-02
33 30  1.76245816490723700D-01  6.31830438336602100D-01 -1.15459515151538000D-01 -1.69092302024126600D-01 -9.59701898116563800D-02
33 31  2.78113381012702000D-01  3.41058908049661800D-01 -7.26985593885869800D-02  1.77873879460019500D-01  2.75073028491777300D-02
33 32  2.55683620872884200D-01 -2.04792260181604600D-01  5.88648105080683500D-02 -1.07171091414187100D-01  6.38598690988571900D-02
34  1  1.84123803138983700D-01  3.62161808159943900D-01  2.25663446620314800D+00 -1.35704299542544100D-01  2.23535453031937800D-01
34  2  2.45932396730055700D-02 -9.34742151726429900D-01 -7.92243415764907300D-03  8.54833557949147600D-02  7.64342021117000000D-02
34  3 -8.22769388252824500D-02  5.84273671358230400D-03 -3.64999991149025600D-02  1.75634169619797100D-02  5.45738175611703800D-02
34  4  2.96204271356986200D-02  5.99634901603537100D-02  3.21480546665589400D+00  5.94444209344169300D-02  9.70883893571809800D-02
34  5  5.52994883271477400D-02  3.16785773195264600D-01 -1.87974529954528900D+00 -2.27873620458685800D-01 -2.91247644917079200D-01
34  6  3.63646383719101200D-01 -7.23987388020225200D-02  1.02831099553157000D-01 -7.80296819819214900D-03  8.01511777423909000D-03
34  7 -3.37435922525025200D-02 -1.73108248183688600D-01 -2.08118139405216400D+00  1.23323855613293900D-02 -2.52849659265892000D-01
34  8  4.91083613520205800D-02  8.25442267325800500D-01 -1.76913101174631500D+00  2.31621685379664800D-02  1.41858930104419300D-01
34  9 -2.73515981026880300D-01  1.31657050922460500D-01  2.20169394646562800D-02  1.16568075041195900D-02  1.23769558736951600D-01
34 10  8.62490478584834000D-02  2.35403312381159000D-01 -5.06918370993155300D-01 -1.46779408578478500D-02 -5.32700098262879500D-02
34 11  1.38654987555892100D-01  1.38241248356743600D-01  7.26858724094610500D-01 -1.47461712159321900D-01  7.08779146460198500D-02
34 12 -7.11899998243068200D-02  3.12085178286367800D-04 -6.43006010294418200D-02  2.12060595060296700D-01 -2.17225474317332600D-02
34 13 -1.29386536551360400D-01 -2.99640356219544500D-01  6.27067807294261300D-01 -3.33306164104919900D-01 -1.65162740902992500D-01
34 14  2.04388747315779600D-01  1.61282981146666200D+00  8.05736326157332400D-01 -7.49680223418873100D-03 -1.88374200571222800D-01
34 15  2.39998315284936100D-01 -5.16241147137132700D-02 -1.08380095145090300D-02 -2.55201813710857200D-02  1.96400367163981300D-01
34 16  5.37075855926781000D-02  9.92707474962028200D-02 -1.71727994542984200D+00  6.53849975269946700D-02 -4.31754705864711500D-02
34 17  6.94478742943796400D-02 -1.92157192361795600D+00  1.14204779904498800D-02 -1.44561310567569900D-01  1.01567584728449600D-02
34 18 -2.93042337270726400D-02  1.91474752542278200D-02 -4.65851224460973100D-03 -1.54590408668055100D-02  1.07039073208537400D-01
34 19  4.27189336604741900D-02  4.78601832995411800D-02 -4.08711675778058400D-01 -4.50500454485099100D-01  2.42830918728969800D-02
34 20 -7.67708753352106800D-02  4.67212146800479500D-02  3.08580486314475300D-01  5.79571424171195000D-01 -8.52863441500660300D-02
34 21 -4.69850492137142600D-02  9.93208772621259500D-02 -3.72077273099005400D-02  3.06803754610969800D-01 -1.26055956891621300D-01
34 22 -1.80747797719348500D-01  1.80923096512834100D-02 -6.23836328330072600D-02  7.33370160308962600D-02  7.49581969232433100D-02
34 23 -3.49583017532040200D-01  2.74624820608796400D-01 -2.76069560923955100D-01 -5.99188584994832600D-02 -9.38250363533170000D-02
34 24  2.13650021795261600D-01  4.49411169257909100D-01 -8.67887480601655000D-01 -7.67001093823421900D-02 -2.09543704355324700D-01
34 25 -1.72081621345645400D-01  2.28488406784655800D-03  5.23872383733886000D-01  6.40243189992930700D-01  3.70348453918166400D-02
34 26  4.44597225540772700D-03  2.19989012609085100D-01  6.68692210069360000D-02 -1.25300147837928600D-01  1.93345821568757000D-01
34 27 -6.80456737308277200D-02  8.20324664184843500D-03 -7.61659904789511700D-02 -9.62147473706885000D-02 -2.97323465487055100D-02
34 28 -6.82907304523469700D-02  9.80230770010524600D-02 -3.21067912699312500D-01 -9.51806652461794800D-03 -5.20419515350491600D-02
34 29 -1.61830850701892200D-01 -7.31230277276176300D-01  1.17287902075348000D-01  6.57698342457287600D-02 -7.84017049337415900D-02
34 30  3.76547645969234200D-01  1.06523168727505200D-01  9.26924529512541000D-02 -1.54119103642978000D-01  9.76374316573517300D-02
34 31  2.43913704341125700D-01  8.23710874672329100D-01 -1.21410512422525300D-01 -1.66351025622942500D-02 -1.90177734858598100D-02
34 32 -1.27625972387448600D-01 -7.40758036677882900D-01 -5.21736804013867900D-02  1.87633647448972800D-01 -1.36098650835038500D-01
35  1 -2.11582302052266400D-02 -2.69418751474605700D-02  2.67249851704837600D-01 -1.09095249825306900D-01 -4.00191328880242400D-02
35  2 -5.38537379460324700D-02 -1.26306011900761200D+00  1.29839962609198400D+00 -3.65419024502442800D-01  2.47841352192215600D-01
35  3  3.93421597613047200D-02 -2.87183511953519700D-01  2.02108647337730600D-01 -4.06969347385243100D-03 -1.88658768989777200D-01
35  4 -1.21388704320947000D-01 -2.60659385384924600D-01  9.76542028788082100D-01 -1.30457522901092000D-01 -1.55176713828477800D-01
35  5  5.16776005772662500D-02 -1.27093213531095100D+00  5.95933546540450800D-01  4.56491960472313300D-01 -1.01427735301855500D-01
35  6  2.84581600000272400D-01 -1.83153864698417400D-01  1.15665271067576000D-01  6.76119620243348200D-02 -8.40899022720584500D-02
35  7 -8.79774062277226400D-02 -2.30833909801277300D-01  2.51726821634387800D-01  5.66116564202946900D-02 -9.87532619706722300D-02
35  8  9.52765605955002400D-03  3.47045296354652500D-01  2.07633755873258200D-01 -1.32061999037759800D-01  7.70307740856339600D-03
35  9 -9.13415357103310500D-02  8.36384583017669900D-02  2.62380642554081400D-01 -3.70001149702041500D-02 -2.96655409654542100D-01
35 10 -3.60674002742928600D-03  2.49297204133059600D-02  3.63496158070298700D-01  3.95512406706927700D-02  6.99445896155606000D-02
35 11 -6.80896876199415900D-02 -3.64252014884865100D-01  4.75080550342958800D-02 -8.41569242817609100D-02  8.33313150772399300D-02
35 12 -1.20456953515375300D-02 -7.12856197257035900D-02  5.26630952302868000D-02 -3.08153746474604100D-02 -1.15447673646409200D-01
35 13 -5.88305898628493300D-02 -1.34302154178421800D-01 -8.69766117418646200D-01  3.17872146737214100D-02  1.18992441506734900D-01
35 14 -1.20781355399176000D-01  2.01754451225046400D-02 -3.14376957403694800D-01  4.59820296966819300D-01 -4.26715928080132900D-02
35 15 -1.34951982042419300D-02  5.61667910122554100D-02  2.08928699892787800D-01 -1.42209112108019100D-02  9.13547007330899100D-02
35 16 -5.83941925013634500D-02 -2.18458179866657400D-01 -1.83772473519722100D-01 -6.64438059202851100D-02 -5.88712848036397800D-02
35 17 -2.85147757749469600D-03  4.24130413708974400D-02 -1.08644362664701400D+00 -2.42118613801173900D-01 -2.51805546067219700D-01
35 18  1.35154882532749600D-01  1.16650663534470200D-01  1.79537165968710900D-01  6.89343254664923600D-02  1.65965309073250500D-01
35 19  1.85838407327004700D-01  3.65345657394797400D-01 -1.18405566451400800D+00 -4.97350183454262300D-01 -4.97937598927400600D-02
35 20 -7.61954386442400500D-02  6.87076218787317600D-02  5.28361882431528000D-02  4.25274755681499900D-01  8.03630530588548000D-02
35 21  1.25207382359847200D-01  1.60246723333522400D-01  1.47762551731264200D-01  1.53347853342572100D-02 -1.56719910479292800D-01
35 22  1.41385125145035600D-01  2.17380174451885800D-01 -9.04905556870090600D-03 -2.19118621884526100D-01 -2.27092231897068400D-01
35 23  9.23194318871896200D-02  1.34772800009878700D-01 -1.30986761883882300D-01  8.27458971891375700D-03 -2.45158506614800500D-01
35 24  1.79313803159030800D-02  4.73947781436801100D-02  5.19496374207450900D-03  5.41209017623067600D-01 -3.77574294783343700D-02
35 25 -8.43872712892353300D-02  1.07349296341967200D-02  1.16561882671950900D-01 -3.21128484550506700D-01 -1.58340253497563100D-01
35 26 -1.88704492971860300D-01  6.83692693364531000D-02 -7.07235389561791000D-02  3.53059155226006200D-02 -8.38220095205805100D-02
35 27  4.85160939979796600D-02  2.60184040690530600D-01 -8.39193189987435400D-02 -2.95037432449039900D-03 -1.20346500255545500D-01
35 28  1.73046541105742900D-01 -5.27000408501974400D-02 -2.25247681870215100D-02  1.80723279535534400D-01  2.25795245264559000D-01
35 29  2.20402586130404500D-01 -1.35536858622964000D-01 -8.81490132417975100D-02 -1.65172260130962400D-01  5.11149777641691700D-02
35 30  2.68228827240407200D-03 -1.24644068827097900D-02  2.87378054811870800D-01 -1.04478293516687500D-01 -5.18095969755285700D-02
35 31 -3.79458727598128600D-02 -2.38528881054705400D-03 -1.56943412336794400D-01  9.46831624799516800D-02 -1.66507344029270100D-01
35 32  3.18956154571682200D-01  4.30430017202998600D-01 -9.32723495653666300D-02  5.20691986019091200D-02  1.97106824134067200D-01
36  1  3.14272624323731300D-01  6.19777076434396700D-01 -2.57908996865588500D+00  3.94634818743438500D-02  1.99588755497194600D-01
36  2  8.02623604056009700D-02 -1.27791432180550000D+00  9.73965202038625000D-01 -1.25409275264924700D-02 -2.92485952365399500D-02
36  3  1.18896509584105000D-01 -8.96479143475654900D-02  6.79470737258551600D-02  2.62841347860187500D-02  1.46247919582223900D-01
36  4  4.30449168151154300D-02  1.07809749723663600D-01  1.31901445482241700D-01  1.14191485322029800D-01 -2.14846470374002000D-01
36  5 -1.59608895930306900D-02 -2.76922141850791700D+00  2.41340549885275700D+00  2.32371970388134400D-02  1.41502024666142300D-01
36  6  1.06270251727143600D-02 -1.52129049838856300D-01  1.53376529571113300D-01  2.33885915328102300D-02  7.65194900707827200D-02
36  7 -1.11585403123693900D-02 -9.22401135397712800D-05  7.09266183193294800D-01  2.07347247800987200D-01 -6.72367697481617400D-02
36  8  1.67735093161276900D-02  2.06387865856873600D+00  9.50194635250686900D-01  3.11985704515482600D-02  9.45555757363783100D-02
36  9 -1.16418396980052900D-01  2.18628212436743300D-02  5.28192922318603200D-02  7.65700123894233300D-02  8.93965524023986700D-02
36 10 -2.11731526518612200D-01 -3.95485227788185700D-01  2.66656343852504700D+00  4.24544323418798600D-02  7.59284686275287900D-02
36 11  1.02594814692646600D-01  3.38005856975663000D-01  6.63335966882581900D-01 -4.27449260707921200D-02  1.57930499618732700D-01
36 12  2.17303929991283800D-01 -3.75234429610016600D-01 -4.84325959490989300D-02  6.87295914847432500D-02  2.37332965395445600D-02
36 13  7.27257299211820100D-02  1.03036798107464800D-01 -1.90629586552464800D+00 -1.03205981884010600D-01  6.80754848228750800D-02
36 14  1.16102058436351000D-02 -2.72213782932001900D-01 -6.14489212420846100D-01  1.07378303949642800D-02 -1.80959953012033100D-02
36 15  1.32644630529171100D-01 -1.14548635227967700D-01  1.22762980176553800D-01 -5.14172485137084800D-02  1.58211971505953400D-02
36 16  4.77000850439693700D-03  4.88156684482257300D-02  1.23052851475358300D+00 -2.80645087053054300D-02  5.07055936506599400D-02
36 17  3.38051601228496000D-02  1.18626246941490300D-01 -6.86126046816415000D-01  2.05634285126128600D-02 -2.03762155407133600D-01
36 18  2.84784587757298100D-01 -8.10224323501654300D-02  5.69419170174093100D-02  6.74708367004068800D-02  4.52131320168737500D-02
36 19  7.42806402862513800D-03  3.99875648911933100D-03 -6.22595043928076500D-02 -6.59803032855419700D-01 -1.07904396283411500D-01
36 20  1.84675567896947900D-01 -5.35956076204650700D-02  1.53432268376889000D-01  2.13593559831408900D-01  2.96208824789911600D-03
36 21 -1.09842631638202600D-02  4.63400606821231500D-02 -4.00790642424814200D-02  1.73864997183022100D-01 -6.19530880220992700D-02
36 22 -1.11911909160922500D-01 -1.50249314865565700D-01 -9.52963654904588100D-03  3.04480851159578000D-02 -6.60222715931092900D-02
36 23 -2.24856126762581000D-01  2.90878398355691400D-01  1.43730726385840100D-01 -1.14700298071784600D-01  1.37247089159410900D-01
36 24 -9.71163811812367200D-02 -1.78435958060934500D-01  5.57779965926504900D-01  5.06804359680453600D-01  2.11447748985323700D-01
36 25  1.39439018355833100D-01 -7.73843135384528900D-03 -1.02119671856734300D-02 -6.08304202553971400D-01  1.65061480772201200D-02
36 26 -1.32037793198725700D-01 -4.60894547751194600D-01 -8.40822537611743700D-02  9.34864168235942100D-02 -6.09356150900225200D-02
36 27 -3.25508017335720300D-02 -1.61495610415352500D-01  6.37778508474720200D-02 -9.32641285097310900D-03 -4.40885939424415000D-01
36 28  3.03161836266356000D-01  1.37724103158058900D-01  1.12468704014521300D-01 -1.37301980072412200D-02 -6.20129790897910300D-02
36 29 -2.21897853650382100D-01 -1.02718184698699000D+00  7.12632654563483100D-02 -2.30683195220576500D-01 -1.36762992459397100D-01
36 30 -2.99529091195342800D-01  2.65825329984291100D-01 -1.25663717738653500D-01 -2.98758151761112300D-02 -6.68106917599410500D-02
36 31  2.98664907702128000D-02  2.03579818155363600D-02 -1.39800284791208500D-01 -1.54467897519446900D-01 -6.66389656192203000D-03
36 32 -1.79503343350393300D-01  2.51396049194526300D-01 -3.07456702255321300D-01  1.40000175742640300D-01 -7.85009232037375100D-02
37  1  1.91558808669497700D-01  4.09534893362837100D-01 -3.21436928452561800D-01  7.13347613308884500D-02  8.47278102219336100D-02
37  2 -3.53916428317421700D-02 -7.36571664430777500D-01  9.13440570348680200D-01  2.37598891350166600D-01 -3.31413752113120700D-02
37  3  1.69275575615502800D-01 -1.36134200404191400D-01  3.46972986555300600D-01  6.24444880709831000D-02  1.50065638859266900D-01
37  4  7.60775388206724500D-02  8.89202667159591000D-02  3.69882815769242500D-01 -1.89168854520322700D-01 -4.32192252921665500D-02
37  5 -2.64344125807980200D-02 -7.42782161637448900D-01  7.80150605692873100D-01  1.58011938961786900D-01 -5.47980740968151000D-02
37  6 -2.05966853488441600D-01  2.60764927585257000D-01  1.18027633274613800D-01  6.35794318706327000D-03 -1.78337182312157500D-02
37  7 -1.32252437679219900D-01 -3.09911309366056700D-01  2.55106068821720700D-01 -8.17805643227375600D-02  1.83329158528909900D-01
37  8 -1.46897943413260400D-02  7.21097329511421400D-01  2.53731584935550800D-01 -2.74560575310101100D-02 -4.78082572345622900D-02
37  9 -5.24587107075419200D-02  1.00266967942104000D-01 -9.95469276266340700D-02  2.01655380985966600D-02 -6.12375298784451100D-02
37 10 -1.57563900863668100D-01 -3.45110049699509600D-01  1.71763028746161200D+00 -9.53001750429103700D-02  5.51640854229686800D-03
37 11  6.52386658268959700D-02 -7.78154961130575500D-03  6.98593819660749500D-01 -2.12386196701175800D-01  1.36220391117432800D-01
37 12 -6.85710114910016700D-02 -6.76493796264312500D-02  1.24196473739641700D-01  5.92727424346486100D-02  5.28408593405043900D-02
37 13  6.24177793532403900D-02  1.56383452303556000D-01 -4.93737846750606900D-01 -8.80840043862707200D-02 -7.67196842779467400D-04
37 14 -1.15196609372924400D-01 -5.23223329572381300D-01  4.62909646188263000D-01  2.72263797254150000D-01  6.98271931785510100D-03
37 15  3.35786430867965500D-02 -4.05613624046517800D-02  7.61226130982971400D-02  7.50784775941194800D-02 -1.10052217494301500D-01
37 16 -6.82976900245291900D-02 -1.34060250920328300D-01 -2.87035805418541500D-01 -8.56284511505251100D-02 -3.84861282727005100D-02
37 17 -3.24482743014185200D-02  2.92841209228450000D-01  1.08703723350443100D-01 -6.17809038865531900D-02  6.89847329201995200D-02
37 18  5.24531568905564100D-02 -1.21437889810756100D-01 -2.10590224944997700D-02  1.33836440853169200D-01  8.73253268139886600D-02
37 19  3.48562235826940000D-02  3.76022929574181100D-02 -5.08595306319732900D-01 -7.02340788363462900D-01 -1.11759003940611500D-02
37 20  1.97323809858761300D-01 -8.86728075005765300D-02 -4.09751820377489400D-02  2.06236084850089700D-01 -2.01316464842594600D-02
37 21  1.32765552750866500D-01  3.74896574880013000D-01 -4.95545898848146300D-02 -8.77593265077143700D-02  1.25258333863974400D-01
37 22 -3.74990073562595900D-02  1.03572925752584100D-01  4.67218410660987400D-02  2.77509500195990000D-02  9.18089085069126600D-02
37 23 -2.64901210440267700D-01  1.73092301933355600D-01 -1.92940913740556900D-01 -1.80319990017947300D-02  3.16082982146102300D-01
37 24  8.29566287280370400D-02  1.97361910042616400D-01 -2.10133966696139300D-01  3.18647347870524300D-01 -3.38716636631878900D-02
37 25 -7.60943688034335000D-02 -3.94844465531852500D-02 -9.05183756519606100D-02 -1.01368631927483400D-01  3.53701369998526400D-02
37 26  1.81407573761485100D-01 -1.22141741556856600D-01 -1.13988988793446000D-01 -9.37401842326947600D-02  9.44006975263489600D-02
37 27 -6.60513293654133700D-04  1.78147420477379700D-01 -9.11123485942871600D-02  5.58339157263271100D-02 -2.18048854867001500D-01
37 28  2.17289487944114800D-01  7.59366922886701300D-04 -1.27862598729831900D-01  1.44526683938277500D-01  5.49647840808812800D-02
37 29  1.49443967329489000D-01 -3.96764739782305000D-01  2.65910932231238300D-03 -9.57609075003833800D-02  5.05691778663200200D-02
37 30  2.21927387752152700D-01  9.68736392803055500D-02  2.75550284603177400D-01 -1.28535093023869700D-01  6.20192530800272600D-03
37 31  6.24695449533592900D-02 -2.06488916207699900D-01  1.07489772709454000D-01 -2.54989554214383500D-01 -1.84018888521582300D-02
37 32 -1.37825505115469900D-01  3.26623714079649800D-01  1.67277915606790900D-01 -1.58387074957785000D-01  8.08063448578295600D-02
38  1 -1.23564241427609600D-01 -2.24743792052561700D-01  1.56893206037185700D+00  3.20126680544069800D-03  2.93553596827927500D-02
38  2  5.13441746709294600D-02 -1.09835013235532900D+00 -1.10219041368398500D+00 -2.14669400667682100D-01  8.43859587060068400D-03
38  3 -8.69143300562252300D-02  7.84757341856241900D-02 -1.07827834966797800D-01 -3.19160027334162900D-02  9.86259003989726000D-03
38  4 -3.29213886703690000D-02 -1.13822537002345300D-02 -4.98690162982891400D-02 -1.35364447071549400D-01  9.54505873292286600D-02
38  5  7.12235737711559200D-02  1.25683294147551200D+00  2.10797399598187600D-01  2.61081536876881300D-01  4.45345331971107100D-02
38  6  5.12347062785982500D-02 -9.57692394757084000D-02  9.86492801236597300D-02  1.65443756228883300D-01  1.59113545736148700D-01
38  7  5.79451147560975300D-03 -3.24177784491581400D-03  9.93242788322202700D-02  1.88431462064346400D-01  3.54361971023596300D-02
38  8 -3.62727126452832000D-02 -4.23047945546706300D-01  7.90173390855517000D-02 -1.26154055652741700D-02 -2.42889252743923500D-01
38  9  1.17058862936276100D-01  1.25830389807647600D-01  4.16928954747222800D-02 -1.05251921556184200D-02  8.26518022492520600D-02
38 10 -1.78253914580405400D-02 -1.52567203772287700D-02  6.23739107581868200D-03  1.26958515884466400D-01 -1.27756865004628000D-01
38 11 -4.73828756599163900D-02 -8.88232124134682300D-02  3.05471798301284000D-01  7.84432813507526800D-02  1.41721837258867300D-01
38 12 -1.14794134631935400D-01 -2.69277026269307600D-02 -6.28620073766214500D-02 -8.12295451114816700D-02  6.92613386214303400D-02
38 13  1.72433864168702500D-03 -1.76730554373914900D-03 -7.10547876082701800D-02 -2.89916170774120900D-01  4.65220784930891700D-02
38 14 -4.48102662900071300D-02  4.67745078243600500D-01 -2.33248340773997200D-01 -1.16236841912053100D-01 -2.18873508444607600D-01
38 15  8.32343054893334700D-02  1.35639202955273600D-01 -2.18613968873511000D-02  6.87071167473457700D-02 -2.38821470265772800D-02
38 16  7.46236078000270800D-03 -1.98836459232050200D-02 -1.13111792947900000D+00  4.56370985950516200D-02 -1.98885009784968900D-01
38 17 -2.58545260646085600D-02 -1.21086665720090100D+00 -2.85397708000987900D-01  1.64818166731608900D-01  1.50855661000979900D-01
38 18 -1.55992493857613700D-01  5.13683285663444000D-03  8.08607631007757800D-03  1.97642945907324400D-02 -2.64458767585496400D-03
38 19 -4.09208346807309700D-02 -9.71926091986629000D-02  2.81488554731543100D-01  5.31996196752604000D-01  4.31163444288383400D-02
38 20 -2.23661134525331900D-01 -6.32690560376197400D-02  2.71770319859901000D-01  1.69335790210913700D-01  1.28724754821355700D-01
38 21 -7.99990580004582100D-03 -2.36289147324073700D-01 -7.57131623386888100D-03 -2.18748936985893300D-02 -1.49738992328672000D-01
38 22  1.71613886027261600D-01 -3.26647672336297600D-01 -9.75602264938093500D-02 -1.08561941878108100D-02 -2.33682357927265200D-01
38 23  2.52504948076238200D-01 -1.88225901489731900D-02  4.56928090418569300D-02  8.01938942326299200D-02  1.64558132614994600D-02
38 24  5.24544734939708100D-02  1.30942974698126700D-01 -5.94510434269936500D-01 -2.79556699539293200D-01  2.71183160926146600D-01
38 25 -1.18077470572724600D-02 -4.53765180618100100D-02 -2.98633173618112400D-01  2.05190707124631800D-01 -9.65761929553826500D-02
38 26 -3.18443041239224500D-02 -1.15314337363864300D-01 -1.25435930128216000D-01 -1.72949892444128500D-01  2.03672814504611800D-02
38 27  1.52582610993667500D-01 -9.26769733316882600D-02  1.44579230989285000D-01  2.95678578342052600D-02  1.98708582441553300D-01
38 28 -1.29175331888394600D-01 -6.95332505531589400D-02 -6.26458657150719500D-03  2.30351905384380700D-01  5.53794143940127400D-02
38 29  3.55971311765353100D-01 -2.68186834769315800D-01  1.52421744724846800D-01 -2.06683926771295000D-01  8.32017027154328500D-02
38 30 -4.20179944200178800D-02  9.17114478892541600D-02  1.18902184749837000D-02 -3.15186028627333900D-01  3.99015036655481100D-02
38 31  2.18791119769291900D-04 -8.67739491895298100D-02  7.50387709607965700D-04 -1.00008694927803000D-01  1.06754940976027100D-01
38 32  6.46587659258463600D-02 -5.59452865244560900D-01  7.94119911033773400D-02  6.73649527740433500D-02 -7.45269459602208300D-03
39  1 -9.65654462545938700D-02 -2.25489167038191100D-01 -2.44081539931435100D+00  3.28884677551756500D-01  5.07444504730646300D-02
39  2  1.09901186768163000D-01 -1.09101927952315900D+00  3.84194985332107200D-01 -2.29302137884640800D-01 -7.63618759536788000D-02
39  3 -1.98563329531476600D-01  2.74925205485155300D-01 -2.31999671164472600D-01  6.22425777488093300D-02  9.59676929859146200D-02
39  4 -2.77274421320095900D-01 -5.35889493452272200D-01  3.79324060892741400D-02 -3.01876270031595400D-02 -2.21632777021824400D-01
39  5  4.24546632850509200D-02 -1.06889896435602700D+00  2.81994913275588400D+00 -5.16687361981787500D-02  2.45229271305775600D-02
39  6 -1.26839478169358400D-01  1.02316551038781300D-01  9.69903979935306400D-02  9.43165557482392500D-03 -3.34623910706527500D-02
39  7 -1.04493879515281600D-02 -6.91023610793494900D-03  9.89466129717860600D-01  1.58951596362074500D-01  8.87525532229408200D-03
39  8 -2.88790315801989800D-02 -9.00948515593853900D-02  1.99032570341967700D+00 -6.10894777564719700D-02  6.69907398482337700D-02
39  9 -9.08841052922880300D-02  2.38933654440545200D-02  2.47835689571035900D-01 -3.07629918158644700D-03 -8.45323667119651400D-03
39 10 -1.01794924884692800D-01 -2.02718556401129300D-01  1.03151015127325300D-01 -1.83016458561583600D-01  1.03914329869552200D-01
39 11 -1.33791519075107000D-01  1.42010480683964700D+00 -4.58246161858935400D-01  2.08680524003070500D-01  6.75432064390672500D-03
39 12 -1.81148734784598100D-01  1.74394414140691800D-01  4.84458477073193500D-02 -1.02519887231543800D-01  4.67904367619183800D-02
39 13  4.79188692705006400D-02  7.94178153064816300D-02  3.81900523337839600D-01  3.92024619664729400D-03 -1.45990356074580100D-01
39 14 -1.37188287501637200D-01  1.23088424409188100D-01 -4.17663516955141800D-01  6.28648518793180200D-02  1.94795606708213500D-02
39 15  2.49539002024059600D-01 -2.69018562694881900D-01 -2.47453964847171000D-01  1.54117097579037200D-02 -2.17446310922833900D-03
39 16 -2.59896901972943900D-02  4.66468923575860900D-02  3.11185687008765700D-01  3.47444025042714300D-01  1.88775148449671500D-01
39 17 -5.21044677124385500D-02  6.68737660221068600D-01 -5.49993080272573800D-01  1.10746020939030600D-01  1.41068627003494000D-01
39 18 -7.39315238905632700D-02 -6.71371031129301400D-02  1.23252166682306600D-01  1.62292166727972200D-01  9.32296979627213200D-02
39 19 -1.16747759298331100D-02 -1.18321686493719600D-02  3.67541640201307900D-01  3.66502947739540000D-02 -2.20459263732575800D-02
39 20  2.92050139110728900D-02 -2.34065542957754900D-02 -5.01338138418096700D-03 -3.57399779229537900D-01  3.78385971419663600D-02
39 21  2.48335853560154600D-01  4.18228094172957200D-02  1.58394330135783800D-03  1.06016191306546200D-01 -5.76942102951551800D-02
39 22 -4.83219810113904400D-02 -6.82944160820572000D-03 -9.92532084138586200D-02 -6.99134905784801900D-02 -1.68139402012146800D-01
39 23  3.60350299703456100D-01 -1.92210897691308300D-01  1.50739046089998700D-01 -7.66481956997031000D-02  4.17572115537069400D-02
39 24  4.83213265798009200D-02  1.33023001720107100D-01 -3.10633407152537000D-01 -1.76639589963730100D-01 -1.34624014937471300D-01
39 25 -4.05751020453385300D-02  1.42011325510455000D-02  2.82498854309313400D-01 -5.27583523176259500D-01  3.25063168613397900D-02
39 26  1.27030626985172300D-01  5.78632724265775800D-03 -4.77420674508744500D-02 -4.40870888988316400D-02 -6.82058125425037800D-02
39 27  1.12292901441335100D-01 -2.82011831910482300D-01  1.01041604319744400D-01 -1.39756790830969300D-01  7.33074061842359700D-02
39 28  1.92424274800397300D-01 -2.65731680984633200D-01  5.55030522635494500D-01 -1.60203962089868100D-01 -2.53448985605128200D-02
39 29  3.01161665475753800D-01  4.17532215506729700D-01  5.75356908562548700D-02 -3.22890694430534400D-02  1.44981346636781900D-01
39 30  1.11625439198257100D-01 -9.72649621244194200D-02  7.63303179648414500D-02  1.31957572496665000D-01 -7.46220951920238700D-02
39 31 -3.20527031547276500D-02  5.17459621512022100D-02 -1.31234302294617300D-01 -9.53102791061646900D-02  1.92864860519727800D-02
39 32  4.56216256480517500D-02  5.92092281997646700D-01  8.48102904827340600D-02 -9.58597994099480700D-02  1.23355273046566100D-01
40  1  1.57166127559087700D-02 -4.75821742521684500D-02 -4.21796312786940300D-01  1.58313952052339100D-01  9.00850680286184300D-02
40  2  3.81115141702061500D-02 -6.58944776020170900D-01  7.76542813371473000D-01  3.53137711667403800D-01 -1.11679368556351200D-01
40  3 -3.11569475680719000D-02  1.42836316124422800D-01  1.37013580714820400D-02 -3.63094357495662000D-03  9.83912241992624100D-02
40  4  4.77141374150864100D-02  1.17421735340693600D-01  3.13085236753776600D-01 -1.75707706960058400D-01  1.20095172328383200D-01
40  5 -3.23764289437995800D-02 -4.23951943907335000D-01 -3.69784273978251700D-01  6.42398877517994200D-02  2.93745022936945200D-02
40  6 -5.88469153820852700D-02  2.94724130883904800D-02 -2.35918880345332300D-01  4.00710090796966400D-02 -5.26980991497202000D-03
40  7  3.48406041014362500D-03 -4.42108197055440100D-02 -8.39246396817508100D-01 -1.08788008630198000D-01  1.46606210275123100D-01
40  8 -2.80137254653441400D-02  4.89788608595592400D-01 -1.47108381894162400D-01  5.08663993753583500D-02  1.26096689053014000D-01
40  9 -1.10066563076759400D-02 -1.15090032745338300D-01 -1.15852964950182000D-01  1.65565104130712000D-02 -5.80854179534585600D-02
40 10 -9.80723293302351900D-02 -1.03259861782844400D-01  1.20876629595429700D+00 -1.46263144956667200D-01  1.11388111704424500D-01
40 11 -3.42971709964131500D-02  1.69929095867049900D-01  5.26658449753261300D-01 -7.79075718175999300D-02  3.48148802541713400D-02
40 12 -6.63348194442888200D-02  3.15199391901171900D-02 -1.37005612100072300D-01 -7.08946408426685100D-02  1.44657325337861500D-02
40 13  3.88174354394890700D-02  3.55102800294507200D-03 -1.06264597735156500D+00 -2.00657403959601300D-01  6.34617714880086200D-02
40 14 -5.52460278870845000D-02 -6.23364571375108600D-01 -2.64307578782832800D-01  1.28096193795992200D-01  2.45616190609272700D-02
40 15  1.61457527354326900D-01 -1.86019146415253400D-01 -7.38475041466454900D-03  5.99739605676264000D-02  1.74670780536054000D-02
40 16 -4.03525426918116100D-02 -7.73113402280550500D-02  5.90484746648779700D-01  1.24610729242864100D-01 -1.28003326002029600D-01
40 17  8.50360610059509900D-03  6.61359064000602800D-01 -2.82527166176860800D-01 -1.71804186029602400D-01  1.53259001206731900D-01
40 18 -1.35254315086016800D-01 -1.80046861207153600D-02 -1.52467235386569400D-01 -8.87667457016422900D-02  4.25723248637175800D-02
40 19  6.34210452040499500D-02  1.14905988838883100D-01 -4.65250873694100200D-01 -1.67825012186860600D-01  1.06300263554239600D-02
40 20 -1.60183569551041700D-01 -4.56981117012019900D-02  2.14711342473354200D-01  2.00776386338163700D-01 -1.19975251060368400D-01
40 21 -2.37182601672984500D-02  1.68611553619486100D-01 -2.33603720620837900D-02  1.73546069065088200D-01 -1.57899281344634100D-01
40 22 -1.56467877204534900D-02  2.27464029914105200D-01  1.32968197031077500D-01 -1.39353968879026800D-02 -4.01733280296976700D-02
40 23  2.72409880978159300D-02  1.29323399318823600D-02 -4.95504863557646500D-02 -2.14679032937522700D-02  3.95018825223654800D-01
40 24  9.54823564205503500D-05  1.01601540095241000D-02  2.37714233567155900D-01  4.58130943435998600D-01 -2.64545072303580900D-02
40 25  8.14159579112509500D-02 -2.29868765850015500D-02 -2.38702193695070200D-01 -7.93567890774314600D-03 -2.96100410719946700D-02
40 26 -1.88240249301755600D-01 -2.12339213069463100D-01  2.56470262035744100D-02 -7.07708618464642900D-02  7.75888415815222700D-02
40 27 -6.81797973505786800D-03 -9.21645208283253700D-02  5.07285507755392300D-02  1.18875628239655000D-01  6.93030809256082600D-02
40 28  5.56521949218905300D-02 -1.24955275847498900D-01 -8.27458131119270800D-02  5.12556509993762000D-02  1.30446274868573400D-01
40 29 -7.03679514510668700D-03 -2.53106646235183300D-01 -2.52257439604557100D-02 -6.39756295860995800D-02  1.26986116214939500D-02
40 30 -6.47706167753492900D-02  1.32970463934171200D-01  7.39727643060132700D-02  2.85039311300586300D-01  6.77100812762713700D-02
40 31 -1.24365921996577900D-01 -1.25650243792385400D-02  1.26421582420949400D-01  7.14555112701380900D-02  2.22435923137245100D-02
40 32  1.91389153253839200D-03  4.40277361930585300D-01 -2.66656063213180000D-01  2.65552061724200100D-01  1.57270333479753400D-02
41  1  3.23134047984383300D-02  1.00688934742489600D-01 -4.48818235764859100D-01 -1.89368742748156200D-01  1.04488271259374300D-01
41  2  1.00250061187369700D-01  4.20789551689107400D+00  8.34831002352152500D-01 -3.69239328662466600D-02 -2.45850603247088100D-01
41  3  2.86426478258478800D-01 -4.05758750113905500D-02 -4.59039430099199200D-02 -1.22269591414939400D-02  8.20529047779728100D-02
41  4  1.91055121254338000D-01  3.51168966674049000D-01 -2.66320582791044600D+00  3.10693206251745600D-02 -4.17090560790110400D-02
41  5 -6.26344498580125200D-03  1.28687902013893200D-01 -1.23837499886596500D+00  6.03051961017362800D-02 -2.32477587278748100D-01
41  6  1.68071771697143300D-01  6.44058155816049500D-02  1.01677207138196800D-01 -8.66288719038583000D-02 -9.69784455726061500D-02
41  7 -7.15326473591140100D-02 -8.15175249242887400D-02  3.91461309007789500D-01  1.01920585411544500D-01 -7.50883626336686400D-02
41  8  2.42771577043255300D-02 -2.58063221032571300D-01 -5.27374972385472600D-01 -1.69624796096040100D-01 -5.20868011799944100D-02
41  9 -4.28538101751900000D-02  9.49406113551836700D-02 -4.84345453785317900D-02 -1.60305632622880400D-02 -8.74252109754380400D-02
41 10 -4.79061986446099900D-02 -1.67460501669154000D-01 -1.11995015839065600D-01  9.17743366477327300D-03 -2.94969436157988200D-01
41 11 -4.14931966551852500D-02 -4.84261364201278800D-01  1.36741165139463100D-01  4.34289418088144100D-02  1.50633306610464800D-02
41 12  1.43574607923362200D-01 -1.58637938584409100D-01  1.01038184944940400D-01  1.28786790836583000D-01 -8.47007276505990600D-02
41 13 -8.34130943326743800D-02 -1.10383242374487000D-01  8.85158123572684500D-01  1.28432153686990500D-01 -1.95810383759535800D-01
41 14  4.25943337328416700D-02 -3.44924476327503500D-01  7.75016280938006700D-01  1.75859149938088500D-01  3.07319092526995100D-02
41 15 -5.81887049807617500D-02  2.74567957280628900D-02  1.44579141595103500D-02 -1.51354722394936500D-02  2.95957034081602800D-02
41 16 -9.44318380490130100D-02 -1.74467210137906000D-01  2.56017749227257600D+00  8.41833391978226200D-02  7.84281219049530000D-02
41 17  4.94579596007719300D-02  1.12248655468734000D+00  2.13515836421212900D+00 -1.07508844831473600D-01 -5.05777821897883000D-02
41 18  2.10741270426341300D-01 -1.60163488236553800D-01  4.85372405022694900D-02  2.56679001409380200D-02  1.02112626887543800D-01
41 19  9.26010820836118400D-02  1.68602827323631700D-01 -7.93742955783342000D-01 -4.54591751553516900D-01  5.20489539206557900D-02
41 20 -1.75637572481027000D-01 -1.43804455328123500D-01 -6.69770869146046600D-01  5.33291981723174800D-01  1.55758270581890800D-01
41 21 -4.06230090949501000D-01  4.70221735974084500D-01 -5.62430841709338400D-02  8.35292430185921900D-02 -3.43643043375568500D-02
41 22 -4.91649386810357600D-02  1.99028884245138300D-02 -1.07271199552021100D-02  3.31415206050305500D-02 -1.37790968847502100D-01
41 23  2.80449281398667400D-01 -1.42658312551165300D-01  3.66245480158736400D-01 -1.76791739828183400D-02  1.82510212807050800D-01
41 24  2.53914872858536000D-02  1.02204342354080500D-01  5.18527862792718300D-01  5.34283311271207200D-01  9.06584977035054700D-02
41 25  2.22779599074827700D-02  1.33575754927260600D-02 -2.46786123298887400D-01 -2.97701271459160000D-01  7.18368300586169800D-02
41 26 -1.86598081542767200D-01 -8.30185036764460000D-02 -1.02670228719845900D-01 -2.31695803411667700D-01  3.14439231928368900D-01
41 27 -8.27434285167016600D-02  1.12447102246392000D-02 -1.67274682763254900D-01 -1.14249479288042600D-01 -9.63714261321347000D-02
41 28 -5.93740932298315900D-02  1.55745519361966400D-01 -1.36759597858605200D-03 -6.56335679941955900D-02 -4.78107925501498900D-02
41 29 -2.04603908863135500D-01 -1.50470966268116500D-01  2.35284111335527500D-02  2.66245101672026000D-02  1.23724514897502400D-01
41 30 -1.55217186122533000D-01  8.93727232871114300D-02  1.04451904506047300D-01 -3.43359923054076900D-02 -2.60385009736494200D-02
41 31 -1.37806039640587100D-01  2.23847076490676700D-01 -7.53498917294916500D-02  1.34414182402985200D-01 -2.14626351388009500D-01
41 32 -1.43547960618024800D-01 -2.28844836930114300D-01 -1.83897666671938600D-01 -1.60273817974724400D-01 -2.91080023405621200D-02
42  1  3.21915400060406400D-02  5.77171222670904100D-02  9.68484474790147000D-01  1.81628629435614100D-02 -6.84669445705530400D-02
42  2  1.20900535470820700D-02  3.98388254142264800D-01  4.79282665455331400D-01 -2.67954044206861900D-01  1.16049874028218300D-01
42  3 -1.39375435115475400D-01  2.33255610872570300D-02 -2.75988160481870400D-01  5.89961108098116500D-02 -4.28126967121452900D-03
42  4  2.26510206158122400D-01  4.17671542878175700D-01 -9.92805766066682700D-01  2.23408154179965100D-01 -4.50542775591783400D-02
42  5  6.27688842530023200D-03 -4.81137865680610500D-01 -6.63733525429670700D-01 -1.18021816680018600D-02 -2.72061942559722900D-01
42  6  9.68755113597836600D-02  1.75186431199939100D-01  1.23998447930860500D-01 -1.34585482670045800D-02 -4.95502369355159500D-03
42  7 -5.53101172616536600D-03  2.74616641124173900D-02  7.35725194565441100D-03 -7.58908964970552000D-02 -1.10343305988548600D-01
42  8  1.39565926120970500D-02  5.15104908123181100D-01 -2.85126591647011100D-02  6.30960149390484000D-02 -1.59743103897432000D-01
42  9 -4.98963223765905800D-02  2.09639426274022000D-01 -6.70702237779476900D-02  6.74126489325676500D-03 -2.69174327903174800D-02
42 10 -9.52198493490764300D-02 -2.55942638494674900D-01  6.97294341656994600D-01 -7.35029827136935300D-02  1.05148604206867600D-01
42 11  3.45148235457999300D-02 -2.03440695324762500D-01  1.33089655813080200D-01 -8.80067133768382400D-02 -7.93772978060311600D-02
42 12 -7.38323171810580900D-02  1.53209614987089000D-01 -5.45145772954815200D-02  1.11792286039236400D-02 -1.48097295657702600D-02
42 13  4.99841273044521400D-03  4.58899132660462200D-02 -3.83495563075157500D-01  4.83570990307939600D-04  1.65829263610878200D-01
42 14 -4.23179769290837200D-02 -1.58897562452859900D-01 -2.18880153666229100D-01  7.48034892221860600D-02 -1.73384800667681500D-01
42 15  2.36039936630837700D-01 -6.26551359631554400D-02  2.56142911479265200D-01  2.42705971748997900D-02 -2.05733339184473000D-02
42 16  2.60437486892842200D-02  3.56336743912212900D-02  1.80113513542591800D-01 -1.43949214595590400D-02 -3.51866214315912500D-02
42 17 -1.91890458130403600D-02  7.24313973447033700D-02  3.07902531748668600D-02  8.93068232424326800D-02  7.33714111078575700D-02
42 18  3.71237283329009900D-02 -1.10495139440759100D-01 -1.64820010895301200D-01  1.38737975410538800D-01  4.06539778696217200D-02
42 19  6.25770868475644000D-03 -1.57408341657760600D-02 -2.41231527056085900D-01 -5.33733477461829600D-01  7.92616899219334700D-02
42 20 -5.21488184846539900D-02  1.30807924751555400D-02  7.74409179974701000D-02  2.60412522505551600D-01  6.68823275642467800D-02
42 21 -1.58380962750121300D-01  6.48886425955632100D-02  3.14978286495528300D-02  8.83081411730137800D-02 -3.26113283649184200D-02
42 22 -5.56968128080953200D-02  1.03283090761969200D-01 -3.57525720874731200D-02 -3.16987405674508400D-03  2.61211188056316600D-01
42 23 -2.67091074697987500D-01  5.87988664167100700D-03  2.51149268348466700D-02 -1.01392985500410400D-01 -1.69905755361626700D-01
42 24  7.16636926949321300D-02  1.91687429226801500D-01  3.15761425107203100D-01  2.42380363031839400D-01  2.20429378040782500D-02
42 25 -1.48058697143822700D-01 -1.99446270969266100D-02 -1.04898981208708500D-02  8.78101884358070100D-02  6.01512223163208800D-02
42 26 -4.38500323054643400D-02  1.36102802454291000D-01 -3.90081455079721700D-02  7.68949147789107200D-02 -5.90098932801336100D-02
42 27 -1.78850214987771900D-02  1.53887234308915100D-01  9.81807976608122500D-02  8.69771019519471500D-04 -2.58440174015440800D-02
42 28 -2.31256642493815100D-01  2.57100659895359100D-01 -1.26230619279977600D-01 -9.43889883864444500D-02 -4.01480489069407700D-02
42 29 -1.60495372926179200D-01 -1.14670771504019800D-01  3.35898419228171900D-02 -1.42627333794802900D-01 -9.56278845004761800D-02
42 30  2.15266400678460700D-02 -1.04273347037546800D-01  1.43804019689499400D-01  2.50709725272796600D-01 -4.53698873921483700D-02
42 31 -1.51860808733202600D-01  3.65022215833868400D-02  9.61129669412033300D-02  2.63279793949479200D-01  1.98733518946017000D-02
42 32  7.52826070760364000D-02 -8.62891142551820400D-02  5.71103912620882300D-02  2.52987628074180100D-02  5.21043871657144900D-02
43  1  5.31647658940216400D-02  6.40354116182803700D-02 -6.19134735450829300D-01 -3.60269895347480700D-02  1.09915246627595000D-02
43  2 -5.17580575616455000D-02  1.04042950887542000D-01  1.42966376553337900D+00  2.01837449209417400D-01 -1.45736040253286900D-01
43  3  2.90360720777948800D-01 -1.44624680524661500D-01  8.47793712031833500D-02  4.37676734963070500D-03 -1.26753312540669600D-03
43  4  7.90436947476112200D-02  1.23981206795162400D-01  4.69329495771119700D-01  7.18147512099113100D-02 -2.10800750734750600D-01
43  5 -3.99712136110844800D-02 -1.47944528758854900D+00  2.77339504786489300D-01  3.40456813533639500D-03  3.89587741277368100D-02
43  6  7.75195583484654000D-02 -1.16478332476202300D-01 -8.25784052566481700D-02  4.67986611989921200D-02 -7.14370310780240100D-03
43  7 -3.80948968808167300D-02 -1.46956861513035200D-01  5.68822835490428700D-02 -1.41371400583481900D-01  9.25531795242611600D-02
43  8 -3.20397183251946400D-02  8.84073344999941500D-01 -3.46344811984495100D-01  1.45129257949884800D-01 -6.83991506323459600D-02
43  9  7.59613304040110500D-02 -7.56217977166583800D-03 -7.16059456977032300D-02  4.84186814234441700D-03 -1.03337833322358500D-02
43 10  1.39361427006209700D-01  3.69420234856151600D-01  1.09684646223079000D-01  2.30064012401893100D-02 -6.59749332743845100D-02
43 11  1.88981439722017500D-02  6.65444197987761200D-02  9.35846679131973600D-02 -1.03488233093238500D-01 -1.58427485541199500D-01
43 12 -2.03545841614028100D-01  3.61973327155226700D-01 -4.50554609692069100D-02 -4.57588055009624900D-02  1.19178604138406400D-03
43 13  4.71224267443544300D-02  2.83148990912345100D-02 -6.00893467136917700D-01 -1.41903060323455800D-01 -3.71193562433228600D-02
43 14  1.62845958960074200D-02  3.59942152473958600D-01 -3.83314459472087400D-01  2.39900638588074700D-02  2.22725045236224700D-01
43 15 -1.05263993154626400D-02 -2.12198645920761800D-01  2.77169359147157900D-02  4.54687201247316400D-02  8.94242329966369500D-02
43 16 -7.60331350314943900D-02 -9.94121510631678200D-02  1.48784694055718500D+00 -1.42849459839807200D-02 -1.48247728367922200D-01
43 17 -5.34213105159280500D-03  1.67637012019271700D-01 -2.60332589755666400D-01 -1.20265137746045900D-01 -5.13914506965434100D-02
43 18 -7.68652307114186300D-02  1.28256681407962400D-01  1.10197974366803300D-01 -2.05933878323835000D-03  3.15117222584751300D-02
43 19 -6.08781598691216200D-03 -8.96183937358033300D-02 -7.83125310113296200D-01 -4.03491083146326100D-01 -1.43334719779192600D-01
43 20 -1.87000037199760900D-02  3.35597349685933500D-02 -1.30508611696166700D-02  3.77794012420187300D-01 -9.29243998363769700D-02
43 21 -9.10984117818586500D-02  1.72648489585343600D-01  1.43392412590485000D-02  1.24330778073566300D-02  3.71334698440856000D-02
43 22 -4.95665476514421700D-02  1.06495849294103800D-01 -3.40219614765264300D-02 -4.39011021655427600D-02  1.05543952492044700D-01
43 23 -1.66935934181036600D-01  6.13919816889919000D-02  2.87485901352586200D-01  1.29236994471939200D-02  6.51992666243518700D-02
43 24 -2.74620913198858100D-02 -5.69265618226809700D-02  3.87176748308917600D-01  4.56555967102053700D-01  2.58389210798605700D-02
43 25 -3.66589550039856000D-02  7.66618029899839300D-02  1.28063802293521100D-02 -2.43739539499021500D-01 -8.04991876829880500D-02
43 26 -1.35966466250976600D-01  3.83306653675286000D-03 -1.03866674878856100D-01 -5.64305995787403200D-02 -1.15832779867295700D-02
43 27  6.80138775654696700D-02  1.49390725538891000D-01 -1.49513961780303000D-01 -2.50941571796306300D-01 -2.48961175352521400D-01
43 28  5.25163739576808800D-02  1.96444801394840500D-01 -2.52408582224996500D-01  1.01640252419460900D-02  9.15397051706989000D-02
43 29 -1.24903999431689400D-01 -3.55364726059331600D-01 -1.39687349850638900D-01  1.56085241339425700D-01 -1.00195443918208400D-01
43 30 -1.31406507710116700D-01 -1.50161222288022500D-03 -1.64264480241038100D-01 -3.36891567442375500D-01  5.29427464300650000D-02
43 31  2.30611399341591900D-02  8.89199987174035100D-02 -1.36379823669934000D-01  1.75998185647665100D-02  8.29096259636836300D-02
43 32  4.40307918561240400D-03 -2.09202596792492000D-01  1.36429843671659700D-01  3.20043758261132700D-03  1.25768714096569500D-02
44  1 -1.94783472184079600D-02 -3.66788305323916600D-02 -5.18644779292697700D-01 -2.48944139569397600D-02 -1.27250293652467300D-01
44  2 -1.24635254618675600D-01 -2.84864550685941000D-01  9.99132537322813200D-01  1.03165113171597100D-01 -1.24168692009870100D-01
44  3  1.31492140260994400D-01 -7.32344825112347600D-03  2.10373656498385400D-01  3.24195550573056600D-02 -9.12544798987591900D-02
44  4 -1.40036746551682300D-01 -2.84013428329668800D-01  5.45637556705772100D-01 -1.43578042336594700D-01 -1.58501532374273500D-01
44  5 -8.15876453357704400D-02 -7.93036495840843300D-01  9.12999606573519500D-01  5.65646655577117700D-02  6.71772432999012700D-02
44  6 -1.13105932707954600D-01  4.59286894080530900D-02  1.07978656887677500D-01 -4.06916216825200400D-02  9.02956566659198100D-03
44  7  6.35332024477076700D-02  1.74072907337729000D-01  4.33711442145712500D-01 -1.41491633235174800D-02  4.63029432372780400D-02
44  8 -2.87536810264875000D-02  7.38220673199680000D-01 -7.61845649120468900D-02  5.58998165863212800D-02 -1.39658521316967200D-01
44  9  9.99154399127714600D-02  3.97430814041952600D-02 -1.80887049631589000D-01  5.14886114406764500D-02  8.05403606063356800D-03
44 10  3.18683268718039100D-03  2.58165221060680300D-03  2.85992225929292600D-01  9.54064685352515900D-02 -1.43947932059885500D-01
44 11 -6.43180898814587800D-02  1.04721545045027900D-01  3.44270705884181700D-02  5.91688872732911000D-04 -8.74668878589864700D-02
44 12  1.29126167582926800D-01 -4.16592797239404400D-02  5.62315710895315700D-02 -6.53732853879459400D-02  4.35045114891613100D-02
44 13 -1.47337933299194900D-01 -3.11200944202518100D-01 -1.28744552576119200D-01 -1.85806305416337600D-02 -6.16489210178154900D-02
44 14 -5.55837610956760500D-02  4.25156481177387400D-01 -3.71738109914860600D-01  7.97829495956745300D-02  2.23121947234500500D-02
44 15 -8.41018442777412300D-02  6.17896495542911200D-02  9.32308591995224300D-02  8.27512179528997700D-02 -4.34192960699238600D-03
44 16 -7.97814254162856700D-03  5.20221731850127500D-03  8.86981737846183600D-01 -1.25157675714807000D-01  9.20763002464150000D-02
44 17 -3.07760002881012900D-02 -9.79814476882104500D-02 -6.72921546857659500D-01 -6.31508512367095300D-02 -3.16505228992229800D-02
44 18 -1.03439619539800700D-02  4.19944848532033000D-02  8.02166261922021800D-02 -1.15627464701643500D-02  4.56373575234979200D-02
44 19  1.31689824777863400D-01  3.20287102805765200D-01 -7.31937604154911300D-01 -1.27674419967912000D-01 -3.10562804422587700D-02
44 20  3.21549708360427500D-02  2.39700354401669800D-02 -1.51083197722295700D-01  2.96349858732651500D-02 -4.74189987097384100D-03
44 21 -1.46393113097149200D-01 -1.92607221301800600D-01  2.67808210539995300D-02  3.61002763329409000D-01 -4.19989067492031700D-01
44 22  5.89863041626229900D-02 -1.03612194298848300D-01  1.00171491545215600D-01 -1.42655433881697100D-02 -3.36441784469543300D-02
44 23  1.68871215278102600D-01 -1.35227036831148200D-01  1.43716971351328400D-01 -9.35092990841361300D-03 -3.83803956983257000D-02
44 24  5.43070595452094500D-02  1.46384845725015500D-01 -2.49999357986347400D-01  3.97428385360382800D-01 -2.19377187490261000D-01
44 25 -3.82142398870532200D-02 -1.89754936256701100D-02  1.44644347972064200D-01 -3.18648577113144900D-01  3.40694031695195600D-02
44 26  7.63229696104856100D-02 -1.10570068668542500D-01 -2.82538167311796600D-02 -2.00978079353519800D-01  1.62236058472396600D-01
44 27  3.87420208811228000D-02 -3.70253649881980500D-01 -7.64725135445539100D-02  6.47434153523640700D-02  5.32054379796540600D-02
44 28  1.07155743478484900D-01 -1.60361181458138800D-01  3.48638924001535200D-01  7.25362060037668300D-02  1.93241299274941600D-02
44 29  3.56029905983919000D-02 -8.47272306823052000D-01 -6.50703494446438900D-02  6.60192679195963800D-02 -4.53492516119187900D-02
44 30 -2.51218423072978800D-01 -5.70878175391366000D-02 -1.26785681387419600D-02 -4.82973322937618500D-02  4.54223602080000700D-02
44 31 -1.54451297086844100D-01  1.52807331520878900D-01 -3.33447446266678600D-02  1.28660480358318800D-01  1.66456312293656400D-02
44 32  1.92614696527946800D-01 -5.59951556152731000D-01 -1.18483412086123400D-01  2.60341676326210100D-02  4.90700856711018500D-02
45  1 -1.50579756589502800D-01 -2.69208538576710000D-01  1.91109746316941700D+00 -6.32859664477913700D-02  4.34881215378277900D-02
45  2 -9.24220835442513700D-02  1.54284634645169600D+00 -8.35295401683291000D-01  2.26270598418944700D-01 -1.42685604347202600D-02
45  3  8.86056978873043700D-02 -7.43371374525842600D-02  2.24446109055867400D-01 -6.02830723435148100D-02 -1.26766749760253600D-02
45  4 -1.84303162157324500D-01 -3.17337186848958500D-01 -6.66678474480249300D-01 -1.16524323743921800D-01  1.33606886566521300D-01
45  5 -8.27817156027102900D-02  1.79832009744131600D+00 -1.34838037000982400D+00  1.80967276477551100D-02  5.13877263841028500D-02
45  6 -1.74386058362847700D-02 -3.39491205478178900D-02  5.02195846490275100D-03 -1.08772095185532000D-01 -7.12761324598370600D-02
45  7  3.64269226296719300D-03  3.57163386211544700D-02 -1.18445312123202000D-01  5.57651034521190700D-03  2.65607909804478800D-01
45  8  2.31992266712476800D-03 -1.27497929793976600D+00 -1.04117108561602500D+00 -1.57776655962423700D-01 -1.13944531188440300D-01
45  9  1.16110910937848900D-01 -2.16637974940809800D-03 -6.41101344345007400D-02  1.59193700738780200D-02  3.80267237033505600D-02
45 10  2.09142632219840200D-02 -3.11668074544446200D-02 -9.95294878164458100D-01 -4.95855383904641200D-02  8.19162800974339700D-02
45 11  1.83565011101481400D-03 -6.79065078931866600D-01 -4.95865231549025600D-02  1.68536439832887100D-02 -5.47534849642565000D-03
45 12  3.87792659300032600D-02 -3.33039174335771900D-02 -4.30200149110419000D-02  1.11413689827124200D-01  4.12344224502203000D-02
45 13 -8.18335161302615300D-03  1.13329560216687200D-03  5.01899820030485200D-01  9.10276111476169500D-02  1.41544500733794400D-02
45 14  4.64074740880272700D-02 -1.51171503030566000D-01  7.87419336035665500D-01  1.04369068803653700D-01  2.28808924313568900D-01
45 15 -1.14899218865076400D-02 -2.17319002427061100D-01  1.08583592085664900D-01  1.20714218881684700D-02  8.67472858688628500D-02
45 16  6.37767988630779100D-02  9.23614178683328400D-02 -8.77469060950101100D-01 -5.71627410069228500D-02 -6.57184730484066000D-02
45 17  1.70858470087645900D-02 -2.24575367038701700D-01  8.10417715452678800D-01 -2.16201361079483300D-01 -1.84440651563809500D-01
45 18  2.04631265021914300D-01 -2.01906134581046000D-02  9.35512177272027800D-02 -9.43051189525636300D-02  3.37138868217448500D-02
45 19 -3.78256434553931200D-02 -1.15997501939785300D-01 -6.47127913999810300D-02  4.34410592538141800D-01 -1.97796545174970500D-02
45 20 -5.59540033136929600D-02  1.02308104388991300D-02 -3.40222182695099600D-01  5.55738133731537200D-02 -1.53616646485529400D-02
45 21  1.16531106332961800D-01  7.32758992675360300D-02 -1.05546855811022000D-01  2.47565096229336800D-01 -1.43925478094411400D-01
45 22 -1.03639618134926100D-01 -2.12315168691647400D-01  5.88278486021426200D-03  1.53352294527080300D-01  1.07859801281806600D-01
45 23  8.79649905626523900D-02 -1.95824791844459400D-01  2.51162481404094600D-01  6.03475911430285700D-02 -8.28923658379956000D-02
45 24 -7.18707748461486600D-02 -1.71334587928802400D-01 -2.16386877840164000D-02 -2.23650786403333600D-01  9.77474284752671300D-02
45 25 -5.77485490381368700D-02 -4.33813707433788900D-02 -2.39137716135207900D-01  1.20074446214965600D-01  1.02231703693285000D-01
45 26 -3.69661620354051500D-02  1.04595757286725600D-01  6.09168304622635700D-02  4.58595001561498500D-02 -1.47651657012382900D-01
45 27  1.01792156856233200D-01 -1.37276355129320900D-01 -2.95536327130969300D-02  1.29690947338887300D-01  3.42815472181568000D-01
45 28 -2.35701054377658800D-01 -1.07114417803909000D-01  3.77544079613221400D-01 -2.15401678979057300D-02 -1.74546752560198100D-02
45 29  1.79074135470330700D-01  2.11100054886459000D-01 -1.70959457201593100D-01  1.52644613534516300D-02  1.27481633919748400D-01
45 30  1.65547001019882000D-01  1.89813002542568300D-01 -7.43688760738673300D-02 -1.99052268039756700D-01  8.37670327162422000D-02
45 31  1.13545426790584100D-01 -3.35199836808844900D-03  1.40664885256769200D-01 -2.25895146494093100D-01 -6.03092716998830200D-02
45 32  1.45349828457974800D-01 -1.26298194856650700D-01  1.63278581939771600D-02  9.40072331794272700D-02  3.38866209303799100D-02
46  1 -1.14178675459215400D-01 -2.78209814213700600D-01  1.32909487963413600D+00  9.64103092647394100D-02 -6.68502631008853100D-02
46  2  2.25391882468335200D-02  1.27953244296528400D-01 -1.40032561333528700D-01  3.10409397876081800D-01  1.98329282521527600D-01
46  3 -3.98083938793320400D-02 -1.58520888642195800D-01 -1.58730227137163800D-01 -2.62812549939384700D-02  1.16463747827067600D-01
46  4 -5.18465602966386500D-02 -1.28548849887973900D-01 -4.16444503596964000D-02  7.77828299970295500D-02  1.34756315104855500D-01
46  5 -1.16548723894636100D-02  7.74545633194475400D-01 -8.75607415544713700D-01 -1.96584443890952500D-01  7.95545508327758800D-02
46  6 -2.22878682634304700D-01  1.43324131801529100D-01  3.16738072151453200D-02  1.75146195830834600D-02  6.25988010061906500D-02
46  7 -1.72899249542396300D-02  2.82913007027630300D-02 -4.22148999771102700D-01 -2.10616683340488300D-01  1.45031566540088800D-01
46  8 -5.34088344365778500D-02 -9.71747980725345300D-02 -3.88270376653179000D-01  2.61282375562413100D-01 -1.18121084807856600D-01
46  9 -7.61853559811723600D-02  1.94306440789029400D-01 -2.43586835655645000D-01 -4.88906420277832000D-02  1.16085458947503300D-01
46 10  7.65097917982355400D-02  1.03085128579472600D-01  4.04154218068419900D-01  9.57124522794117500D-03 -1.51265496789814700D-01
46 11  3.33858869036602300D-02 -3.76855341683194500D-01  5.33251607747254300D-01 -1.35918367455073400D-01  3.30491756759571700D-01
46 12 -2.05492956496353300D-02 -3.09942461109936200D-01 -1.07300258619442700D-01 -1.12167559584577500D-01 -1.83366039003986500D-03
46 13  9.29894671477030200D-02  2.42598374215822100D-01 -1.28817783337842500D+00  7.95335958893131400D-02 -2.97993605051071900D-02
46 14 -3.68097838962000300D-02 -7.25684294553488000D-01 -1.54904813946720000D-01 -1.44948052171122600D-02 -6.63819909377814800D-02
46 15 -3.33403654011175400D-01  3.99785644948957500D-01 -1.21072770651244000D-01  2.99940939511453900D-02 -1.85509899474711900D-02
46 16  1.30370379380873500D-01  2.10350670773806500D-01 -3.18941408134871600D-01  1.84405880999550400D-01 -1.09268511664154600D-01
46 17 -2.12873313972584100D-02 -2.09325725374038300D-02 -6.07105362176054600D-01 -6.56431156129800200D-02  1.29434417302722700D-02
46 18  1.90819505014034000D-01 -2.03762946744305700D-01  2.44850125346109400D-02 -9.87213489235809000D-03 -8.97672303283777900D-02
46 19 -7.50544762778149600D-02 -2.17507889042323100D-01 -6.90678411011384400D-02  3.29666214338919400D-01 -8.79043724640912700D-03
46 20 -1.21557437204425100D-01  2.67183525211391300D-02  8.47798332174112000D-02  5.33504329773747800D-02 -1.66791137263928100D-01
46 21 -6.44259334511821700D-02 -1.68000371137558100D-01 -5.98957437737630200D-02 -5.17885313736343100D-02 -8.41658731015873900D-02
46 22  1.35954404475221600D-01  2.28754765292715900D-02 -6.98385884529927900D-02 -1.85414889360570700D-02  1.33317586421644200D-01
46 23 -1.52700813420349000D-01  1.93832269987049100D-02  1.48399211860248200D-01  2.32095487056979000D-02  1.84991150605057100D-01
46 24 -5.99163518957373000D-02 -1.55416463747684500D-01  4.40839062538349500D-02 -1.36091519510066500D-01  7.83082542971858800D-02
46 25 -5.34485695806047700D-02  2.08156034758640500D-02 -9.53479865966757500D-02  1.82292573639053700D-01 -4.05335745747225100D-03
46 26 -1.45057556316723100D-01  3.04553708276886800D-01  1.67279987369742700D-02 -2.48367921052405700D-02  2.56866981727550100D-02
46 27 -8.49906067514427800D-04 -1.17935511578783400D-01 -6.62762496049541000D-02 -1.13244567162373900D-01  1.09243187185561700D-01
46 28  9.68134870515310500D-03 -1.18924535890714700D-01 -4.08915880931236700D-02  1.92086533727865200D-02  3.49775296549935600D-02
46 29  1.02704463006493300D-02  7.19201648504033100D-02 -1.00975262230875200D-02  1.75260986648818000D-01 -4.03763670006792600D-02
46 30  1.92252597029979700D-01  3.89243756953418900D-02 -4.05168268428066100D-02 -8.38366790538721400D-02  1.11103688575220500D-02
46 31 -7.23829988392434800D-02 -1.42255582614128800D-01  2.43254821205001300D-02 -1.51940154565478000D-01  9.24714465531443100D-02
46 32  9.52419305225649400D-02  2.36194535653451000D-01  5.95164065518808500D-03  5.66822789901034000D-02  8.56962831499310200D-02
47  1 -2.59395653269392400D-02 -5.37545675971426500D-02 -2.46687719643462400D-01  7.87789571339415800D-02 -8.27353470109611100D-02
47  2 -1.07593674441173400D-01  8.38360612998856600D-01  2.86111140512244300D-01  2.05216531981475500D-01 -4.60981739397444800D-02
47  3 -3.09142872812954500D-02  7.70124612210406200D-02 -8.38224471955764900D-02  1.71217797388712900D-02 -6.75730120896557200D-02
47  4 -8.12118637439957600D-02 -1.68433046675532600D-01 -6.20880264345536700D-01 -6.34870515700009700D-02 -5.78004144904244300D-02
47  5 -1.16480975626539500D-01  5.35962443212848200D-01 -1.01648409314524500D+00 -8.28296010921640000D-02 -1.30931059745393500D-01
47  6  2.32294956447137500D-01 -1.01363896701744300D-01 -2.12590128648682300D-01 -8.36545792407350200D-02 -3.77069401693556800D-02
47  7 -6.47502979500846100D-02 -1.30418876909746100D-01 -3.71408390290520800D-02 -1.52880306595558000D-01 -2.01072929696750800D-01
47  8 -1.34058316448861700D-02 -5.83578646046828100D-01  9.99107393664054200D-02 -9.20124846670292800D-02 -3.00451210627940700D-01
47  9  1.97114592336630000D-01  1.03336618291310300D-01  8.56985115567455600D-02  4.77394110339893800D-02  7.36429369151628400D-02
47 10  9.59693751194586500D-02  1.38087593772184700D-01 -1.54810923265669700D+00  9.35664554413249700D-02 -1.72028292980916400D-01
47 11  3.35452719397956400D-02  3.50564983956482400D-01 -6.91191762953989500D-01  6.62274420635191700D-02  1.14263424250996500D-01
47 12 -1.51852199359418100D-01  3.75887751084215500D-02  3.86094306558590600D-03  8.20992471878907300D-02  7.14071375573235200D-02
47 13 -5.22973466326521600D-02 -2.20443456148394400D-02  1.11400911143660000D+00  3.49652783004405700D-02 -2.14822169668599700D-01
47 14  8.61514981595748600D-03  8.12439247665126500D-01 -6.72526473196546600D-02 -2.66973742967795000D-02  1.62834913715472400D-01
47 15  6.24172957405145300D-02 -2.25252209455987100D-01 -2.07082941149366800D-01  1.21951781627804300D-02  1.34435288751150500D-02
47 16 -1.51192926184215800D-01 -2.97699836823078200D-01  1.07670136424614400D+00  2.06047091524330200D-01  1.97640626978573400D-02
47 17  1.01865147447305500D-03  1.66189986819691700D-01  5.05125554229068400D-01 -5.89036632185982700D-02  7.66713761515606800D-02
47 18  7.68360298953317700D-02 -1.53507406046892500D-01  6.22892924489785300D-02 -2.42171602220571000D-02  1.80122505617474200D-02
47 19  1.53496919614437100D-02  5.38473602899886400D-02  1.75887898765870400D-04 -8.22066625835861000D-02 -2.96832709886136500D-02
47 20  1.82193350296306300D-01 -1.12979667340849600D-02 -8.48754667855121200D-02 -2.61035255518185600D-01 -1.44353330699141100D-02
47 21  1.33626770647860500D-01 -1.31723554176306400D-01  4.90452734348312500D-02 -9.67039507228781600D-02  7.01210243537748300D-02
47 22  2.65829263691030200D-02 -7.04235504105457500D-02  9.02507857750856100D-02  5.28155883990888700D-02  1.93091560390252500D-01
47 23  1.38539571694756800D-02 -2.06945517559728500D-01 -1.63023327341486000D-01  3.48353718904209500D-02  3.77818931518460400D-02
47 24 -5.50785421528465900D-02 -1.55359127283751800D-01  2.78501704645422700D-01  2.49689282649404800D-01 -1.42391447904466300D-02
47 25 -6.71709559334900800D-02  5.49017888284694700D-02 -2.72498681374499300D-01  1.23364409366004800D-01  4.11337127458684300D-02
47 26 -6.20220008472022700D-02  2.41919584744816400D-02 -4.30195794165630000D-02  8.06953077022972700D-03  8.38257149378142600D-03
47 27 -1.64521022640111400D-02  5.90907350796623000D-02 -6.99391007481706500D-02  7.31057009366527500D-03  1.92446271748808300D-01
47 28 -2.12823344064595600D-01  2.03770723157874200D-02 -3.81367033244741600D-02 -1.32692629278834100D-01 -1.46888666540063200D-01
47 29  1.28457618687685900D-01  1.86199815722010800D-01  3.46466195714681000D-02 -2.48713812168966300D-01  7.68042719605396400D-02
47 30  5.93095831620503200D-02 -3.44402296354065800D-01 -7.44735904705734900D-02  4.28117523110472700D-02 -1.28591362882146500D-02
47 31 -1.06116135200826000D-02  1.57820803334453400D-01 -1.19602851222043000D-01  1.11444608692712900D-01  5.09999171018068300D-02
47 32 -7.93251713883588600D-02 -1.68471965604604500D-02 -2.10303273332345300D-01 -1.62959026457888700D-01 -4.25214614416166600D-02
48  1  9.61304988088438500D-02  1.93716872533180100D-01  1.21314718650305900D-01 -1.59162505744013100D-01  8.00554424977745600D-02
48  2 -4.87457494573063500D-02  9.56872536717432900D-01  7.52501752811610400D-02  1.94988052752644600D-01  9.34331881117659300D-03
48  3  4.37353218139847000D-02 -5.30786406251614900D-02  9.13776931590497100D-02  7.54441265760226900D-02  3.78760062322457000D-02
48  4  1.44699445933249800D-01  3.09925333665090400D-01  5.91902503368490300D-02  1.97166756689799000D-01  2.04437046995095600D-02
48  5  4.42000934903855800D-02  4.91672082454535500D-02 -1.05327349103870800D+00 -7.21060907442894200D-02  1.07561910054699000D-01
48  6 -1.39777545431003300D-01  3.22156353763043500D-02 -2.55529723785315400D-01  1.03965393615682400D-01  2.39560857248095300D-02
48  7  5.91909366579913000D-02  8.93016315840513000D-02 -4.69293518760864900D-01  3.56172685637745300D-02 -1.38735324261066800D-02
48  8 -3.35814076881907100D-02 -2.36641409346616500D-01 -5.73046890119568100D-01  8.20154688997603100D-03  5.99169473419540700D-02
48  9 -1.33941844091127300D-01  7.40248967491732000D-02  1.67831310802171900D-01 -8.53381810615465700D-03  1.11173893578917600D-02
48 10 -6.09197097002079400D-03 -2.14101663795990200D-02 -1.44297332415505000D-01  5.62507115793973600D-02  8.11817928736220900D-02
48 11 -8.80063055831685300D-02 -4.05346931845260500D-01 -1.38026648981091500D-01  5.77420818080949500D-02  5.92691538919140400D-02
48 12 -2.88721303653780300D-01  2.29452149761865800D-01 -2.40325313168676600D-01 -6.50948672922315700D-02  5.60848499477344900D-02
48 13  1.77561075853539600D-02  9.40202403959618500D-02  1.81961210850256400D-01 -2.26835869477447400D-02  9.90139386972792900D-02
48 14 -8.33842410560055900D-02 -1.83349539572141900D-01  2.82291717440529200D-01  4.77544591183534700D-02  4.45475016007727300D-02
48 15 -1.80664528300541200D-01  1.36117026699768800D-01  1.78720776611234600D-01  4.38091320688536500D-02 -7.31431179186669700D-02
48 16 -9.26848957704750000D-03 -9.31765368175204900D-02  1.51091824170776000D-01  6.43617687894853200D-02 -7.73116795627886000D-03
48 17 -4.61610812691845600D-02  1.51020474560154800D-01  5.94280689479129300D-01  6.30877159058472100D-02 -1.06087123503714900D-02
48 18  1.43167247602411200D-01 -1.32558535252039900D-01 -3.11126839574154600D-01  3.40017958189619500D-02  7.62956639020890700D-02
48 19  4.55276821460033600D-02  1.17899304891442600D-01 -1.29382936207596400D-01 -2.52764649733477600D-01 -2.24465987642230000D-02
48 20 -4.45273243436849100D-02  2.05266343422676300D-02 -2.06130203987514800D-01  2.00146171377332500D-01 -1.03171614626856000D-01
48 21  1.85874486767153500D-01  2.84859455585876600D-02 -2.06402914677586400D-03  1.86297737406278000D-01 -1.53641854679055800D-01
48 22 -3.26558827272226700D-02 -2.26665550412930500D-01  3.84474915359485100D-03 -7.65242227348988500D-02  4.15308466926402700D-02
48 23 -5.24024857973715800D-02  1.08716391047313200D-02  3.57608556038626700D-02  2.69447608876951100D-02  1.58225792629766200D-01
48 24  2.81037815763989300D-04 -4.35750872163075700D-02  1.32521582429737900D-01  4.69236513320892300D-02  2.78621795391805200D-02
48 25 -1.03824592196587800D-02  3.49286343640069200D-02  2.22220190220856800D-02  3.91995635912186300D-01 -8.24029570911364900D-02
48 26 -5.51549817178973200D-03 -5.27849982788380700D-02  2.76382206860475900D-03  2.68832440044394300D-02  1.41607290575335200D-01
48 27 -1.68490534579774700D-01  4.65530230967582500D-02  1.71943576974121400D-02 -4.24025293516688800D-02 -1.22181300652638900D-01
48 28  1.26161785476384700D-02  1.09565122105000600D-01 -1.98954206193814900D-01  5.27588975950208200D-02 -5.45590040131958300D-03
48 29 -1.04810598371140600D-01 -1.05274129010509900D-02 -4.96889906037092900D-02  1.14927853299525900D-01  1.04031868881685800D-01
48 30  6.31953378654114000D-02  3.16097552884250900D-02  2.43606848390387800D-02 -1.09531257855678100D-02  2.39220265294694400D-02
48 31 -2.95929485446064600D-02  2.68790307736902900D-03 -1.56629369474488100D-01  2.16736002642514000D-02  2.97629012048637900D-03
48 32 -6.50650013481024700D-02  2.10041066737792800D-01  1.42216256305717500D-01  1.14063587515347500D-01 -5.04527964691792900D-02
49  1  5.65376892271374800D-02  1.81870906977499400D-01  3.93892436835799800D-01  4.61373864444909400D-02 -5.01612629405537800D-02
49  2 -3.24031244539039500D-02 -5.99842616181509400D-01  3.46223617216061400D-01  1.24993033703261400D-01  1.97091759166682900D-02
49  3 -1.34990380598262000D-01  1.15281204681593900D-01 -1.67839527466899800D-01  6.86644022032870500D-02  5.37108499120618500D-02
49  4  2.04077877626343500D-02  3.21034856354763700D-02 -1.45361196460643900D-01 -5.89644543866437500D-02 -9.16384067968764600D-02
49  5 -7.33376440460861600D-02 -4.75601062051284600D-01 -3.19636889810457300D-01  2.13848040085682700D-01 -4.06128968823067900D-01
49  6  3.31408441676938700D-01  7.47205271461292000D-02  2.33031448520582800D-03  2.18138046155110600D-02  1.98540297614881900D-02
49  7 -3.52230536551438600D-02 -8.21018689778903300D-02 -2.24750980127702500D-01  6.79408217426869100D-02 -1.64302060564530300D-01
49  8 -2.15691079805048900D-04  1.28609075013571300D-01  5.29347282080241200D-02 -2.05535167098973100D-01  1.67011459255057800D-01
49  9  3.88968858274566600D-03 -1.70901147837804000D-01 -8.67390756527112300D-02  9.09671150536376900D-02  1.32043413382296400D-02
49 10 -2.74510581551769000D-02 -5.04356229139180000D-02  3.05873003657572100D-02  9.68263940715555900D-02 -4.44456365788560800D-02
49 11  1.36683914714690500D-02  2.08273060876420000D-01 -6.47387400684211300D-02  1.00220363127253200D-01 -1.25504449995946000D-01
49 12  1.63443086851865900D-02  1.09160141310759100D-01 -1.11667275733206500D-01  7.50174179639672400D-02  7.43966588145346400D-02
49 13  5.37129373778871000D-03  6.64125621483756000D-02 -2.86265291241718200D-02 -4.34393196671892100D-02  7.64532892562084800D-02
49 14 -2.54982286572347100D-02  1.51406225416204900D-01 -3.16503262210046500D-01  6.20652681720209300D-02 -3.08767705094698800D-02
49 15 -9.91251164608595300D-02  1.30001886970329500D-01 -2.16810250562134300D-01  3.12486060146686700D-02  3.52438003336628700D-02
49 16 -1.55532776007630600D-02 -7.39518916169975300D-02  3.07078905927689200D-02 -9.82779621303454500D-02  1.05583259816574400D-01
49 17  1.22387876225983300D-02 -1.12480635234214400D-01 -3.55911165793467400D-01 -4.25005892294085700D-02 -1.10648050859334200D-01
49 18  1.02870185645675300D-01  7.77786521365878400D-03 -2.55670497840485900D-02  4.62765701159735700D-02  1.58813466539796300D-01
49 19  8.40440832680866100D-02  1.70775184402487600D-01 -3.05077026135908000D-01 -3.89220181561680400D-01  1.87094294022496300D-02
49 20  1.14523572788271400D-01 -1.36704275190982900D-01  2.00233506888689900D-01  7.19189904117546700D-02  8.50279755793365000D-02
49 21  3.30971418667519200D-02  1.11388317193368000D-01  3.43284010863805300D-02 -3.39480352137781800D-02  1.45209589859690100D-02
49 22  1.94270762278092700D-02  1.59678636414509200D-01  1.87614636135614600D-01  1.46462829857550500D-01  7.42490723752573800D-02
49 23 -1.56856525688835800D-02 -5.85634198063737400D-02 -7.57574373597381000D-02 -5.58061363829354700D-02  2.59947948674040300D-01
49 24  2.63783916256150200D-02  1.06096926598666800D-01  4.16423454504129700D-01  2.39886692023031500D-01  7.40518086346001200D-02
49 25 -9.37799322073199800D-02  1.87224014247153200D-02 -2.25376059740082700D-01 -1.84777535441185200D-01 -5.18010640819346200D-02
49 26 -1.82410556379964400D-01  7.10767237793325400D-02 -1.04801416731379900D-01  2.94725932998086500D-01 -2.31715643619346600D-01
49 27 -6.30102893787397900D-02 -3.56249592446296300D-02  3.07526331635190700D-04  1.19547422379362200D-01  4.44341651521437500D-02
49 28  6.74806458155487300D-02 -1.11914810967692500D-01 -1.51637506457579400D-01  4.85234275957584900D-02 -5.85706629954363500D-02
49 29 -8.81637446162993500D-02 -1.09091498259025400D-01 -2.31118026372003800D-02  1.39773007739814500D-01  9.35288107193632800D-02
49 30 -2.44017546343036200D-02 -7.49616113956706700D-02  4.51682731206688400D-02 -1.01288745468937700D-01 -4.28516080571525500D-02
49 31 -4.47014734395952300D-02  2.47965963371906600D-02 -7.73122865723156500D-02 -7.40922822152410000D-02  2.03368345803276200D-02
49 32 -1.51050775112392700D-01  5.13175907474444200D-02  6.66325056631278900D-02  1.02608058888635500D-02 -7.81887945139854300D-02
50  1 -9.08809286947423900D-02 -8.37483093763849200D-02  2.13963190858094700D-01 -6.94441638978424100D-02  5.02510626712345800D-02
50  2  4.14982178068876800D-02  3.92918410123678000D-01 -1.09023723409787200D-01  6.19895087401141200D-02  1.09617215582630300D-01
50  3 -9.96753671210123400D-02 -9.94184846161845800D-03 -1.51029370190506700D-01 -3.03488006166995500D-02  1.11848164442089000D-02
50  4 -9.47437786074023700D-03 -6.19916683664528500D-02  4.53298090329947300D-01  9.52046947486726400D-03 -4.50175498299590700D-02
50  5  6.82026244084772700D-02  1.54401878900365900D-02 -9.63721570692145000D-01 -1.57301792691549600D-01 -5.56499197767996300D-02
50  6  1.59409374312812100D-01 -1.03759454536012700D-01  1.10344642830583000D-01  1.61518815781343100D-02  5.29617853735273000D-03
50  7  1.35889762012718800D-01  2.54160984136676700D-01 -1.58383724405688500D+00  8.04734217842294900D-03  1.01304062264419100D-01
50  8 -3.30665042347053700D-03  2.59699786081178300D-01 -7.65233882507432800D-01  1.86109632773109300D-01 -1.43015925626572400D-01
50  9  6.92062917113730900D-02  7.38096339151999200D-02 -1.03028154258370500D-01 -5.35054327038055600D-02 -4.55343243910575800D-02
50 10  7.05793140249260500D-02  1.58053042032250600D-01  7.93217554588756200D-01  1.81487017274762600D-02 -1.46053176989364500D-01
50 11  1.69169553919260600D-02 -6.88209664924200500D-02  4.32846715880364900D-01 -1.40000497963027900D-01  5.18602075687913100D-03
50 12  2.06411228020554300D-02 -2.58271435589345600D-02 -3.03281934459016000D-02 -9.13653744304900700D-02  1.27523897494346200D-03
50 13  1.22265718551482100D-02  4.83839284539301800D-02 -5.09071848714218200D-02  8.51466543669602000D-02  1.89404268130993000D-02
50 14 -2.61628089147589000D-03 -4.00506492133130200D-01  2.83931358106872100D-01 -8.20148880923638500D-02  1.01865872022381500D-01
50 15 -2.92489735889472600D-02 -7.26168984334340800D-02  3.07751721983775600D-01 -4.45598560817423900D-03 -6.62143684778495600D-02
50 16  1.19917443473872300D-01  2.32600520083151900D-01 -4.56636495182037800D-01 -3.21018777685924600D-02 -2.50761228649474100D-02
50 17 -2.07812118759850800D-04  1.75286659841754000D-02  2.52434465909279400D-01  9.23167281588401800D-02 -1.25566254718514400D-01
50 18  9.24367704588422400D-02  3.31294842596722600D-02 -1.43378770034893600D-01 -7.22809784673925000D-02 -9.82189093556521800D-02
50 19 -7.03188832286673200D-02 -1.80565875767526100D-01  2.36722834768767100D-01  6.80686537931259700D-02 -1.15772111275387400D-01
50 20  2.07713868976443100D-01  1.10342319509542100D-02  1.09928580335949000D-01 -1.47594207756976100D-01 -2.60517371803856700D-02
50 21  3.58207228504514800D-02 -2.06865817578164800D-01 -7.22139897388747500D-02 -1.32949442961801500D-01  1.29947447913567400D-01
50 22  3.00199504823435800D-03 -2.68228740419073400D-02 -7.13990044568739000D-02 -1.05292788991522900D-01 -3.18468019672020700D-01
50 23  2.39083891390137200D-01  7.93841282818838200D-02  7.87943664301018200D-02  5.82555788411397400D-02  6.50889245401921200D-02
50 24 -6.24147638406270900D-02 -1.48916581162499100D-01  1.51733162461731600D-01  2.85882194790953500D-01 -1.53717203849472400D-01
50 25 -1.35443950255071100D-01 -1.55677856658276200D-02 -1.22071875578273300D-02  5.83291084603289900D-02  1.22479026900559500D-02
50 26  1.17760091965233900D-01  1.51449998996791000D-01  8.13031098843653700D-02 -4.18544491117283000D-02  1.51560276979039300D-01
50 27 -1.09705827867310900D-01 -3.24555435606336800D-01  1.04016711413371000D-02 -2.61646256308840800D-02  3.40629221448201600D-02
50 28  8.72035973342508200D-02 -1.21266519479071000D-01 -1.32369279318438900D-01  1.75271367766779900D-02  4.64685931003053400D-02
50 29  8.23267750009215600D-03 -1.09221776734979400D-03  1.94257431432275300D-02 -8.71213256151301600D-03 -8.45933889463615400D-02
50 30 -2.17142139868399500D-02 -5.26038088044563600D-02 -4.82389467752282600D-03 -1.48531291011356300D-01  7.88841685935107900D-02
50 31  2.91841996647827600D-02 -1.44983090285444700D-01  7.13647204308842000D-02 -9.89501890422116200D-02  4.23172942049885600D-02
50 32  1.34517854757913100D-01 -1.13129359990094800D-01 -4.19387128597402900D-02  2.23859379826551700D-02 -6.92704934953587700D-02
51  1  0.00000000000000000D+00  0.00000000000000000D+00  0.00000000000000000D+00  0.00000000000000000D+00  0.00000000000000000D+00
51  2  0.00000000000000000D+00  0.00000000000000000D+00  0.00000000000000000D+00  0.00000000000000000D+00  1.55297545876703100D-01
51  3  1.55297545876703500D-01  1.55297545876703300D-01  0.00000000000000000D+00  0.00000000000000000D+00  0.00000000000000000D+00
51  4  0.00000000000000000D+00  0.00000000000000000D+00  0.00000000000000000D+00  0.00000000000000000D+00  0.00000000000000000D+00
51  5  0.00000000000000000D+00  0.00000000000000000D+00  0.00000000000000000D+00  0.00000000000000000D+00  3.72088362229995900D-02
51  6  3.72088362229993100D-02  3.72088362229995300D-02  0.00000000000000000D+00  0.00000000000000000D+00  0.00000000000000000D+00
51  7  0.00000000000000000D+00  0.00000000000000000D+00  0.00000000000000000D+00  0.00000000000000000D+00  0.00000000000000000D+00
51  8  0.00000000000000000D+00  0.00000000000000000D+00  0.00000000000000000D+00  0.00000000000000000D+00  1.48133889126056300D-01
51  9  1.48133889126056200D-01  1.48133889126056400D-01  0.00000000000000000D+00  0.00000000000000000D+00  0.00000000000000000D+00
51 10  0.00000000000000000D+00  0.00000000000000000D+00  0.00000000000000000D+00  0.00000000000000000D+00  0.00000000000000000D+00
51 11  0.00000000000000000D+00  0.00000000000000000D+00  0.00000000000000000D+00  0.00000000000000000D+00  8.00809180693354800D-03
51 12  8.00809180693360700D-03  8.00809180693358300D-03  0.00000000000000000D+00  0.00000000000000000D+00  0.00000000000000000D+00
51 13  0.00000000000000000D+00  0.00000000000000000D+00  0.00000000000000000D+00  0.00000000000000000D+00  0.00000000000000000D+00
51 14  0.00000000000000000D+00  0.00000000000000000D+00  0.00000000000000000D+00  0.00000000000000000D+00  3.00374473280196800D-01
51 15  3.00374473280197100D-01  3.00374473280197000D-01  0.00000000000000000D+00  0.00000000000000000D+00  0.00000000000000000D+00
51 16  0.00000000000000000D+00  0.00000000000000000D+00  0.00000000000000000D+00  0.00000000000000000D+00  0.00000000000000000D+00
51 17  0.00000000000000000D+00  0.00000000000000000D+00  0.00000000000000000D+00  0.00000000000000000D+00  1.97432507419239900D-01
51 18  1.97432507419239900D-01  1.97432507419240000D-01  0.00000000000000000D+00  0.00000000000000000D+00  0.00000000000000000D+00
51 19  0.00000000000000000D+00  0.00000000000000000D+00  0.00000000000000000D+00  0.00000000000000000D+00  0.00000000000000000D+00
51 20  0.00000000000000000D+00  0.00000000000000000D+00  0.00000000000000000D+00  0.00000000000000000D+00  0.00000000000000000D+00
51 21  0.00000000000000000D+00  0.00000000000000000D+00  0.00000000000000000D+00 -1.25334092581400600D-01 -1.25334092581400700D-01
51 22 -1.25334092581400900D-01  0.00000000000000000D+00  0.00000000000000000D+00  0.00000000000000000D+00  8.70479192867905200D-02
51 23  8.70479192867904100D-02  8.70479192867907200D-02  0.00000000000000000D+00  0.00000000000000000D+00  0.00000000000000000D+00
51 24  0.00000000000000000D+00  0.00000000000000000D+00  0.00000000000000000D+00  0.00000000000000000D+00  0.00000000000000000D+00
51 25  0.00000000000000000D+00  0.00000000000000000D+00  0.00000000000000000D+00  0.00000000000000000D+00  0.00000000000000000D+00
51 26  0.00000000000000000D+00  0.00000000000000000D+00  0.00000000000000000D+00  4.37039641542704400D-05  4.37039641543546700D-05
51 27  4.37039641543437800D-05  0.00000000000000000D+00  0.00000000000000000D+00  0.00000000000000000D+00  0.00000000000000000D+00
51 28  0.00000000000000000D+00  0.00000000000000000D+00  0.00000000000000000D+00  0.00000000000000000D+00  0.00000000000000000D+00
51 29  0.00000000000000000D+00  0.00000000000000000D+00  0.00000000000000000D+00  0.00000000000000000D+00  0.00000000000000000D+00
51 30  0.00000000000000000D+00  0.00000000000000000D+00  0.00000000000000000D+00  0.00000000000000000D+00  0.00000000000000000D+00
51 31  0.00000000000000000D+00  0.00000000000000000D+00  0.00000000000000000D+00  0.00000000000000000D+00  0.00000000000000000D+00
51 32  0.00000000000000000D+00  0.00000000000000000D+00  0.00000000000000000D+00  0.00000000000000000D+00  0.00000000000000000D+00
52  1  0.00000000000000000D+00  0.00000000000000000D+00  0.00000000000000000D+00  0.00000000000000000D+00  0.00000000000000000D+00
52  2  0.00000000000000000D+00  0.00000000000000000D+00  0.00000000000000000D+00  0.00000000000000000D+00  0.00000000000000000D+00
52  3  0.00000000000000000D+00  0.00000000000000000D+00  0.00000000000000000D+00  0.00000000000000000D+00  0.00000000000000000D+00
52  4  0.00000000000000000D+00  0.00000000000000000D+00  0.00000000000000000D+00  0.00000000000000000D+00  0.00000000000000000D+00
52  5  0.00000000000000000D+00  0.00000000000000000D+00  0.00000000000000000D+00  0.00000000000000000D+00  0.00000000000000000D+00
52  6  0.00000000000000000D+00  0.00000000000000000D+00  0.00000000000000000D+00  0.00000000000000000D+00  0.00000000000000000D+00
52  7  0.00000000000000000D+00  0.00000000000000000D+00  0.00000000000000000D+00  0.00000000000000000D+00  0.00000000000000000D+00
52  8  0.00000000000000000D+00  0.00000000000000000D+00  0.00000000000000000D+00  0.00000000000000000D+00  0.00000000000000000D+00
52  9  0.00000000000000000D+00  0.00000000000000000D+00  0.00000000000000000D+00  0.00000000000000000D+00  0.00000000000000000D+00
52 10  0.00000000000000000D+00  0.00000000000000000D+00  0.00000000000000000D+00  0.00000000000000000D+00  0.00000000000000000D+00
52 11  0.00000000000000000D+00  0.00000000000000000D+00  0.00000000000000000D+00  0.00000000000000000D+00  0.00000000000000000D+00
52 12  0.00000000000000000D+00  0.00000000000000000D+00  0.00000000000000000D+00  0.00000000000000000D+00  0.00000000000000000D+00
52 13  0.00000000000000000D+00  0.00000000000000000D+00  0.00000000000000000D+00  0.00000000000000000D+00  0.00000000000000000D+00
52 14  0.00000000000000000D+00  0.00000000000000000D+00  0.00000000000000000D+00  0.00000000000000000D+00  0.00000000000000000D+00
52 15  0.00000000000000000D+00  0.00000000000000000D+00  0.00000000000000000D+00  0.00000000000000000D+00  0.00000000000000000D+00
52 16  0.00000000000000000D+00  0.00000000000000000D+00  0.00000000000000000D+00  0.00000000000000000D+00  0.00000000000000000D+00
52 17  0.00000000000000000D+00  0.00000000000000000D+00  0.00000000000000000D+00  0.00000000000000000D+00  0.00000000000000000D+00
52 18  0.00000000000000000D+00  0.00000000000000000D+00  0.00000000000000000D+00  0.00000000000000000D+00  0.00000000000000000D+00
52 19  0.00000000000000000D+00  0.00000000000000000D+00  0.00000000000000000D+00  0.00000000000000000D+00  0.00000000000000000D+00
52 20  0.00000000000000000D+00  0.00000000000000000D+00  0.00000000000000000D+00  0.00000000000000000D+00  0.00000000000000000D+00
52 21  0.00000000000000000D+00  0.00000000000000000D+00  0.00000000000000000D+00  0.00000000000000000D+00  0.00000000000000000D+00
52 22  0.00000000000000000D+00  0.00000000000000000D+00  0.00000000000000000D+00  0.00000000000000000D+00  0.00000000000000000D+00
52 23  0.00000000000000000D+00  0.00000000000000000D+00  0.00000000000000000D+00  0.00000000000000000D+00  0.00000000000000000D+00
52 24  0.00000000000000000D+00  0.00000000000000000D+00  0.00000000000000000D+00  0.00000000000000000D+00  0.00000000000000000D+00
52 25  0.00000000000000000D+00  0.00000000000000000D+00  0.00000000000000000D+00  0.00000000000000000D+00  0.00000000000000000D+00
52 26  0.00000000000000000D+00  0.00000000000000000D+00  0.00000000000000000D+00  0.00000000000000000D+00  0.00000000000000000D+00
52 27  0.00000000000000000D+00  0.00000000000000000D+00  0.00000000000000000D+00  0.00000000000000000D+00  4.47213595499956700D-01
52 28  4.47213595499956700D-01  4.47213595499956700D-01  0.00000000000000000D+00  0.00000000000000000D+00  0.00000000000000000D+00
52 29  0.00000000000000000D+00  0.00000000000000000D+00  0.00000000000000000D+00  0.00000000000000000D+00  0.00000000000000000D+00
52 30  0.00000000000000000D+00  0.00000000000000000D+00  0.00000000000000000D+00  0.00000000000000000D+00  0.00000000000000000D+00
52 31  0.00000000000000000D+00  0.00000000000000000D+00  0.00000000000000000D+00  0.00000000000000000D+00  0.00000000000000000D+00
52 32  0.00000000000000000D+00  0.00000000000000000D+00  0.00000000000000000D+00  0.00000000000000000D+00  0.00000000000000000D+00
53  1  0.00000000000000000D+00  0.00000000000000000D+00  0.00000000000000000D+00  0.00000000000000000D+00  0.00000000000000000D+00
53  2  0.00000000000000000D+00  0.00000000000000000D+00  0.00000000000000000D+00  0.00000000000000000D+00  6.91773326466221700D-02
53  3  6.91773326466226200D-02  6.91773326466225800D-02  0.00000000000000000D+00  0.00000000000000000D+00  0.00000000000000000D+00
53  4  0.00000000000000000D+00  0.00000000000000000D+00  0.00000000000000000D+00  0.00000000000000000D+00  0.00000000000000000D+00
53  5  0.00000000000000000D+00  0.00000000000000000D+00  0.00000000000000000D+00  0.00000000000000000D+00  2.94293488155733100D-02
53  6  2.94293488155731100D-02  2.94293488155734300D-02  0.00000000000000000D+00  0.00000000000000000D+00  0.00000000000000000D+00
53  7  0.00000000000000000D+00  0.00000000000000000D+00  0.00000000000000000D+00  0.00000000000000000D+00  0.00000000000000000D+00
53  8  0.00000000000000000D+00  0.00000000000000000D+00  0.00000000000000000D+00  0.00000000000000000D+00  2.14877293667579300D-01
53  9  2.14877293667579300D-01  2.14877293667579300D-01  0.00000000000000000D+00  0.00000000000000000D+00  0.00000000000000000D+00
53 10  0.00000000000000000D+00  0.00000000000000000D+00  0.00000000000000000D+00  0.00000000000000000D+00  0.00000000000000000D+00
53 11  0.00000000000000000D+00  0.00000000000000000D+00  0.00000000000000000D+00  0.00000000000000000D+00 -1.53494348878038200D-01
53 12 -1.53494348878038400D-01 -1.53494348878038600D-01  0.00000000000000000D+00  0.00000000000000000D+00  0.00000000000000000D+00
53 13  0.00000000000000000D+00  0.00000000000000000D+00  0.00000000000000000D+00  0.00000000000000000D+00  0.00000000000000000D+00
53 14  0.00000000000000000D+00  0.00000000000000000D+00  0.00000000000000000D+00  0.00000000000000000D+00 -2.69611190609686200D-01
53 15 -2.69611190609686200D-01 -2.69611190609686000D-01  0.00000000000000000D+00  0.00000000000000000D+00  0.00000000000000000D+00
53 16  0.00000000000000000D+00  0.00000000000000000D+00  0.00000000000000000D+00  0.00000000000000000D+00  0.00000000000000000D+00
53 17  0.00000000000000000D+00  0.00000000000000000D+00  0.00000000000000000D+00  0.00000000000000000D+00  2.02899504718115000D-01
53 18  2.02899504718115400D-01  2.02899504718115300D-01  0.00000000000000000D+00  0.00000000000000000D+00  0.00000000000000000D+00
53 19  0.00000000000000000D+00  0.00000000000000000D+00  0.00000000000000000D+00  0.00000000000000000D+00  0.00000000000000000D+00
53 20  0.00000000000000000D+00  0.00000000000000000D+00  0.00000000000000000D+00  0.00000000000000000D+00  0.00000000000000000D+00
53 21  0.00000000000000000D+00  0.00000000000000000D+00  0.00000000000000000D+00 -5.07434323942768900D-02 -5.07434323942770600D-02
53 22 -5.07434323942768800D-02  0.00000000000000000D+00  0.00000000000000000D+00  0.00000000000000000D+00 -9.04563015709368800D-02
53 23 -9.04563015709369100D-02 -9.04563015709369400D-02  0.00000000000000000D+00  0.00000000000000000D+00  0.00000000000000000D+00
53 24  0.00000000000000000D+00  0.00000000000000000D+00  0.00000000000000000D+00  0.00000000000000000D+00  0.00000000000000000D+00
53 25  0.00000000000000000D+00  0.00000000000000000D+00  0.00000000000000000D+00  0.00000000000000000D+00  0.00000000000000000D+00
53 26  0.00000000000000000D+00  0.00000000000000000D+00  0.00000000000000000D+00 -4.54193659013355400D-05 -4.54193659014318000D-05
53 27 -4.54193659012796000D-05  0.00000000000000000D+00  0.00000000000000000D+00  0.00000000000000000D+00  0.00000000000000000D+00
53 28  0.00000000000000000D+00  0.00000000000000000D+00  0.00000000000000000D+00  0.00000000000000000D+00  0.00000000000000000D+00
53 29  0.00000000000000000D+00  0.00000000000000000D+00  0.00000000000000000D+00  0.00000000000000000D+00  0.00000000000000000D+00
53 30  0.00000000000000000D+00  0.00000000000000000D+00  0.00000000000000000D+00  0.00000000000000000D+00  0.00000000000000000D+00
53 31  0.00000000000000000D+00  0.00000000000000000D+00  0.00000000000000000D+00  0.00000000000000000D+00  0.00000000000000000D+00
53 32  0.00000000000000000D+00  0.00000000000000000D+00  0.00000000000000000D+00  0.00000000000000000D+00  0.00000000000000000D+00
54  1  0.00000000000000000D+00  0.00000000000000000D+00  0.00000000000000000D+00  0.00000000000000000D+00  0.00000000000000000D+00
54  2  0.00000000000000000D+00  0.00000000000000000D+00  0.00000000000000000D+00  0.00000000000000000D+00  0.00000000000000000D+00
54  3  0.00000000000000000D+00  0.00000000000000000D+00  0.00000000000000000D+00  0.00000000000000000D+00  0.00000000000000000D+00
54  4  0.00000000000000000D+00  0.00000000000000000D+00  0.00000000000000000D+00  0.00000000000000000D+00  0.00000000000000000D+00
54  5  0.00000000000000000D+00  0.00000000000000000D+00  0.00000000000000000D+00  0.00000000000000000D+00  1.99059364672299300D-11
54  6  1.99059725227803000D-11  1.99059675054311800D-11  0.00000000000000000D+00  0.00000000000000000D+00  0.00000000000000000D+00
54  7  0.00000000000000000D+00  0.00000000000000000D+00  0.00000000000000000D+00  0.00000000000000000D+00  0.00000000000000000D+00
54  8  0.00000000000000000D+00  0.00000000000000000D+00  0.00000000000000000D+00  0.00000000000000000D+00 -3.00110408828619800D-05
54  9 -3.00110408826696800D-05 -3.00110408827281000D-05  0.00000000000000000D+00  0.00000000000000000D+00  0.00000000000000000D+00
54 10  0.00000000000000000D+00  0.00000000000000000D+00  0.00000000000000000D+00  0.00000000000000000D+00  0.00000000000000000D+00
54 11  0.00000000000000000D+00  0.00000000000000000D+00  0.00000000000000000D+00  0.00000000000000000D+00  1.17820002964436300D-01
54 12  1.17820002964436200D-01  1.17820002964436400D-01  0.00000000000000000D+00  0.00000000000000000D+00  0.00000000000000000D+00
54 13  0.00000000000000000D+00  0.00000000000000000D+00  0.00000000000000000D+00  0.00000000000000000D+00  0.00000000000000000D+00
54 14  0.00000000000000000D+00  0.00000000000000000D+00  0.00000000000000000D+00  0.00000000000000000D+00 -1.53836944112917600D-01
54 15 -1.53836944112917900D-01 -1.53836944112917600D-01  0.00000000000000000D+00  0.00000000000000000D+00  0.00000000000000000D+00
54 16  0.00000000000000000D+00  0.00000000000000000D+00  0.00000000000000000D+00  0.00000000000000000D+00  0.00000000000000000D+00
54 17  0.00000000000000000D+00  0.00000000000000000D+00  0.00000000000000000D+00  0.00000000000000000D+00 -7.51276854297668900D-02
54 18 -7.51276854297666200D-02 -7.51276854297668200D-02  0.00000000000000000D+00  0.00000000000000000D+00  0.00000000000000000D+00
54 19  0.00000000000000000D+00  0.00000000000000000D+00  0.00000000000000000D+00  0.00000000000000000D+00  0.00000000000000000D+00
54 20  0.00000000000000000D+00  0.00000000000000000D+00  0.00000000000000000D+00  0.00000000000000000D+00  0.00000000000000000D+00
54 21  0.00000000000000000D+00  0.00000000000000000D+00  0.00000000000000000D+00 -3.00101930423853600D-01 -3.00101930423853600D-01
54 22 -3.00101930423853500D-01  0.00000000000000000D+00  0.00000000000000000D+00  0.00000000000000000D+00  2.58354961322914000D-01
54 23  2.58354961322914000D-01  2.58354961322913900D-01  0.00000000000000000D+00  0.00000000000000000D+00  0.00000000000000000D+00
54 24  0.00000000000000000D+00  0.00000000000000000D+00  0.00000000000000000D+00  0.00000000000000000D+00  0.00000000000000000D+00
54 25  0.00000000000000000D+00  0.00000000000000000D+00  0.00000000000000000D+00  0.00000000000000000D+00  0.00000000000000000D+00
54 26  0.00000000000000000D+00  0.00000000000000000D+00  0.00000000000000000D+00  1.29709189415555400D-04  1.29709189415339400D-04
54 27  1.29709189415499400D-04  0.00000000000000000D+00  0.00000000000000000D+00  0.00000000000000000D+00  0.00000000000000000D+00
54 28  0.00000000000000000D+00  0.00000000000000000D+00  0.00000000000000000D+00  0.00000000000000000D+00  0.00000000000000000D+00
54 29  0.00000000000000000D+00  0.00000000000000000D+00  0.00000000000000000D+00  0.00000000000000000D+00  0.00000000000000000D+00
54 30  0.00000000000000000D+00  0.00000000000000000D+00  0.00000000000000000D+00  0.00000000000000000D+00  0.00000000000000000D+00
54 31  0.00000000000000000D+00  0.00000000000000000D+00  0.00000000000000000D+00  0.00000000000000000D+00  0.00000000000000000D+00
54 32  0.00000000000000000D+00  0.00000000000000000D+00  0.00000000000000000D+00  0.00000000000000000D+00  0.00000000000000000D+00
55  1  0.00000000000000000D+00  0.00000000000000000D+00  0.00000000000000000D+00  0.00000000000000000D+00  0.00000000000000000D+00
55  2  0.00000000000000000D+00  0.00000000000000000D+00  0.00000000000000000D+00  0.00000000000000000D+00  0.00000000000000000D+00
55  3  0.00000000000000000D+00  0.00000000000000000D+00  0.00000000000000000D+00  0.00000000000000000D+00  0.00000000000000000D+00
55  4  0.00000000000000000D+00  0.00000000000000000D+00  0.00000000000000000D+00  0.00000000000000000D+00  0.00000000000000000D+00
55  5  0.00000000000000000D+00  0.00000000000000000D+00  0.00000000000000000D+00  0.00000000000000000D+00  0.00000000000000000D+00
55  6  0.00000000000000000D+00  0.00000000000000000D+00  0.00000000000000000D+00  0.00000000000000000D+00  0.00000000000000000D+00
55  7  0.00000000000000000D+00  0.00000000000000000D+00  0.00000000000000000D+00  0.00000000000000000D+00  0.00000000000000000D+00
55  8  0.00000000000000000D+00  0.00000000000000000D+00  0.00000000000000000D+00  0.00000000000000000D+00  0.00000000000000000D+00
55  9  0.00000000000000000D+00  0.00000000000000000D+00  0.00000000000000000D+00  0.00000000000000000D+00  0.00000000000000000D+00
55 10  0.00000000000000000D+00  0.00000000000000000D+00  0.00000000000000000D+00  0.00000000000000000D+00  0.00000000000000000D+00
55 11  0.00000000000000000D+00  0.00000000000000000D+00  0.00000000000000000D+00  0.00000000000000000D+00 -1.10678983290392300D-09
55 12 -1.10678978332754100D-09 -1.10678981071781700D-09  0.00000000000000000D+00  0.00000000000000000D+00  0.00000000000000000D+00
55 13  0.00000000000000000D+00  0.00000000000000000D+00  0.00000000000000000D+00  0.00000000000000000D+00  0.00000000000000000D+00
55 14  0.00000000000000000D+00  0.00000000000000000D+00  0.00000000000000000D+00  0.00000000000000000D+00  1.44511663328486200D-09
55 15  1.44511646051868300D-09  1.44511668936593800D-09  0.00000000000000000D+00  0.00000000000000000D+00  0.00000000000000000D+00
55 16  0.00000000000000000D+00  0.00000000000000000D+00  0.00000000000000000D+00  0.00000000000000000D+00  0.00000000000000000D+00
55 17  0.00000000000000000D+00  0.00000000000000000D+00  0.00000000000000000D+00  0.00000000000000000D+00  6.96888575338959400D-10
55 18  6.96888602005043400D-10  6.96888555820675600D-10  0.00000000000000000D+00  0.00000000000000000D+00  0.00000000000000000D+00
55 19  0.00000000000000000D+00  0.00000000000000000D+00  0.00000000000000000D+00  0.00000000000000000D+00  0.00000000000000000D+00
55 20  0.00000000000000000D+00  0.00000000000000000D+00  0.00000000000000000D+00  0.00000000000000000D+00  0.00000000000000000D+00
55 21  0.00000000000000000D+00  0.00000000000000000D+00  0.00000000000000000D+00  1.30846537576228200D-08  1.30846538272398400D-08
55 22  1.30846538651064400D-08  0.00000000000000000D+00  0.00000000000000000D+00  0.00000000000000000D+00  2.24543926537174500D-04
55 23  2.24543926537209500D-04  2.24543926537089300D-04  0.00000000000000000D+00  0.00000000000000000D+00  0.00000000000000000D+00
55 24  0.00000000000000000D+00  0.00000000000000000D+00  0.00000000000000000D+00  0.00000000000000000D+00  0.00000000000000000D+00
55 25  0.00000000000000000D+00  0.00000000000000000D+00  0.00000000000000000D+00  0.00000000000000000D+00  0.00000000000000000D+00
55 26  0.00000000000000000D+00  0.00000000000000000D+00  0.00000000000000000D+00 -4.47213539128707400D-01 -4.47213539128707500D-01
55 27 -4.47213539128707500D-01  0.00000000000000000D+00  0.00000000000000000D+00  0.00000000000000000D+00  0.00000000000000000D+00
55 28  0.00000000000000000D+00  0.00000000000000000D+00  0.00000000000000000D+00  0.00000000000000000D+00  0.00000000000000000D+00
55 29  0.00000000000000000D+00  0.00000000000000000D+00  0.00000000000000000D+00  0.00000000000000000D+00  0.00000000000000000D+00
55 30  0.00000000000000000D+00  0.00000000000000000D+00  0.00000000000000000D+00  0.00000000000000000D+00  0.00000000000000000D+00
55 31  0.00000000000000000D+00  0.00000000000000000D+00  0.00000000000000000D+00  0.00000000000000000D+00  0.00000000000000000D+00
55 32  0.00000000000000000D+00  0.00000000000000000D+00  0.00000000000000000D+00  0.00000000000000000D+00  0.00000000000000000D+00
56  1  0.00000000000000000D+00  0.00000000000000000D+00  0.00000000000000000D+00  0.00000000000000000D+00  0.00000000000000000D+00
56  2  0.00000000000000000D+00  0.00000000000000000D+00  0.00000000000000000D+00  0.00000000000000000D+00  1.57132959375836100D-01
56  3  1.57132959375836200D-01  1.57132959375836300D-01  0.00000000000000000D+00  0.00000000000000000D+00  0.00000000000000000D+00
56  4  0.00000000000000000D+00  0.00000000000000000D+00  0.00000000000000000D+00  0.00000000000000000D+00  0.00000000000000000D+00
56  5  0.00000000000000000D+00  0.00000000000000000D+00  0.00000000000000000D+00  0.00000000000000000D+00 -7.51830004803729200D-02
56  6 -7.51830004803727100D-02 -7.51830004803727800D-02  0.00000000000000000D+00  0.00000000000000000D+00  0.00000000000000000D+00
56  7  0.00000000000000000D+00  0.00000000000000000D+00  0.00000000000000000D+00  0.00000000000000000D+00  0.00000000000000000D+00
56  8  0.00000000000000000D+00  0.00000000000000000D+00  0.00000000000000000D+00  0.00000000000000000D+00 -1.51998085219205000D-01
56  9 -1.51998085219205300D-01 -1.51998085219205300D-01  0.00000000000000000D+00  0.00000000000000000D+00  0.00000000000000000D+00
56 10  0.00000000000000000D+00  0.00000000000000000D+00  0.00000000000000000D+00  0.00000000000000000D+00  0.00000000000000000D+00
56 11  0.00000000000000000D+00  0.00000000000000000D+00  0.00000000000000000D+00  0.00000000000000000D+00  2.84350737897239200D-01
56 12  2.84350737897239200D-01  2.84350737897239000D-01  0.00000000000000000D+00  0.00000000000000000D+00  0.00000000000000000D+00
56 13  0.00000000000000000D+00  0.00000000000000000D+00  0.00000000000000000D+00  0.00000000000000000D+00  0.00000000000000000D+00
56 14  0.00000000000000000D+00  0.00000000000000000D+00  0.00000000000000000D+00  0.00000000000000000D+00 -1.01204077435809700D-01
56 15 -1.01204077435809800D-01 -1.01204077435809800D-01  0.00000000000000000D+00  0.00000000000000000D+00  0.00000000000000000D+00
56 16  0.00000000000000000D+00  0.00000000000000000D+00  0.00000000000000000D+00  0.00000000000000000D+00  0.00000000000000000D+00
56 17  0.00000000000000000D+00  0.00000000000000000D+00  0.00000000000000000D+00  0.00000000000000000D+00  2.14879847435021100D-01
56 18  2.14879847435021000D-01  2.14879847435020900D-01  0.00000000000000000D+00  0.00000000000000000D+00  0.00000000000000000D+00
56 19  0.00000000000000000D+00  0.00000000000000000D+00  0.00000000000000000D+00  0.00000000000000000D+00  0.00000000000000000D+00
56 20  0.00000000000000000D+00  0.00000000000000000D+00  0.00000000000000000D+00  0.00000000000000000D+00  0.00000000000000000D+00
56 21  0.00000000000000000D+00  0.00000000000000000D+00  0.00000000000000000D+00  9.47617525185261200D-02  9.47617525185261400D-02
56 22  9.47617525185263000D-02  0.00000000000000000D+00  0.00000000000000000D+00  0.00000000000000000D+00 -1.73949855875429700D-02
56 23 -1.73949855875426000D-02 -1.73949855875428100D-02  0.00000000000000000D+00  0.00000000000000000D+00  0.00000000000000000D+00
56 24  0.00000000000000000D+00  0.00000000000000000D+00  0.00000000000000000D+00  0.00000000000000000D+00  0.00000000000000000D+00
56 25  0.00000000000000000D+00  0.00000000000000000D+00  0.00000000000000000D+00  0.00000000000000000D+00  0.00000000000000000D+00
56 26  0.00000000000000000D+00  0.00000000000000000D+00  0.00000000000000000D+00 -8.73186825353144300D-06 -8.73186825369070900D-06
56 27 -8.73186825366311800D-06  0.00000000000000000D+00  0.00000000000000000D+00  0.00000000000000000D+00  0.00000000000000000D+00
56 28  0.00000000000000000D+00  0.00000000000000000D+00  0.00000000000000000D+00  0.00000000000000000D+00  0.00000000000000000D+00
56 29  0.00000000000000000D+00  0.00000000000000000D+00  0.00000000000000000D+00  0.00000000000000000D+00  0.00000000000000000D+00
56 30  0.00000000000000000D+00  0.00000000000000000D+00  0.00000000000000000D+00  0.00000000000000000D+00  0.00000000000000000D+00
56 31  0.00000000000000000D+00  0.00000000000000000D+00  0.00000000000000000D+00  0.00000000000000000D+00  0.00000000000000000D+00
56 32  0.00000000000000000D+00  0.00000000000000000D+00  0.00000000000000000D+00  0.00000000000000000D+00  0.00000000000000000D+00
57  1  0.00000000000000000D+00  0.00000000000000000D+00  0.00000000000000000D+00  0.00000000000000000D+00  0.00000000000000000D+00
57  2  0.00000000000000000D+00  0.00000000000000000D+00  0.00000000000000000D+00  0.00000000000000000D+00  2.62493495028231200D-01
57  3  2.62493495028231900D-01  2.62493495028231400D-01  0.00000000000000000D+00  0.00000000000000000D+00  0.00000000000000000D+00
57  4  0.00000000000000000D+00  0.00000000000000000D+00  0.00000000000000000D+00  0.00000000000000000D+00  0.00000000000000000D+00
57  5  0.00000000000000000D+00  0.00000000000000000D+00  0.00000000000000000D+00  0.00000000000000000D+00 -1.55275894778379000D-01
57  6 -1.55275894778378600D-01 -1.55275894778378700D-01  0.00000000000000000D+00  0.00000000000000000D+00  0.00000000000000000D+00
57  7  0.00000000000000000D+00  0.00000000000000000D+00  0.00000000000000000D+00  0.00000000000000000D+00  0.00000000000000000D+00
57  8  0.00000000000000000D+00  0.00000000000000000D+00  0.00000000000000000D+00  0.00000000000000000D+00  1.87691467604078100D-01
57  9  1.87691467604078300D-01  1.87691467604078500D-01  0.00000000000000000D+00  0.00000000000000000D+00  0.00000000000000000D+00
57 10  0.00000000000000000D+00  0.00000000000000000D+00  0.00000000000000000D+00  0.00000000000000000D+00  0.00000000000000000D+00
57 11  0.00000000000000000D+00  0.00000000000000000D+00  0.00000000000000000D+00  0.00000000000000000D+00  7.59674802021184200D-02
57 12  7.59674802021184100D-02  7.59674802021184100D-02  0.00000000000000000D+00  0.00000000000000000D+00  0.00000000000000000D+00
57 13  0.00000000000000000D+00  0.00000000000000000D+00  0.00000000000000000D+00  0.00000000000000000D+00  0.00000000000000000D+00
57 14  0.00000000000000000D+00  0.00000000000000000D+00  0.00000000000000000D+00  0.00000000000000000D+00 -1.38111378099719400D-02
57 15 -1.38111378099724900D-02 -1.38111378099721600D-02  0.00000000000000000D+00  0.00000000000000000D+00  0.00000000000000000D+00
57 16  0.00000000000000000D+00  0.00000000000000000D+00  0.00000000000000000D+00  0.00000000000000000D+00  0.00000000000000000D+00
57 17  0.00000000000000000D+00  0.00000000000000000D+00  0.00000000000000000D+00  0.00000000000000000D+00 -2.44606962608666900D-01
57 18 -2.44606962608667000D-01 -2.44606962608667100D-01  0.00000000000000000D+00  0.00000000000000000D+00  0.00000000000000000D+00
57 19  0.00000000000000000D+00  0.00000000000000000D+00  0.00000000000000000D+00  0.00000000000000000D+00  0.00000000000000000D+00
57 20  0.00000000000000000D+00  0.00000000000000000D+00  0.00000000000000000D+00  0.00000000000000000D+00  0.00000000000000000D+00
57 21  0.00000000000000000D+00  0.00000000000000000D+00  0.00000000000000000D+00  4.27544554148072900D-02  4.27544554148069800D-02
57 22  4.27544554148072700D-02  0.00000000000000000D+00  0.00000000000000000D+00  0.00000000000000000D+00 -6.43129716640402600D-02
57 23 -6.43129716640398600D-02 -6.43129716640400000D-02  0.00000000000000000D+00  0.00000000000000000D+00  0.00000000000000000D+00
57 24  0.00000000000000000D+00  0.00000000000000000D+00  0.00000000000000000D+00  0.00000000000000000D+00  0.00000000000000000D+00
57 25  0.00000000000000000D+00  0.00000000000000000D+00  0.00000000000000000D+00  0.00000000000000000D+00  0.00000000000000000D+00
57 26  0.00000000000000000D+00  0.00000000000000000D+00  0.00000000000000000D+00 -3.22906194547170000D-05 -3.22906194549213900D-05
57 27 -3.22906194549961400D-05  0.00000000000000000D+00  0.00000000000000000D+00  0.00000000000000000D+00  0.00000000000000000D+00
57 28  0.00000000000000000D+00  0.00000000000000000D+00  0.00000000000000000D+00  0.00000000000000000D+00  0.00000000000000000D+00
57 29  0.00000000000000000D+00  0.00000000000000000D+00  0.00000000000000000D+00  0.00000000000000000D+00  0.00000000000000000D+00
57 30  0.00000000000000000D+00  0.00000000000000000D+00  0.00000000000000000D+00  0.00000000000000000D+00  0.00000000000000000D+00
57 31  0.00000000000000000D+00  0.00000000000000000D+00  0.00000000000000000D+00  0.00000000000000000D+00  0.00000000000000000D+00
57 32  0.00000000000000000D+00  0.00000000000000000D+00  0.00000000000000000D+00  0.00000000000000000D+00  0.00000000000000000D+00
58  1  0.00000000000000000D+00  0.00000000000000000D+00  0.00000000000000000D+00  0.00000000000000000D+00  0.00000000000000000D+00
58  2  0.00000000000000000D+00  0.00000000000000000D+00  0.00000000000000000D+00  0.00000000000000000D+00 -2.62809055563140000D-01
58  3 -2.62809055563139800D-01 -2.62809055563140000D-01  0.00000000000000000D+00  0.00000000000000000D+00  0.00000000000000000D+00
58  4  0.00000000000000000D+00  0.00000000000000000D+00  0.00000000000000000D+00  0.00000000000000000D+00  0.00000000000000000D+00
58  5  0.00000000000000000D+00  0.00000000000000000D+00  0.00000000000000000D+00  0.00000000000000000D+00 -5.32057629820288000D-02
58  6 -5.32057629820288400D-02 -5.32057629820288000D-02  0.00000000000000000D+00  0.00000000000000000D+00  0.00000000000000000D+00
58  7  0.00000000000000000D+00  0.00000000000000000D+00  0.00000000000000000D+00  0.00000000000000000D+00  0.00000000000000000D+00
58  8  0.00000000000000000D+00  0.00000000000000000D+00  0.00000000000000000D+00  0.00000000000000000D+00  2.63274427731923200D-01
58  9  2.63274427731923200D-01  2.63274427731923400D-01  0.00000000000000000D+00  0.00000000000000000D+00  0.00000000000000000D+00
58 10  0.00000000000000000D+00  0.00000000000000000D+00  0.00000000000000000D+00  0.00000000000000000D+00  0.00000000000000000D+00
58 11  0.00000000000000000D+00  0.00000000000000000D+00  0.00000000000000000D+00  0.00000000000000000D+00  2.24941759631727400D-01
58 12  2.24941759631727300D-01  2.24941759631727400D-01  0.00000000000000000D+00  0.00000000000000000D+00  0.00000000000000000D+00
58 13  0.00000000000000000D+00  0.00000000000000000D+00  0.00000000000000000D+00  0.00000000000000000D+00  0.00000000000000000D+00
58 14  0.00000000000000000D+00  0.00000000000000000D+00  0.00000000000000000D+00  0.00000000000000000D+00  1.50513888145907400D-02
58 15  1.50513888145907500D-02  1.50513888145905600D-02  0.00000000000000000D+00  0.00000000000000000D+00  0.00000000000000000D+00
58 16  0.00000000000000000D+00  0.00000000000000000D+00  0.00000000000000000D+00  0.00000000000000000D+00  0.00000000000000000D+00
58 17  0.00000000000000000D+00  0.00000000000000000D+00  0.00000000000000000D+00  0.00000000000000000D+00  3.41031856826539800D-02
58 18  3.41031856826541600D-02  3.41031856826542200D-02  0.00000000000000000D+00  0.00000000000000000D+00  0.00000000000000000D+00
58 19  0.00000000000000000D+00  0.00000000000000000D+00  0.00000000000000000D+00  0.00000000000000000D+00  0.00000000000000000D+00
58 20  0.00000000000000000D+00  0.00000000000000000D+00  0.00000000000000000D+00  0.00000000000000000D+00  0.00000000000000000D+00
58 21  0.00000000000000000D+00  0.00000000000000000D+00  0.00000000000000000D+00  8.16882246561792000D-02  8.16882246561792500D-02
58 22  8.16882246561791100D-02  0.00000000000000000D+00  0.00000000000000000D+00  0.00000000000000000D+00  1.12156104405543500D-02
58 23  1.12156104405543400D-02  1.12156104405546600D-02  0.00000000000000000D+00  0.00000000000000000D+00  0.00000000000000000D+00
58 24  0.00000000000000000D+00  0.00000000000000000D+00  0.00000000000000000D+00  0.00000000000000000D+00  0.00000000000000000D+00
58 25  0.00000000000000000D+00  0.00000000000000000D+00  0.00000000000000000D+00  0.00000000000000000D+00  0.00000000000000000D+00
58 26  0.00000000000000000D+00  0.00000000000000000D+00  0.00000000000000000D+00  5.63324335386239500D-06  5.63324335389245500D-06
58 27  5.63324335391645700D-06  0.00000000000000000D+00  0.00000000000000000D+00  0.00000000000000000D+00  0.00000000000000000D+00
58 28  0.00000000000000000D+00  0.00000000000000000D+00  0.00000000000000000D+00  0.00000000000000000D+00  0.00000000000000000D+00
58 29  0.00000000000000000D+00  0.00000000000000000D+00  0.00000000000000000D+00  0.00000000000000000D+00  0.00000000000000000D+00
58 30  0.00000000000000000D+00  0.00000000000000000D+00  0.00000000000000000D+00  0.00000000000000000D+00  0.00000000000000000D+00
58 31  0.00000000000000000D+00  0.00000000000000000D+00  0.00000000000000000D+00  0.00000000000000000D+00  0.00000000000000000D+00
58 32  0.00000000000000000D+00  0.00000000000000000D+00  0.00000000000000000D+00  0.00000000000000000D+00  0.00000000000000000D+00
59  1  0.00000000000000000D+00  0.00000000000000000D+00  0.00000000000000000D+00  0.00000000000000000D+00  0.00000000000000000D+00
59  2  0.00000000000000000D+00  0.00000000000000000D+00  0.00000000000000000D+00  0.00000000000000000D+00  7.47661936214051400D-02
59  3  7.47661936214048900D-02  7.47661936214049800D-02  0.00000000000000000D+00  0.00000000000000000D+00  0.00000000000000000D+00
59  4  0.00000000000000000D+00  0.00000000000000000D+00  0.00000000000000000D+00  0.00000000000000000D+00  0.00000000000000000D+00
59  5  0.00000000000000000D+00  0.00000000000000000D+00  0.00000000000000000D+00  0.00000000000000000D+00  4.06325433068223400D-01
59  6  4.06325433068223100D-01  4.06325433068223200D-01  0.00000000000000000D+00  0.00000000000000000D+00  0.00000000000000000D+00
59  7  0.00000000000000000D+00  0.00000000000000000D+00  0.00000000000000000D+00  0.00000000000000000D+00  0.00000000000000000D+00
59  8  0.00000000000000000D+00  0.00000000000000000D+00  0.00000000000000000D+00  0.00000000000000000D+00  4.81461666938797400D-02
59  9  4.81461666938800500D-02  4.81461666938797600D-02  0.00000000000000000D+00  0.00000000000000000D+00  0.00000000000000000D+00
59 10  0.00000000000000000D+00  0.00000000000000000D+00  0.00000000000000000D+00  0.00000000000000000D+00  0.00000000000000000D+00
59 11  0.00000000000000000D+00  0.00000000000000000D+00  0.00000000000000000D+00  0.00000000000000000D+00  1.23316007336615400D-01
59 12  1.23316007336615500D-01  1.23316007336615800D-01  0.00000000000000000D+00  0.00000000000000000D+00  0.00000000000000000D+00
59 13  0.00000000000000000D+00  0.00000000000000000D+00  0.00000000000000000D+00  0.00000000000000000D+00  0.00000000000000000D+00
59 14  0.00000000000000000D+00  0.00000000000000000D+00  0.00000000000000000D+00  0.00000000000000000D+00 -2.92142944737317100D-02
59 15 -2.92142944737316900D-02 -2.92142944737316800D-02  0.00000000000000000D+00  0.00000000000000000D+00  0.00000000000000000D+00
59 16  0.00000000000000000D+00  0.00000000000000000D+00  0.00000000000000000D+00  0.00000000000000000D+00  0.00000000000000000D+00
59 17  0.00000000000000000D+00  0.00000000000000000D+00  0.00000000000000000D+00  0.00000000000000000D+00 -8.23217506186903200D-02
59 18 -8.23217506186904600D-02 -8.23217506186906400D-02  0.00000000000000000D+00  0.00000000000000000D+00  0.00000000000000000D+00
59 19  0.00000000000000000D+00  0.00000000000000000D+00  0.00000000000000000D+00  0.00000000000000000D+00  0.00000000000000000D+00
59 20  0.00000000000000000D+00  0.00000000000000000D+00  0.00000000000000000D+00  0.00000000000000000D+00  0.00000000000000000D+00
59 21  0.00000000000000000D+00  0.00000000000000000D+00  0.00000000000000000D+00  5.48472462687886500D-02  5.48472462687886900D-02
59 22  5.48472462687887400D-02  0.00000000000000000D+00  0.00000000000000000D+00  0.00000000000000000D+00 -3.38555957238004500D-02
59 23 -3.38555957238003900D-02 -3.38555957238003900D-02  0.00000000000000000D+00  0.00000000000000000D+00  0.00000000000000000D+00
59 24  0.00000000000000000D+00  0.00000000000000000D+00  0.00000000000000000D+00  0.00000000000000000D+00  0.00000000000000000D+00
59 25  0.00000000000000000D+00  0.00000000000000000D+00  0.00000000000000000D+00  0.00000000000000000D+00  0.00000000000000000D+00
59 26  0.00000000000000000D+00  0.00000000000000000D+00  0.00000000000000000D+00 -1.69976669648585900D-05 -1.69976669650058500D-05
59 27 -1.69976669649738600D-05  0.00000000000000000D+00  0.00000000000000000D+00  0.00000000000000000D+00  0.00000000000000000D+00
59 28  0.00000000000000000D+00  0.00000000000000000D+00  0.00000000000000000D+00  0.00000000000000000D+00  0.00000000000000000D+00
59 29  0.00000000000000000D+00  0.00000000000000000D+00  0.00000000000000000D+00  0.00000000000000000D+00  0.00000000000000000D+00
59 30  0.00000000000000000D+00  0.00000000000000000D+00  0.00000000000000000D+00  0.00000000000000000D+00  0.00000000000000000D+00
59 31  0.00000000000000000D+00  0.00000000000000000D+00  0.00000000000000000D+00  0.00000000000000000D+00  0.00000000000000000D+00
59 32  0.00000000000000000D+00  0.00000000000000000D+00  0.00000000000000000D+00  0.00000000000000000D+00  0.00000000000000000D+00
60  1  0.00000000000000000D+00  0.00000000000000000D+00  0.00000000000000000D+00  0.00000000000000000D+00  0.00000000000000000D+00
60  2  0.00000000000000000D+00  0.00000000000000000D+00  0.00000000000000000D+00  0.00000000000000000D+00 -5.33383880859094100D-02
60  3 -5.33383880859095000D-02 -5.33383880859094700D-02  0.00000000000000000D+00  0.00000000000000000D+00  0.00000000000000000D+00
60  4  0.00000000000000000D+00  0.00000000000000000D+00  0.00000000000000000D+00  0.00000000000000000D+00  0.00000000000000000D+00
60  5  0.00000000000000000D+00  0.00000000000000000D+00  0.00000000000000000D+00  0.00000000000000000D+00 -7.42415666478095000D-03
60  6 -7.42415666478102300D-03 -7.42415666478092800D-03  0.00000000000000000D+00  0.00000000000000000D+00  0.00000000000000000D+00
60  7  0.00000000000000000D+00  0.00000000000000000D+00  0.00000000000000000D+00  0.00000000000000000D+00  0.00000000000000000D+00
60  8  0.00000000000000000D+00  0.00000000000000000D+00  0.00000000000000000D+00  0.00000000000000000D+00 -4.38305381128073300D-02
60  9 -4.38305381128073500D-02 -4.38305381128073600D-02  0.00000000000000000D+00  0.00000000000000000D+00  0.00000000000000000D+00
60 10  0.00000000000000000D+00  0.00000000000000000D+00  0.00000000000000000D+00  0.00000000000000000D+00  0.00000000000000000D+00
60 11  0.00000000000000000D+00  0.00000000000000000D+00  0.00000000000000000D+00  0.00000000000000000D+00  1.00308370273632500D-01
60 12  1.00308370273632600D-01  1.00308370273632600D-01  0.00000000000000000D+00  0.00000000000000000D+00  0.00000000000000000D+00
60 13  0.00000000000000000D+00  0.00000000000000000D+00  0.00000000000000000D+00  0.00000000000000000D+00  0.00000000000000000D+00
60 14  0.00000000000000000D+00  0.00000000000000000D+00  0.00000000000000000D+00  0.00000000000000000D+00  4.36594113746892400D-02
60 15  4.36594113746890500D-02  4.36594113746891800D-02  0.00000000000000000D+00  0.00000000000000000D+00  0.00000000000000000D+00
60 16  0.00000000000000000D+00  0.00000000000000000D+00  0.00000000000000000D+00  0.00000000000000000D+00  0.00000000000000000D+00
60 17  0.00000000000000000D+00  0.00000000000000000D+00  0.00000000000000000D+00  0.00000000000000000D+00 -1.61930229510445600D-02
60 18 -1.61930229510445000D-02 -1.61930229510444700D-02  0.00000000000000000D+00  0.00000000000000000D+00  0.00000000000000000D+00
60 19  0.00000000000000000D+00  0.00000000000000000D+00  0.00000000000000000D+00  0.00000000000000000D+00  0.00000000000000000D+00
60 20  0.00000000000000000D+00  0.00000000000000000D+00  0.00000000000000000D+00  0.00000000000000000D+00  0.00000000000000000D+00
60 21  0.00000000000000000D+00  0.00000000000000000D+00  0.00000000000000000D+00 -2.66770277565872700D-01 -2.66770277565872700D-01
60 22 -2.66770277565872800D-01  0.00000000000000000D+00  0.00000000000000000D+00  0.00000000000000000D+00 -3.34338519567502700D-01
60 23 -3.34338519567502700D-01 -3.34338519567502800D-01  0.00000000000000000D+00  0.00000000000000000D+00  0.00000000000000000D+00
60 24  0.00000000000000000D+00  0.00000000000000000D+00  0.00000000000000000D+00  0.00000000000000000D+00  0.00000000000000000D+00
60 25  0.00000000000000000D+00  0.00000000000000000D+00  0.00000000000000000D+00  0.00000000000000000D+00  0.00000000000000000D+00
60 26  0.00000000000000000D+00  0.00000000000000000D+00  0.00000000000000000D+00 -1.67877819494830700D-04 -1.67877819494638600D-04
60 27 -1.67877819494756100D-04  0.00000000000000000D+00  0.00000000000000000D+00  0.00000000000000000D+00  0.00000000000000000D+00
60 28  0.00000000000000000D+00  0.00000000000000000D+00  0.00000000000000000D+00  0.00000000000000000D+00  0.00000000000000000D+00
60 29  0.00000000000000000D+00  0.00000000000000000D+00  0.00000000000000000D+00  0.00000000000000000D+00  0.00000000000000000D+00
60 30  0.00000000000000000D+00  0.00000000000000000D+00  0.00000000000000000D+00  0.00000000000000000D+00  0.00000000000000000D+00
60 31  0.00000000000000000D+00  0.00000000000000000D+00  0.00000000000000000D+00  0.00000000000000000D+00  0.00000000000000000D+00
60 32  0.00000000000000000D+00  0.00000000000000000D+00  0.00000000000000000D+00  0.00000000000000000D+00  0.00000000000000000D+00
 $END