 $CONTRL SCFTYP=MCSCF RUNTYP=ENERGY ICHARG=0 MULT=1 MPLEVL=2 EXETYP=RUN
      INTTYP=HONDO ICUT=13 ITOL=30 D5=.T. MAXIT=100 GENCON=.F. WIDE=1 FSTINT=.T.
 $END
 $SYSTEM TIMLIM=60000 MWORDS=200 MASMEM=200000000 MXBCST=-1 KDIAG=0 NOJAC=1 $END
 $MOORTH NOSTF=.T. NOZERO=.T. SYMS=.T. SYMDEN=.T. SYMVEC=.T. SYMVX=.T.
      TOLE=0.0D0 TOLZ=0.0D0 $END
 $GUESS GUESS=MOREAD NORB=160 IORDER(22)=-23 IORDER(32)=-45 NORDER=1 $END
 $DET NCORE=22 NACT=10 NELS=12 CVGTOL=1D-8 ITERMX=1000 NSTATE=15
      WSTATE(1)=1,1,1,1,1 $END
 $MCSCF MAXIT=70 ACURCY=1D-8 CISTEP=ALDET ENGTOL=1D-12 IFORB=1 ISTATE=1
      SOSCF=.T. $END
 $XMCQDPT NSTATE=5 EDSHFT=2D-2 GENZRO=1D-20 ISTATE(1)=1 THRCON=1D-8 THRERI=1D-20
      THRGEN=1D-20 WSTATE(1)=1,1,1,1,1 $END
 $MCQGENS GEN1=3 GEN2=3 GEN3=1 USEGEN1=.T. $END
 $DATA
o_bq XMCQDPT2/ALDET-CASSCF(12,10) Andrew-style geometry
C1
C      6.0    -0.0450782261     1.4807810883     0.0000000000
S   8
  1    6665.0000000       0.0006920
  2    1000.0000000       0.0053290
  3     228.0000000       0.0270770
  4      64.7100000       0.1017180
  5      21.0600000       0.2747400
  6       7.4950000       0.4485640
  7       2.7970000       0.2850740
  8       0.5215000       0.0152040
S   8
  1    6665.0000000      -0.0001460
  2    1000.0000000      -0.0011540
  3     228.0000000      -0.0057250
  4      64.7100000      -0.0233120
  5      21.0600000      -0.0639550
  6       7.4950000      -0.1499810
  7       2.7970000      -0.1272620
  8       0.5215000       0.5445290
S   1
  1       0.1596000       1.0000000
P   3
  1       9.4390000       0.0381090
  2       2.0020000       0.2094800
  3       0.5456000       0.5085570
P   1
  1       0.1517000       1.0000000
D   1
  1       0.5500000       1.0000000

C      6.0     1.3045915656     0.7016426529     0.0000000000
S   8
  1    6665.0000000       0.0006920
  2    1000.0000000       0.0053290
  3     228.0000000       0.0270770
  4      64.7100000       0.1017180
  5      21.0600000       0.2747400
  6       7.4950000       0.4485640
  7       2.7970000       0.2850740
  8       0.5215000       0.0152040
S   8
  1    6665.0000000      -0.0001460
  2    1000.0000000      -0.0011540
  3     228.0000000      -0.0057250
  4      64.7100000      -0.0233120
  5      21.0600000      -0.0639550
  6       7.4950000      -0.1499810
  7       2.7970000      -0.1272620
  8       0.5215000       0.5445290
S   1
  1       0.1596000       1.0000000
P   3
  1       9.4390000       0.0381090
  2       2.0020000       0.2094800
  3       0.5456000       0.5085570
P   1
  1       0.1517000       1.0000000
D   1
  1       0.5500000       1.0000000

C      6.0     1.2405223961    -0.7735654712     0.0000000000
S   8
  1    6665.0000000       0.0006920
  2    1000.0000000       0.0053290
  3     228.0000000       0.0270770
  4      64.7100000       0.1017180
  5      21.0600000       0.2747400
  6       7.4950000       0.4485640
  7       2.7970000       0.2850740
  8       0.5215000       0.0152040
S   8
  1    6665.0000000      -0.0001460
  2    1000.0000000      -0.0011540
  3     228.0000000      -0.0057250
  4      64.7100000      -0.0233120
  5      21.0600000      -0.0639550
  6       7.4950000      -0.1499810
  7       2.7970000      -0.1272620
  8       0.5215000       0.5445290
S   1
  1       0.1596000       1.0000000
P   3
  1       9.4390000       0.0381090
  2       2.0020000       0.2094800
  3       0.5456000       0.5085570
P   1
  1       0.1517000       1.0000000
D   1
  1       0.5500000       1.0000000

C      6.0     0.0339756812    -1.4096965476     0.0000000000
S   8
  1    6665.0000000       0.0006920
  2    1000.0000000       0.0053290
  3     228.0000000       0.0270770
  4      64.7100000       0.1017180
  5      21.0600000       0.2747400
  6       7.4950000       0.4485640
  7       2.7970000       0.2850740
  8       0.5215000       0.0152040
S   8
  1    6665.0000000      -0.0001460
  2    1000.0000000      -0.0011540
  3     228.0000000      -0.0057250
  4      64.7100000      -0.0233120
  5      21.0600000      -0.0639550
  6       7.4950000      -0.1499810
  7       2.7970000      -0.1272620
  8       0.5215000       0.5445290
S   1
  1       0.1596000       1.0000000
P   3
  1       9.4390000       0.0381090
  2       2.0020000       0.2094800
  3       0.5456000       0.5085570
P   1
  1       0.1517000       1.0000000
D   1
  1       0.5500000       1.0000000

C      6.0    -1.2380102911    -0.6753858178     0.0000000000
S   8
  1    6665.0000000       0.0006920
  2    1000.0000000       0.0053290
  3     228.0000000       0.0270770
  4      64.7100000       0.1017180
  5      21.0600000       0.2747400
  6       7.4950000       0.4485640
  7       2.7970000       0.2850740
  8       0.5215000       0.0152040
S   8
  1    6665.0000000      -0.0001460
  2    1000.0000000      -0.0011540
  3     228.0000000      -0.0057250
  4      64.7100000      -0.0233120
  5      21.0600000      -0.0639550
  6       7.4950000      -0.1499810
  7       2.7970000      -0.1272620
  8       0.5215000       0.5445290
S   1
  1       0.1596000       1.0000000
P   3
  1       9.4390000       0.0381090
  2       2.0020000       0.2094800
  3       0.5456000       0.5085570
P   1
  1       0.1517000       1.0000000
D   1
  1       0.5500000       1.0000000

C      6.0    -1.2905225577     0.6875519449     0.0000000000
S   8
  1    6665.0000000       0.0006920
  2    1000.0000000       0.0053290
  3     228.0000000       0.0270770
  4      64.7100000       0.1017180
  5      21.0600000       0.2747400
  6       7.4950000       0.4485640
  7       2.7970000       0.2850740
  8       0.5215000       0.0152040
S   8
  1    6665.0000000      -0.0001460
  2    1000.0000000      -0.0011540
  3     228.0000000      -0.0057250
  4      64.7100000      -0.0233120
  5      21.0600000      -0.0639550
  6       7.4950000      -0.1499810
  7       2.7970000      -0.1272620
  8       0.5215000       0.5445290
S   1
  1       0.1596000       1.0000000
P   3
  1       9.4390000       0.0381090
  2       2.0020000       0.2094800
  3       0.5456000       0.5085570
P   1
  1       0.1517000       1.0000000
D   1
  1       0.5500000       1.0000000

O      8.0    -0.0398433785     2.7143255481     0.0000000000
S   8
  1   11720.0000000       0.0007100
  2    1759.0000000       0.0054700
  3     400.8000000       0.0278370
  4     113.7000000       0.1048000
  5      37.0300000       0.2830620
  6      13.2700000       0.4487190
  7       5.0250000       0.2709520
  8       1.0130000       0.0154580
S   8
  1   11720.0000000      -0.0001600
  2    1759.0000000      -0.0012630
  3     400.8000000      -0.0062670
  4     113.7000000      -0.0257160
  5      37.0300000      -0.0709240
  6      13.2700000      -0.1654110
  7       5.0250000      -0.1169550
  8       1.0130000       0.5573680
S   1
  1       0.3023000       1.0000000
S   1
  1       0.0789600       1.0000000
P   3
  1      17.7000000       0.0430180
  2       3.8540000       0.2289130
  3       1.0460000       0.5087280
P   1
  1       0.2753000       1.0000000
P   1
  1       0.0685600       1.0000000
D   1
  1       1.1850000       1.0000000
D   1
  1       0.3320000       1.0000000

O      8.0     2.3701827636     1.3230538234     0.0000000000
S   8
  1   11720.0000000       0.0007100
  2    1759.0000000       0.0054700
  3     400.8000000       0.0278370
  4     113.7000000       0.1048000
  5      37.0300000       0.2830620
  6      13.2700000       0.4487190
  7       5.0250000       0.2709520
  8       1.0130000       0.0154580
S   8
  1   11720.0000000      -0.0001600
  2    1759.0000000      -0.0012630
  3     400.8000000      -0.0062670
  4     113.7000000      -0.0257160
  5      37.0300000      -0.0709240
  6      13.2700000      -0.1654110
  7       5.0250000      -0.1169550
  8       1.0130000       0.5573680
S   1
  1       0.3023000       1.0000000
S   1
  1       0.0789600       1.0000000
P   3
  1      17.7000000       0.0430180
  2       3.8540000       0.2289130
  3       1.0460000       0.5087280
P   1
  1       0.2753000       1.0000000
P   1
  1       0.0685600       1.0000000
D   1
  1       1.1850000       1.0000000
D   1
  1       0.3320000       1.0000000

H      1.0     2.1902390294    -1.3176810390     0.0000000000
S   3
  1      13.0100000       0.0196850
  2       1.9620000       0.1379770
  3       0.4446000       0.4781480
S   1
  1       0.1220000       1.0000000
P   1
  1       0.7270000       1.0000000

H      1.0    -0.0034843590    -2.5045497916     0.0000000000
S   3
  1      13.0100000       0.0196850
  2       1.9620000       0.1379770
  3       0.4446000       0.4781480
S   1
  1       0.1220000       1.0000000
P   1
  1       0.7270000       1.0000000

H      1.0    -2.1674037412    -1.2553456340     0.0000000000
S   3
  1      13.0100000       0.0196850
  2       1.9620000       0.1379770
  3       0.4446000       0.4781480
S   1
  1       0.1220000       1.0000000
P   1
  1       0.7270000       1.0000000

H      1.0    -2.2366688824     1.2378692437     0.0000000000
S   3
  1      13.0100000       0.0196850
  2       1.9620000       0.1379770
  3       0.4446000       0.4781480
S   1
  1       0.1220000       1.0000000
P   1
  1       0.7270000       1.0000000

 $END
 $VEC
 1  1 -4.02470691882658800D-05 -7.54560335784312700D-05 -1.55948613757238400D-03  4.46748259346279300D-05  2.84304309563337300D-05
 1  2 -5.62530057775323000D-06 -1.04941686397540000D-04  6.63171439017523200D-04 -6.96657422724285300D-05 -4.41240971762392000D-05
 1  3  8.16208646730865200D-05 -3.74967674968261700D-05 -1.66323133948217900D-04  1.92086896399548700D-05 -6.39590255305256800D-06
 1  4 -1.63700651868749200D-04 -3.11241055237639700D-04  2.37202172477060900D-03  1.42410645995439300D-04  2.71999765688344500D-05
 1  5 -1.04546358755514700D-05 -1.19818807106599400D-03  1.67572761202404900D-03 -1.22778879164953000D-04  2.37652772461206800D-04
 1  6 -1.39755944971333100D-04 -9.78968274899070500D-05 -3.40177419792303200D-04  1.71826252183221500D-05  2.40430582979765500D-05
 1  7 -4.02208175589615500D-05 -7.54071308352346200D-05 -1.56023842595924600D-03 -4.56020228338730300D-05  2.74948475740692600D-05
 1  8 -6.51346094608875100D-07  8.40730745462130500D-05  6.65332674780267300D-04 -8.00847078937221200D-05 -5.31243048820153500D-05
 1  9  8.71364541685590700D-05 -3.40121492863829100D-05  1.61684918965826700D-04 -1.72747492569182900D-05 -2.47929970597426600D-05
 1 10 -1.63762680785962800D-04 -3.11337434677195000D-04  2.37362442432946200D-03 -1.43113405306392900D-04  2.44442871428800800D-05
 1 11  5.26201104138096600D-06  1.14560815040915500D-03  1.69910134192921300D-03 -2.51773544409953000D-04  2.19165026338910900D-04
 1 12 -1.28471702600815700D-04 -9.06933237381262700D-05  3.48846330568340200D-04 -5.83843303182676600D-05 -1.45557917084285900D-05
 1 13 -7.68311775783683700D-05 -1.43017678829092300D-04 -7.24486087618299200D-04 -8.11524955714489800D-08  4.60358532423786000D-06
 1 14 -5.02841761444530400D-07  1.53381730486939400D-05 -9.61640892387468500D-04  1.08126005519689900D-04 -7.20278749587718600D-05
 1 15  6.03051946783961400D-05  1.17226802802587900D-05 -1.82250226755331900D-06  5.39284095778070400D-06 -6.21853949289963700D-06
 1 16  6.33782118876719000D-04  1.01030755265411900D-03  3.88770923384141000D-03  6.14082961958176900D-06 -3.92791097953855100D-04
 1 17  4.31226848528320100D-05  9.50030914406017700D-05 -6.04151134103176500D-03  6.66086316476280300D-04  4.08410570303698400D-04
 1 18 -4.79056132092993400D-04  7.06455617892053600D-05  1.38730092782031800D-05 -2.22088859321076800D-05  7.03438954805239100D-05
 1 19  9.99724648075604800D-01  2.45787739430558400D-03 -9.00438432920495400D-03 -2.13298938368396200D-03 -2.83405087369746900D-05
 1 20  1.79731629090738500D-03 -1.97372312663141700D-04  5.32978006860613200D-05 -3.38081501586135300D-03  3.70956572217112000D-04
 1 21  1.14288349603623000D-05 -7.27242355245932300D-04  7.94896726421361300D-05  1.36107588573528200D-05  2.56756031703214100D-04
 1 22 -2.70366790560554900D-04 -6.42976097898050700D-06 -1.74213631856474700D-05 -6.78746556190735400D-05  4.79042235627361800D-04
 1 23 -8.07173152787479900D-04  3.28130917160101300D-04  2.24369204237538400D-05 -1.10370989681345300D-05  1.45240788152138100D-04
 1 24 -6.21515639517499100D-02 -2.52253911277077200D-04  9.95226024038286600D-04  3.55853887460624100D-04 -1.96458383474127400D-06
 1 25  1.24178570062879800D-04 -1.40871631997364200D-05  5.69377358096307000D-06 -3.60563438651433000D-04  4.09096327836243500D-05
 1 26  1.93175403865883600D-06 -1.21535328543617900D-04  1.38347650332059600D-05  4.84625977925157100D-06 -1.34063927431148000D-05
 1 27  8.56013296391029400D-06  3.64831372126062200D-07  2.07304528498789500D-07  2.97334149826099200D-06 -5.02515126683024900D-05
 1 28  5.48409441594402000D-05 -4.58943149112952200D-06 -1.59990117277946200D-06  2.98434797153316200D-06 -7.95827279263000500D-06
 1 29  1.39277128356994000D-04 -1.69866744338179600D-05  4.48497725620720900D-05 -3.14613608015900000D-05  1.10366183107262300D-06
 1 30 -1.31487790250278400D-04  7.53308535807002100D-04 -1.29686205060435900D-04 -9.15723926582448900D-05  1.73861395568989300D-05
 1 31  1.39266305417194100D-04 -1.70277382435611400D-05 -4.38449765647977400D-05 -3.22685422805029400D-05  5.96992070066587000D-06
 1 32 -1.31462692364674800D-04  7.53167343902076200D-04  1.32511032161674400D-04 -8.89801592407120500D-05  2.94888838177957900D-06
 2  1  1.70010772225949000D-04  3.23099942540242800D-04 -2.19539237751962700D-03 -1.49916920426880800D-04  2.10638446985853800D-05
 2  2  5.41143793519267300D-06  1.16689682806986500D-03  1.62859226101752000D-03 -2.46428384832979400D-04 -2.15105645996936000D-04
 2  3  1.19055231613405800D-04  9.60504143837237400D-05 -3.30654251443592200D-04  5.70518663240678700D-05  1.52143487395023800D-05
 2  4  6.10921433732023900D-05  1.15057543085373000D-04  1.27425305673445300D-03 -6.37120914386702500D-05  2.43929154461781800D-05
 2  5  6.64300281625360600D-07  2.35152069867165500D-04  4.60800819833659400D-04 -6.37560466391863900D-05  2.37769275358121200D-05
 2  6 -7.03258032572895800D-05  4.65488757216737400D-05 -1.20407139382391100D-04  1.50500523473179700D-05  2.20808635456484800D-05
 2  7  1.70011305172891200D-04  3.23106041973131800D-04 -2.19548832532323600D-03  1.49100829469105500D-04  2.39001518442526500D-05
 2  8 -1.10077020849450500D-05 -1.21757896007069700D-03  1.60598348680719600D-03 -1.15450034739999900D-04 -2.32919974575541400D-04
 2  9  1.29944674291331800D-04  1.02975300284176200D-04  3.22584745327944100D-04 -1.58052319489139600D-05 -2.14069239790337500D-05
 2 10  6.10557603757492300D-05  1.14989449874930400D-04  1.27495096127226600D-03  6.29278496881621400D-05  2.55967598108870600D-05
 2 11 -6.29191459444580300D-06 -2.49404960296124500D-04  4.56381033572828900D-04 -3.71363792996806000D-05  1.71266419380302400D-05
 2 12 -6.62664147067014500D-05  4.91397727686461800D-05  1.24108655971365000D-04 -1.18737635429508100D-05  8.37941281040035700D-06
 2 13 -6.28937956989642200D-04 -1.00011730517607900D-03 -3.82805980023850500D-03  6.27875309243930600D-06 -3.96607071862578700D-04
 2 14  4.48518727358636300D-05  9.46162778936047500D-05 -5.96660810739288700D-03  6.72238383109039500D-04 -4.02410546016434300D-04
 2 15  4.74447405684537900D-04 -7.20368596681781600D-05 -1.37291625836070800D-05  2.17325792296615300D-05 -7.18569772412151100D-05
 2 16 -1.62178867757363800D-06  1.81135293687973300D-05  2.46667369050360300D-04 -8.60558701620633200D-07  5.36427520346711200D-05
 2 17 -5.91726012249414000D-06  3.47909296494199400D-06 -2.15063924159670400D-04  2.39968235155248100D-05  2.16515301926941500D-05
 2 18 -1.00863474954986600D-06 -2.06428954428935400D-05  1.10120611506000900D-07 -2.66840529646970000D-06 -2.44969814481750300D-06
 2 19 -6.20428905693601700D-02 -5.22764425051655400D-05  1.19982794590336000D-04 -9.25199407974434800D-05  1.56400800034769000D-06
 2 20 -9.89322806366377300D-05  1.09210801548945700D-05 -9.39323553341427800D-07  5.80563425597612300D-05 -6.51956614874136200D-06
 2 21  4.87536308798956200D-07 -3.18047572597351400D-05  3.42859713664882500D-06 -6.58142545295477100D-06 -1.84640151672543500D-05
 2 22  2.50454406201811600D-05  4.43832097275299400D-07  1.95834302206453100D-06  5.68180388923583500D-06 -9.10168691142935500D-06
 2 23  4.52789034686166700D-05 -3.61772165571949800D-05 -1.20047844131689800D-06 -1.61874827285723300D-06 -1.06166028987544700D-05
 2 24 -9.99717708589801700D-01 -2.44493167742633000D-03  8.94965526990830000D-03  2.10496534207351700D-03 -2.83973829962616100D-05
 2 25  1.79481093091441500D-03 -2.02895283776273300D-04  5.31965095974485300D-05 -3.36098880336699800D-03  3.80229814449064800D-04
 2 26  1.13704494175392900D-05 -7.17401659189073100D-04  8.14392976446988000D-05 -1.44158712171052300D-05 -2.56489664130844400D-04
 2 27  2.70905535347994100D-04  6.53442483514234500D-06  1.74800819500649600D-05  7.00947703689895400D-05 -4.76550213905357000D-04
 2 28  8.05727962533208500D-04 -3.29177748627852600D-04 -2.25029923042498600D-05  1.08426427883069000D-05 -1.50224626145807000D-04
 2 29  1.15007316863863400D-04 -7.56732285680115700D-04  1.27899762093413900D-04 -8.57818707035958600D-05  2.64154037784822100D-06
 2 30 -1.23951361204170400D-04 -7.70952788076712900D-05 -2.79778068136561600D-05 -2.10890846831527400D-05  3.87985554845885600D-06
 2 31  1.15118193880724500D-04 -7.56898989559613100D-04 -1.25214041242356200D-04 -8.81984714104606900D-05  1.65419801457351000D-05
 2 32 -1.23944127646667900D-04 -7.71379991297760000D-05  2.86148611872522700D-05 -2.05388128628294600D-05  7.63038514827311800D-07
 3  1 -1.65769118402622200D-03 -1.82025309724148800D-04  8.11369433262186300D-04  3.89673036842108000D-05  4.35353406846977200D-05
 3  2 -6.87439679805814500D-06 -2.74181269114779100D-04 -6.45621929155101000D-04  8.65667425603202500D-05  2.04845557993462200D-04
 3  3  2.37585636412175700D-05 -2.28604121634699900D-04 -1.85370083764708000D-05 -2.48414510283214800D-05 -3.23252996150866500D-05
 3  4  4.26567224980131400D-03  9.48879774010404100D-05 -1.64400033583312700D-04 -8.72885300852812600D-06  2.08214223888818700D-05
 3  5 -1.96923881389629900D-06 -2.12449890198253600D-05 -6.22932603067839200D-04  7.17768243713575800D-05 -3.57472259415512500D-04
 3  6  3.53364243529383200D-05  3.22135835062600300D-04 -1.44902347438404400D-04  5.85982868345387300D-05  4.57273743650165300D-05
 3  7 -1.65750633412521700D-03 -1.82208093307508100D-04  8.12775322100488600D-04 -4.03170611744127600D-05  4.26912312813330400D-05
 3  8 -2.50892708640397800D-06  2.94645933130982700D-04 -6.40857469699150100D-04  5.53884148447521300D-05  2.03704797662836000D-04
 3  9  2.44759314614015700D-05 -2.28180729124059600D-04  1.87916270684261500D-05 -2.95880580507301400D-05 -3.44401911279576200D-05
 3 10  4.26863714469131400D-03  9.44518688714706000D-05 -1.64309973223487500D-04  7.73060189647998600D-06  2.11615541007034800D-05
 3 11 -2.90270403181879900D-06  4.09060087790940500D-05 -6.23469635327154100D-04  6.85143723473026100D-05 -3.65400160453415400D-04
 3 12  4.01288285890932900D-05  3.25271331864257200D-04  1.39991763345186900D-04  2.79342524993850000D-05  2.97865359372870800D-05
 3 13 -3.48555474686519500D-01 -1.88181047294720900D-03  1.58160876115126400D-03  4.17649838192840400D-06 -2.64726995543457300D-04
 3 14  3.00006603046402900D-05  5.07670235724682900D-06 -3.17165496620987300D-04  3.58221345366479600D-05 -3.23566232356011600D-05
 3 15 -2.18601146123905700D-04  2.50957769359522900D-04  5.58293450881161700D-06  1.74187457268384300D-05  6.24279519152837600D-05
 3 16  9.40122326245288500D-01  4.83362523637959100D-03 -5.46926174952619200D-03  1.28200088993640700D-05 -8.28744492749912900D-04
 3 17  9.10006917482900900D-05  1.60870695618902600D-05 -9.63328469891302400D-04  1.05941553813588800D-04  8.64596611343779800D-05
 3 18  6.07265958963441100D-04 -6.93725620097657200D-04 -1.56505803847115800D-05 -4.79658393183988900D-05 -1.68003658296367700D-04
 3 19  8.31265292271052200D-05  8.38479660423259700D-04 -2.09247816596021400D-03  9.96516328993016000D-04 -7.61738494735190200D-06
 3 20  4.82882073813720100D-04 -5.30132655747966500D-05  2.95973163624789100D-05 -1.90593715071313100D-03  2.09246370517523100D-04
 3 21 -1.44482821381390800D-05  9.16831627223808400D-04 -1.00931655292760200D-04 -1.67279105533675000D-04  3.19913182763115600D-04
 3 22 -1.52634077229564200D-04 -8.85520004860548800D-06  1.53433787089729000D-06 -6.06026937491881200D-05  3.73475882192324400D-04
 3 23 -1.08138400490056700D-03  7.07908122708320900D-04  2.86884346875490800D-05  1.90687397127782900D-05  2.29890504899069700D-04
 3 24 -5.34712295569123100D-05 -3.52760502070699700D-04  9.07110883240819100D-04 -2.88871275268141600D-04 -2.96364700510587100D-06
 3 25  1.87025082994068600D-04 -2.11838743518661800D-05  1.24243907820587300D-05 -7.88746815222899700D-04  8.92286343382673600D-05
 3 26 -4.96961173590884900D-06  3.13740260570809100D-04 -3.51972920702378400D-05  5.55777030622131800D-05 -1.14511102756375700D-04
 3 27  5.89333996943270100D-05  3.15905928786329900D-06 -1.03062753386248500D-08  2.30312717890340900D-05 -1.24878961632464600D-04
 3 28  4.02482868420073000D-04 -2.77603906787628000D-04 -1.07668475293331500D-05 -8.85125573450874500D-06 -9.02828951553942100D-05
 3 29 -6.58802610261139600D-05  2.57200436149502100D-04 -4.57462750057896700D-05  6.64201061901736000D-05 -4.89351767066620500D-06
 3 30  8.71136315202035300D-05 -2.80762104048941700D-04  4.88381804995022800D-05  1.04104809408724800D-04 -1.44934339889265200D-05
 3 31 -6.59419782461165200D-05  2.57066841218848900D-04  4.36553383133501800D-05  6.72927684755072300D-05 -9.80153531622585300D-06
 3 32  8.69702606992008500D-05 -2.80575241217980400D-04 -5.19426231705518600D-05  1.03091327697227600D-04 -8.92642766518008600D-06
 4  1 -4.20438361303307300D-03  3.19296311623307200D-05 -4.81811921185690600D-04 -2.31858776882265700D-05 -9.49882812728867700D-06
 4  2  2.34829486440464700D-06  2.89861897438691700D-04 -2.65952051996298200D-04  1.39614108352963900D-05  3.05714051827344200D-04
 4  3 -7.33709015604479400D-05 -2.32343150266890400D-04 -1.68525269327481800D-04 -1.43238260124842500D-05 -1.20393381022893700D-05
 4  4 -1.48235314754694700D-03  1.58672845730116500D-04 -9.29308761289802200D-04 -4.57605233224363300D-05  3.83161351730175700D-05
 4  5 -1.90409133695548900D-06  4.06995416323669400D-04 -3.08440472721821000D-04  1.31093789765410600D-05  3.85982765718005500D-05
 4  6 -6.25997980899530500D-05  2.40015215182832600D-05  9.96715917235142800D-05 -1.21463627398957900D-05  6.00520020544134400D-06
 4  7 -4.20405477298438600D-03  3.16899740106070900D-05 -4.81591831593176200D-04  2.33998519928858700D-05 -9.11546175978977100D-06
 4  8 -2.05231670292273000D-07 -2.81466167068660300D-04 -2.71479837612731600D-04  4.53764189082621900D-05  2.96176538991579900D-04
 4  9 -6.76115829805014100D-05 -2.28564956010764600D-04  1.74716969322242400D-04 -5.29441014139207300D-05 -3.12755787490098300D-05
 4 10 -1.48343239582694500D-03  1.58842414847541100D-04 -9.29480764011288200D-04  4.46717918310747000D-05  3.91100409000877600D-05
 4 11 -6.86815021971811000D-06 -3.96881867772346100D-04 -3.16174391373078300D-04  5.73009165339493600D-05  4.39984925761263300D-05
 4 12 -6.58658630900574000D-05  2.18673705139338400D-05 -9.58617492623456200D-05  9.55921215174701100D-06  1.69616444169111300D-05
 4 13 -9.40085097086850100D-01 -4.75544849497921600D-03  5.85331579763578000D-03  1.36698619937802400D-05 -8.64150792052659700D-04
 4 14  9.76956174924691200D-05  1.59221230495032900D-05 -9.97770449584078600D-04  1.12820893472009000D-04 -8.65522909797825300D-05
 4 15 -6.11426386788336600D-04  6.97978677768087300D-04  1.55670013934000100D-05  4.82330334531951400D-05  1.73689416477625100D-04
 4 16 -3.48456147743523100D-01 -1.67299836879624600D-03  2.61597773298766200D-03 -5.65845616476705100D-06  3.62823406778933900D-04
 4 17 -3.99207862207792200D-05 -6.44966748284184500D-06  4.09881430007887800D-04 -4.50675797085310500D-05 -3.18005878401988600D-05
 4 18 -2.33111242203557600D-04  2.64911830043734500D-04  6.00225796749684200D-06  1.82385171531146100D-05  6.44529312958692000D-05
 4 19 -1.03053085983022400D-06 -2.55482695988330700D-04  6.02119645572851400D-04 -4.75677284464516900D-04  2.66172844757304500D-06
 4 20 -1.68238067445860000D-04  1.85155049441620900D-05 -9.31346557239571700D-06  5.97439815779198100D-04 -6.56601646312432000D-05
 4 21  5.88055079722685700D-06 -3.74309543059033300D-04  4.09394924689218000D-05  7.04151868833981800D-05 -1.23615721724406100D-04
 4 22  5.32005348409274500D-05  3.45064553339165500D-06 -1.32212312887313000D-06  2.27695693546653800D-05 -1.56255905835499400D-04
 4 23  3.97842615556672300D-04 -2.41586709721110500D-04 -1.06581440914711100D-05 -4.63509894836828300D-06 -8.23423548397941600D-05
 4 24 -6.38981091709814800D-05 -8.02277619261363300D-04  1.97885134317429100D-03 -1.06578398155662800D-03 -7.54010539059443500D-06
 4 25  4.75468528807583900D-04 -5.37411488193887600D-05  2.89187656624098700D-05 -1.83356835471708400D-03  2.07237684491289100D-04
 4 26 -1.48551594193244800D-05  9.38944689302129000D-04 -1.06098773056652700D-04  1.72589036328536100D-04 -3.22534124827039700D-04
 4 27  1.49945088498473400D-04  8.95143089958747500D-06 -2.05029660045152500D-06  6.24322044245453700D-05 -3.84926182310863900D-04
 4 28  1.07781961190527200D-03 -6.92893429594404500D-04 -2.90423592925467600D-05 -1.73362311658487000D-05 -2.34410312237253900D-04
 4 29 -5.80233711379662100D-05  1.48960731983602300D-04 -2.92134141471481500D-05  7.88348376939887900D-05 -7.16184264010666000D-06
 4 30  1.20224292837808200D-05 -9.78466557402836400D-05  1.55929573106550500D-05 -7.56945899727228700D-07 -7.54506494789224800D-07
 4 31 -5.82790138496333000D-05  1.48957239676345500D-04  2.69010451513776100D-05  7.94329535823014900D-05 -1.02437573597783400D-05
 4 32  1.21315074273773200D-05 -9.79557744619826600D-05 -1.56759438998800700D-05 -1.07527831557101400D-06  9.66090646500400100D-07
 5  1 -4.11261583775850900D-01 -1.75183864114914600D-03  3.51520616528610000D-03  8.94231826859753300D-05 -8.85914657541486900D-06
 5  2 -3.85185336376288800D-06 -5.60380915221325900D-04  7.28675759484544400D-04 -5.21834784655819000D-05  5.87575744830150300D-06
 5  3 -4.23432679897974900D-05  3.64675105416011200D-05 -6.49679560610834100D-05  9.22430748450431400D-06  1.37460232756729300D-05
 5  4 -4.19016822098482300D-01 -1.79285043242255200D-03  3.66231770126339800D-03  9.00962816424567700D-05  1.02715610719117300D-05
 5  5 -6.01796886643472100D-06 -5.80715738826047500D-04 -6.99270065391291200D-04  1.09268845596831600D-04 -1.42291718810389600D-07
 5  6 -4.45331902146726300D-05  4.46754819337622000D-05  6.93921611276677400D-05 -5.02803992935952500D-06  8.06581676286492000D-06
 5  7  5.79279455969443100D-01  2.48229712654985300D-03 -4.98635576321701600D-03  1.20236192416874300D-04  3.60132840734967400D-05
 5  8 -1.06539974208774100D-05 -9.51230726585018200D-04 -7.22125639930820700D-04  1.33290400194016300D-04 -2.56998624459394900D-06
 5  9  1.02799831381546600D-04 -1.00229845136625500D-04 -8.41006828939161900D-05  3.14030701352763800D-06 -2.19383545174766900D-05
 5 10  5.68709372808677800D-01  2.42701241677443300D-03 -4.79579614966837300D-03  1.19670570273118500D-04 -3.37867104830751600D-05
 5 11 -2.75709634059781300D-06 -9.17521355340338700D-04  7.45528866848978600D-04 -3.35029256031452400D-05 -1.07435378794978200D-05
 5 12  1.00237694452965200D-04 -8.94941565735232600D-05  7.57579339185664200D-05 -1.37390792818967000D-05 -2.92902811348707300D-05
 5 13 -7.90849246139779500D-04 -1.77798049234548100D-05  1.36549155826468400D-04  3.46424144324945900D-05 -1.47051587749248000D-05
 5 14 -2.06451621804702700D-07 -2.08921465519974400D-03 -5.48528892973450000D-04  1.74798105348802700D-04 -3.73484306423969400D-05
 5 15 -1.01905690010211700D-05  4.75389996435199400D-05 -1.63822546231885400D-04  2.42625696611871500D-05  1.67717820510596500D-05
 5 16 -7.07223320759780900D-04 -1.58673891527093300D-05  7.70771818256763100D-05  3.41753606879923700D-05  1.41692846987748300D-05
 5 17 -3.42179248019527000D-06 -2.09430491737756200D-03  4.44447906428588800D-04  6.35018896834337600D-05 -4.27987958259737400D-05
 5 18 -1.26832305705714100D-06  4.40671188830844900D-05  1.62810950489099400D-04 -1.25375379797250100D-05 -3.07482600822985100D-06
 5 19 -2.79431011499191600D-05 -5.23269902545772600D-05  2.31930989230215400D-04  3.45132097055059600D-04 -2.23688963404998300D-05
 5 20 -7.75159947815937500D-06  2.05726134144478600D-06  3.55902140768459200D-04  1.23336464715202400D-04 -3.27778774630036300D-05
 5 21 -1.01593795976640100D-04  1.69376778608290900D-04 -1.33200798607472600D-05 -2.00791326731149600D-06  2.26055497170973700D-06
 5 22 -2.52641704361696200D-07 -2.09751084838535800D-05  2.39788828691305200D-06  8.37528317155078300D-07  6.87385115822862900D-06
 5 23  1.84824175573125700D-05 -2.53562687155848900D-05  1.13563917698825300D-04 -1.45794462346481100D-05 -1.19482667516925500D-05
 5 24 -2.97347254944959000D-05 -5.57321221822157800D-05  2.52117659378601900D-04  3.74943999422360800D-04 -2.27381599614101700D-05
 5 25  7.28655424566134000D-06  3.90417757108170800D-07  3.61916806115971200D-04 -1.24559000840203000D-04 -5.25719267790810000D-06
 5 26 -9.58225063802219300D-05 -1.85499408064858200D-04  2.62471474766390800D-05 -3.17765795611151700D-06  3.43405978896832600D-06
 5 27 -2.56401832841244800D-07  2.08362887313901300D-05 -2.24737093127674100D-06 -1.64961345500430800D-06  1.34596594853423200D-05
 5 28  1.59029368492738700D-05 -2.93625963346141600D-05 -1.15191451014486900D-04  1.05699930148260200D-05  3.20785842470086800D-07
 5 29 -8.25236665756177100D-05  4.89454306948865400D-04 -1.75771476798637800D-04  9.57447003474918200D-05 -1.19499439050095000D-06
 5 30 -7.51151295383199600D-05  4.99326484514268200D-04 -1.66952120170787800D-04 -9.59083506623396900D-05  1.98641683298742300D-05
 5 31  3.76221827993381800D-05 -4.82708790924214600D-04 -1.17607960198501400D-04 -7.51848279653542700D-05  1.47277417105415400D-05
 5 32  4.31896806219724200D-05 -4.72720971293688100D-04 -1.24258528546730200D-04  7.48256467839825900D-05 -1.75964845310260900D-06
 6  1 -5.68495241961991900D-01 -2.43561509812267800D-03  4.64899463395289900D-03  1.10592237661612700D-04 -8.12420788851178700D-05
 6  2  3.59740996812453900D-06 -1.22893440300430800D-03  1.70434437135173200D-04  4.59933371398981700D-05  1.58427827113840600D-05
 6  3 -1.90922833912580400D-04  1.75080051201117800D-04 -4.53460663895783300D-05  1.52171667705477200D-05  5.07716153370811100D-05
 6  4 -5.79479578299990000D-01 -2.49124176878605700D-03  4.81913290581122300D-03  1.10026207478872700D-04  8.42183403862860500D-05
 6  5 -1.49335142472182200D-05 -1.27599383487848400D-03 -1.85932936626510500D-04  8.85224896300049300D-05  7.59374967997279700D-06
 6  6 -1.92343813010499000D-04  1.84750063330487600D-04  5.83683302474175700D-05  4.67663459469368200D-06  4.62303012374547400D-05
 6  7 -4.19048561991308900D-01 -1.80411468473612000D-03  3.42830024040595100D-03 -7.63883927741419200D-05 -7.66336536069732300D-05
 6  8  1.31554260689235900D-05  1.02950580836591900D-03 -4.24193218265672700D-05 -5.16087968562947500D-05  7.44191534191485300D-06
 6  9 -1.68803309545667600D-04  1.61361394203706400D-04  3.36660231276136600D-05  6.14834588145791100D-06  4.17701453187963900D-05
 6 10 -4.11214598287561900D-01 -1.76497667937953400D-03  3.31601415208172000D-03 -7.70100924073428100D-05  7.43702512021203400D-05
 6 11 -3.78666845138921900D-06  9.92122636955002400D-04  6.65089917855727800D-05 -6.17842595684527300D-05  1.33952517608765000D-05
 6 12 -1.68378025490680500D-04  1.54982773729787400D-04 -2.27285674275252900D-05  1.17510823626018200D-05  4.36157967554710600D-05
 6 13  4.65264935464500300D-03  1.04400938377846900D-04 -6.57512513361118200D-04  4.13554581375808900D-06  8.98062373047995100D-05
 6 14 -1.03695679957891100D-05 -3.51098516514846200D-04  3.07926885889284200D-03 -3.30595566725391400D-04  2.49896039441314900D-04
 6 15  3.51403978261957200D-05 -2.85036437267469400D-04 -2.22881369956178400D-05 -3.10592996940069400D-05 -4.15489889207046900D-05
 6 16  4.66514864694454400D-03  1.04736856338827300D-04 -6.67333899425217500D-04  6.89129635346040700D-06 -8.99467236669063800D-05
 6 17  9.66388187332607900D-06 -3.21262115211704900D-04 -3.09735834562021300D-03  3.61597222074232000D-04  2.49045619583618000D-04
 6 18  3.67786877693043000D-05 -2.85824307352915300D-04  3.03537810383240200D-05 -3.69941842291760800D-05 -4.37225481093629600D-05
 6 19  1.79601210849630000D-04  3.36488726125733800D-04 -1.50753457574621900D-03 -2.24363446654282800D-03 -4.74633433271155500D-06
 6 20  4.67540079470533700D-05 -4.87665217908803600D-06  7.70445437688565800D-05 -7.71809591582517400D-04  8.08928724820053100D-05
 6 21  2.15754574938920200D-06 -1.10615022855338500D-03  1.22591105831263000D-04  1.62219525459159200D-05 -1.78552595502607300D-05
 6 22  1.63330700437381600D-06 -2.91626206637088000D-06 -5.79369764792787200D-07  2.65149843847213600D-06 -6.38020553162910000D-05
 6 23 -1.06943212123305900D-04  1.70745267439451600D-04  2.39377886209011900D-05  1.22129029538562000D-05  3.46455570223181700D-05
 6 24  1.79286675661495800D-04  3.35888325196671800D-04 -1.50396050748880000D-03 -2.23847489089906800D-03 -2.49310420253144200D-06
 6 25 -4.68074135509177400D-05  5.49636687073031800D-06  3.82162049839857200D-05  7.71256848718905600D-04 -9.02203001283315400D-05
 6 26 -3.39616657946366500D-05  1.10308137413895800D-03 -1.23554419391230000D-04  1.60300760746768800D-05 -1.76354868475379800D-05
 6 27  1.60541077281589100D-06  3.79927886515138100D-06 -1.32446405815749700D-06  2.37865480193628900D-06 -6.26941273024863400D-05
 6 28 -1.07161699636218000D-04  1.69855826938676800D-04 -1.28168081016475600D-05  1.62124243349568200D-05  3.77412943992625500D-05
 6 29  1.12833262312473500D-04  2.38657110791119100D-05  1.36338976530440000D-04 -5.16208458839483300D-05 -1.64102017938208200D-06
 6 30  1.07880551548976100D-04  2.67955460035501300D-05  1.30652988409804100D-04  5.08433033865450100D-05 -1.28509039124702800D-05
 6 31  1.26022216639802000D-04 -1.31095945612063000D-04 -1.76286960699806300D-04 -7.83674570125557100D-05  1.81785267585308500D-05
 6 32  1.33177586948609900D-04 -1.30798924012603100D-04 -1.84536393999348000D-04  7.90267029796698600D-05  9.67385195290741500D-07
 7  1  3.69276111587703700D-01  1.85103491729410300D-03 -5.17032894403379700D-03 -8.80426559629272300D-05  4.63495623016177200D-05
 7  2 -5.54087149414341600D-07  1.67837196078168300D-03 -4.08904694764902400D-04 -4.26877896211977100D-05  2.11503020833126900D-04
 7  3  5.79017622647879500D-05 -2.69404783097982400D-04  9.74287473960558800D-05 -4.09653543861837900D-05 -4.81529123148890400D-05
 7  4 -3.62214311057810200D-01 -1.82018866110375000D-03  5.11206681851076400D-03  8.50919855554682000D-05  4.66446769498076500D-05
 7  5 -9.71238257517769500D-06 -1.64688990295998900D-03 -4.42969498940051600D-04  1.36732219046867600D-04 -2.16849390168005200D-04
 7  6 -5.15990245110116500D-05  2.68448414678797100D-04  9.81271440518211600D-05  1.91748830144272900D-05  3.71874665498672900D-05
 7  7 -6.01712986983884800D-01 -3.09072955143928100D-03  9.54888929468762100D-03 -1.23314258314698200D-04 -4.35800135327533900D-05
 7  8  1.17757231946693700D-05  2.97604775739409200D-03 -6.11414646581876300D-04 -9.43830186518009800D-05 -3.03816322125574300D-04
 7  9 -1.76659695066260700D-04  4.80476017191809500D-04  1.63678042181598000D-04  3.15254289769646500D-05  7.73052390199446700D-05
 7 10  6.13052316512580100D-01  3.14003655870835100D-03 -9.64369410571216600D-03  1.26976402159475000D-04 -4.28765525110370600D-05
 7 11 -2.23511130569545700D-06 -2.98038835609750900D-03 -6.63395533673419500D-04  2.37825881873627400D-04  2.95039974176257800D-04
 7 12  1.85406579711161300D-04 -4.80446553887537100D-04  1.57601264629412600D-04 -6.73080596342442000D-05 -9.68066081760011300D-05
 7 13  1.08580769594125300D-03  2.78805604410685800D-05 -7.84388196291311800D-04 -9.07294660294194300D-06  1.40422936689399800D-05
 7 14 -1.12421297230378200D-06  3.50452511401136900D-03  8.52480044235875500D-04 -2.85451277993595500D-04  3.30785979917334100D-05
 7 15  5.35024420884905700D-05 -8.65810400802512800D-05  4.07766344028459800D-04 -5.44347417740258200D-05 -4.11101835918720300D-05
 7 16 -1.17418450456409200D-03 -3.00972570510031300D-05  7.98028320307721700D-04  8.69785021613454100D-06  1.57961588111155300D-05
 7 17 -2.20177635806177200D-06 -3.54010470218501200D-03  8.42960352219464700D-04  9.70138503431983800D-05 -6.00024184156551400D-05
 7 18 -4.07847662595863600D-05  1.00787184675352800D-04  4.10765356032741300D-04 -3.54810098451132200D-05 -4.13290577997961500D-06
 7 19 -2.56979608170285400D-05 -4.87070070063178100D-05  2.85352012264058500D-04  4.18840013235126700D-04 -4.10372106723916000D-05
 7 20 -1.32764960715859500D-07  2.23798467528597600D-06  7.46490665904620100D-04  1.25444694578357800D-04 -5.40413990320119300D-05
 7 21  6.38240056652810100D-05  2.01318393516503600D-04 -2.58428385314334300D-05 -3.65539541782317400D-07  6.70755533813757300D-06
 7 22 -6.34201579622387600D-06 -9.29585589395392300D-06  4.94404130637936400D-07 -1.12911859735169200D-06 -4.00862319140908900D-06
 7 23  2.38598535487034400D-05 -1.98512303573491900D-05  3.18067565442430500D-04 -3.59768211115505700D-05 -2.32647724155507800D-05
 7 24  2.23477403315469700D-05  4.24379821362033300D-05 -2.56858693700572100D-04 -3.76860024656792600D-04  4.09302112234345900D-05
 7 25  1.45895767290647000D-06 -2.38348418068081500D-06 -7.48273936027625100D-04  9.64064553695473400D-05  2.92673679501146500D-05
 7 26 -7.01936073567629300D-05  1.79328299449420000D-04 -1.65410623278919100D-05  5.44970326726314200D-07 -6.60507572728848900D-06
 7 27  6.06010540069327200D-06 -8.85139280038748400D-06  1.51121089631739400D-06  2.22837993908383200D-06 -1.22500323726886900D-05
 7 28 -1.11803299431258700D-05  2.34303623158128200D-05  3.18171913694539000D-04 -3.45977361299223100D-05 -1.30165734557346800D-05
 7 29  3.94955030010161500D-04  7.14121739740928900D-05  3.18801604593065400D-04 -2.23642969111641100D-04  7.80598670708576200D-06
 7 30 -3.97498537114158100D-04 -6.82484386252382900D-05 -3.15198381104847400D-04 -2.31300440528378000D-04  4.31340106206828900D-05
 7 31 -2.27365692503664200D-04  1.90205088462761500D-04  1.84069972284370900D-04  1.61513511797753200D-04 -2.79919098240456600D-05
 7 32  2.25384541088128300D-04 -1.91362326974736100D-04 -1.86793343405564300D-04  1.57043907859585400D-04 -7.59996685621643700D-06
 8  1 -6.13130764487552800D-01 -3.21601875221177200D-03  1.08473047479389700D-02  1.04993470409892500D-04 -4.36480471327997800D-06
 8  2 -4.89668307674014600D-06 -3.20046085121802600D-03 -2.19171877104232000D-03  4.16220152592486000D-04 -2.31549496304621500D-04
 8  3 -2.86985522049222900D-04  5.18535018353622700D-04 -1.53573277845635000D-04  6.41684464612265500D-05  1.14695302786061000D-04
 8  4  6.01702223652293000D-01  3.16642772962423000D-03 -1.07493734703685100D-02 -1.02138448312039700D-04 -5.53605360078490500D-06
 8  5  5.82097060030979200D-06  3.24896278009934200D-03 -2.14241067869120300D-03  6.79328523306430600D-05  2.40206925334506900D-04
 8  6  2.79644647548169100D-04 -5.19851572882666400D-04 -1.64676843828965700D-04 -2.88836229804589100D-05 -9.60669489205720900D-05
 8  7 -3.62479893698696100D-01 -1.94789167428921300D-03  7.11162911626297600D-03 -5.06722075970087000D-05  1.70684635055615600D-05
 8  8  1.02976826505928500D-06  2.10132805566307300D-03 -2.10245786341444400D-03  1.21689246670692900D-04 -1.10761671125076800D-04
 8  9 -2.23019540494244000D-04  3.33781211619113800D-04  9.96639589548220300D-05  1.73218738977040800D-05  6.81285774842773400D-05
 8 10  3.69128985392579400D-01  1.97652515129188200D-03 -7.16985867192149400D-03  5.15849968693274000D-05  1.79532687173323600D-05
 8 11 -4.99238997006732000D-06 -2.04319221638110000D-03 -2.12915182598309600D-03  3.50585075066526200D-04  1.05611402435680700D-04
 8 12  2.26725978773470900D-04 -3.32337381208873600D-04  9.00864534606877100D-05 -3.83717198281687000D-05 -7.83269505417930000D-05
 8 13  4.56054756301630000D-03  1.16834338426502100D-04 -3.18655870777160400D-03  1.66563790945023000D-06  6.03545710094193000D-05
 8 14 -7.01813755098748400D-06 -9.48093088621980000D-04  3.41084475733910000D-03 -3.35719714353039200D-04  1.90996720596147500D-04
 8 15  1.88234832837133200D-04 -3.79231553433106700D-04 -1.07223982615783100D-04 -2.37182272777226800D-05 -6.92881716559170000D-05
 8 16 -4.53578147199026600D-03 -1.16245189795258300D-04  3.18253055970078800D-03 -2.67082991338890900D-06  5.99748366359294500D-05
 8 17 -6.43346401033625500D-06  8.02566478120564500D-04  3.41381656941999500D-03 -4.23156517137705800D-04 -1.84217797022860200D-04
 8 18 -1.91537226229159400D-04  3.75755023251694400D-04 -9.60609933569972600D-05  4.60651270911598600D-05  7.95969045571143900D-05
 8 19 -9.62573058509525500D-05 -1.82624935090764400D-04  1.08743892562339300D-03  1.59651845565186700D-03  9.94535233841642700D-06
 8 20  2.87400928543883200D-06 -8.11661693395723300D-07 -1.89505666691542500D-04  4.42825297219709600D-04 -3.84766237128311700D-05
 8 21 -2.96319103494388600D-05  7.63655751583179100D-04 -8.33730708711958200D-05 -1.78795752793023900D-06  2.68325544971065800D-05
 8 22 -2.50445969693591900D-05  1.38730841208119300D-06 -1.60871036144526600D-06 -6.60168620607622200D-06  1.84141655515446900D-05
 8 23  6.88638405932697100D-05 -8.72780061448970500D-05 -7.97702071293611500D-05  2.05101961274976800D-06 -1.59941020933469100D-05
 8 24  9.71171520379872200D-05  1.84229586408193500D-04 -1.09452073550663800D-03 -1.60726831475325000D-03 -1.04363491004214800D-05
 8 25  2.43682756917964300D-06  2.33682094418622000D-07  1.81760175924332800D-04  4.50063908171048000D-04 -6.12868915705634000D-05
 8 26  3.62327542403597400D-06  7.69169783746114400D-04 -8.73596531834769000D-05  1.73708631914816300D-06 -2.67363970090521000D-05
 8 27  2.49993106897523000D-05  3.16003356732657400D-06  1.09510152512819900D-06  6.92060440157197700D-06 -1.43100502040504000D-05
 8 28 -7.20797836201550400D-05  8.63898338242134700D-05 -7.82752979838229200D-05  1.54803864882494300D-05  2.52971002261638700D-05
 8 29  2.64728047580548000D-04  5.43654949340503100D-04  2.03043190561222800D-04 -8.67435563924721700D-05 -1.35807945855092300D-06
 8 30 -2.65291349863650400D-04 -5.35057780498721000D-04 -2.02143680118678700D-04 -9.18338702990384600D-05  2.13861451835018900D-05
 8 31  4.20535831442676200D-04  5.04670146455313100D-04 -3.26102412454778300D-04 -1.89425918406834200D-04  3.85992746234520700D-05
 8 32 -4.18831147491058500D-04 -5.13619583472024300D-04  3.28526094935983100D-04 -1.81181461636220000D-04  2.80705943138636100D-06
 9  1  6.54766432890480600D-04 -3.77378895561540300D-02 -7.94784545417755200D-03  1.97760460997658100D-02 -7.63369687721302800D-03
 9  2 -1.83788375392482300D-04 -7.02555868972362000D-03 -7.32234215532056400D-03  1.20363641349393000D-03  2.91195348605558700D-04
 9  3 -1.70995406409642900D-03  1.41875871549091800D-03  5.38292401445699400D-03 -5.42785932839255300D-04  1.19304672818779200D-04
 9  4  6.71484708125379500D-04 -3.85183817046963900D-02 -7.09504707455926200D-03  2.00156463815108800D-02  8.60560376998024600D-03
 9  5 -2.02026243635756200D-03 -7.53958871313298300D-03  7.82544663072235600D-03 -4.68106412076468800D-04  5.96133172558841800D-04
 9  6 -1.95630663151756400D-03  1.36017345895866300D-03 -5.65631242211252200D-03  6.81338267255982300D-04  7.43053482019258400D-04
 9  7  6.54921912308733000D-04 -3.77321594398377500D-02 -7.95782219945592000D-03 -1.95230494345450100D-02 -8.00389421947892200D-03
 9  8  1.97529353419813000D-03  7.24967257984208600D-03 -7.18511670202791000D-03  4.19225965084906000D-04  5.82745396122875800D-04
 9  9 -1.88762539320915700D-03  1.30487999708627400D-03 -5.28648556313208000D-03  6.52363740201986500D-04  7.17460673561042900D-04
 9 10  6.71533352323270600D-04 -3.85313559607911800D-02 -7.08389430241292800D-03 -2.02826832389964600D-02  8.22423402761469200D-03
 9 11  1.94184491257427400D-04  7.29994576722806400D-03  7.97144686058354700D-03 -1.28446215486169700D-03  2.90746230101971900D-04
 9 12 -1.76911316579489300D-03  1.47836693569286900D-03  5.75511903461693200D-03 -5.65518583121190800D-04  1.03773267045880800D-04
 9 13  8.79143264085605400D-03 -1.61034485944516300D-01 -8.18884109830860000D-02  1.81340283200852800D-03 -1.14768817882844300D-01
 9 14  1.29694908022732300D-02 -2.56926635243257500D-04  1.61184428309640600D-02 -1.81445862613725100D-03  1.29293393297376600D-02
 9 15 -2.56404254742298300D-02  1.27110861444922300D-02  7.07614659550686100D-04 -6.31925874474223600D-05  5.06696461950107400D-03
 9 16  9.12742836683683200D-03 -1.66395496969501000D-01 -8.45016865524171600D-02 -1.86877033417306400D-03  1.19105043111095600D-01
 9 17 -1.30867292392388600D-02  2.70558682968012900D-04 -1.71381218850883400D-02  1.89123789815459100D-03  1.34608634851787600D-02
 9 18 -2.66036860580395000D-02  1.31428225728607300D-02  7.31161508805549200D-04 -7.05278563716747700D-05  5.10749713032676100D-03
 9 19  7.26128431412167800D-03 -2.85155798229306500D-01 -2.74580576952494500D-01 -2.54764337176796600D-03  1.49635347630633200D-03
 9 20 -9.50403513601775600D-02  1.04458140554260700D-02  4.07815712046580000D-04 -2.58872263428047400D-02  2.84281614234242900D-03
 9 21 -7.85533911425671000D-05  5.01118088366334100D-03 -5.52195642068707300D-04  5.94423944678481600D-03 -1.20385255027608400D-02
 9 22  6.09428605597615200D-03  3.29926200930604900D-04 -1.33349700850114100D-05  2.32968622688676800D-03 -1.69696488759302800D-03
 9 23  4.05246439697011000D-03 -2.35549950937706900D-03 -1.09408320279956800D-04 -3.38609971549545900D-05 -8.24750507337948100D-04
 9 24  6.98125157655397100D-03 -2.75493813048872800D-01 -2.64967048834449600D-01 -2.30203302587500900D-03 -1.45426740765810600D-03
 9 25  9.17803298578291600D-02 -1.03694520415111600D-02 -3.94903803632667000D-04  2.49223161042071600D-02 -2.81797571763201100D-03
 9 26  7.73064713321130600D-05 -4.88381594379484100D-03  5.50765190644152300D-04  5.74277644270710200D-03 -1.16138721771025800D-02
 9 27  5.87109573439555500D-03  3.20016996360745200D-04 -1.43175606517645600D-05  2.31094263630984700D-03 -1.63402758803585800D-03
 9 28  3.89673218421040200D-03 -2.26270459617451900D-03 -1.06149689572716600D-04 -3.21128711527012800D-05 -8.13987190117327700D-04
 9 29 -8.56182174728318900D-03  4.53078369463517200D-03 -2.23223349547247000D-03  1.09155570101057800D-03  5.98351887636298500D-08
 9 30 -8.88111240391519300D-03  4.69199865912178800D-03 -2.31035028075091300D-03 -1.17139838970604200D-03  2.58740633479357200D-04
 9 31 -8.56600202919695000D-03  4.53201701715741400D-03  2.19835917878257600D-03  1.13410488731842400D-03 -2.43296130888328200D-04
 9 32 -8.87852032488612900D-03  4.68956982177589100D-03  2.34596642807289500D-03 -1.12527890032626100D-03  2.34770102383816200D-06
10  1 -5.61540987415672100D-04  2.39659764999375700D-02 -2.34750598603075000D-02 -1.54336413747040900D-02  1.74639411810910800D-02
10  2 -1.14998397615825400D-03  7.25980798654581400D-03  1.85108486832680600D-02 -2.48618611836548600D-03  1.85746779279075400D-04
10  3  1.61425287290008100D-03 -1.79999965217909200D-03 -1.09477419491629600D-02  1.12081792150628800D-03  1.48185872390509700D-04
10  4  5.38390582742988800D-04 -2.26316116443986900D-02  2.37368884863793400D-02  1.41904284428968200D-02  1.74725261205116700D-02
10  5 -2.70851723830398000D-03 -7.58474480212357300D-03  1.81124077173422000D-02 -1.60942800366836400D-03  3.87425985506666800D-04
10  6 -1.91337653889845600D-03  1.52595055339184700D-03 -1.06688623613233900D-02  1.26868317396118900D-03  1.03437661424589000D-03
10  7 -5.60415032623079500D-04  2.39553193465444600D-02 -2.34839158898165800D-02  1.48707459004476100D-02  1.77510612062703200D-02
10  8 -2.81509142408741500D-03 -7.84135681180960500D-03  1.83696849689504700D-02 -1.65684743940402800D-03 -4.10750144748805400D-04
10  9  1.97783373487763700D-03 -1.56708359012887000D-03  1.08552036882465900D-02 -1.31209532551653600D-03 -1.07403345968652300D-03
10 10  5.37726749972424000D-04 -2.26443428043502100D-02  2.37554124006701600D-02 -1.47374241849167700D-02  1.71993789607726500D-02
10 11 -1.11890669024317900D-03  7.02401841468041700D-03  1.82581377631235400D-02 -2.41330731201301800D-03 -1.90261410711934000D-04
10 12 -1.56055312319568100D-03  1.75081453390764000D-03  1.07600653298915100D-02 -1.08163108990206900D-03 -1.66106225674207200D-04
10 13 -1.00035093358980900D-02  1.59485037975588500D-01  7.65541818357168600D-02 -2.00373244366778900D-03  1.26809670627115400D-01
10 14 -1.43257197283958300D-02  4.63099033937508000D-04 -2.91804546813842900D-02  3.28215384088096000D-03 -1.57138440557729100D-02
10 15  2.77357493834634900D-02 -1.20219053276905500D-02 -7.72301902161893800D-04  2.86130044495933400D-04 -5.24801593084219800D-03
10 16  9.69636392229954000D-03 -1.53906459187848700D-01 -7.37152192674459500D-02 -1.93013980980719000D-03  1.22898833392241500D-01
10 17 -1.35084938004821500D-02  4.52443630565368600D-04 -2.86226509976278400D-02  3.16235409442520000D-03  1.52663896943756500D-02
10 18 -2.68736723980485400D-02  1.16072827036728200D-02  7.44840793447151900D-04 -2.81615160879194900D-04  4.94269189488985400D-03
10 19  8.04523764173403900D-03 -2.78253683411140200D-01 -2.77845818909021000D-01 -7.34772462228353600D-03  1.45405708663129200D-03
10 20 -9.23567468593808500D-02  1.01507841157774300D-02  4.41462210958333600D-04 -2.80444515075815400D-02  3.07736099448444900D-03
10 21 -5.59351877246983100D-05  3.56454729696510200D-03 -3.97032830337091000D-04  5.74452138829278600D-03 -1.17766151486690900D-02
10 22  6.03209376037629300D-03  3.22455097410911500D-04 -4.17162624874234100D-06  2.28894455589644900D-03 -1.69443664606308000D-03
10 23  4.11993279316377500D-03 -2.42549614710062900D-03 -1.11355768852921000D-04 -3.82655800450773500D-05 -8.45310103724643200D-04
10 24 -8.28693554599271500D-03  2.87819780155829900D-01  2.87081718767856100D-01  7.43806006339627500D-03  1.51312991664940200D-03
10 25 -9.54906488670386500D-02  1.07887477358921100D-02  4.58224272092831900D-04 -2.89149696960361600D-02  3.27128937788605600D-03
10 26 -5.87998437846490900D-05  3.73216574717272000D-03 -4.16939064986865300D-04 -5.94183654907514200D-03  1.21641240131075000D-02
10 27 -6.22228746403284200D-03 -3.34913126505019900D-04  5.79209680967583500D-06 -2.42952172583035200D-03  1.74730771712506400D-03
10 28 -4.24452901784534600D-03  2.49722130072030800D-03  1.15377535678135000D-04  3.91079475366092600D-05  8.88510032833281800D-04
10 29  9.47985839161360200D-03 -4.47184442861267000D-03  3.35229415523531700D-03 -1.02556236678567700D-03 -6.84595709161798500D-05
10 30 -9.18078953946997400D-03  4.31667812217202900D-03 -3.24193897471337900D-03 -1.04929867050058300D-03  2.95699643376484000D-04
10 31  9.48396953416426200D-03 -4.47322786614375000D-03 -3.31987283654332300D-03 -1.08863890685219800D-03  2.97909827033867600D-04
10 32 -9.17811008772355200D-03  4.31352757953801700D-03  3.27321469699770000D-03 -9.85214072154283500D-04 -6.29970094386487400D-05
11  1  1.32810921262307100D-02 -1.87958145312574500D-01 -1.15445990888894600D-01  4.08116868985634200D-02  6.18396551618487600D-02
11  2 -9.13006101677211200D-03  2.09625081709335500D-02  1.80902916705721600D-02 -3.14431163113387800D-03 -1.12848622816668300D-03
11  3 -7.13141531782983000D-03  8.25990154599649100D-03  1.94179700605079000D-03  3.71762594385641900D-04  1.91690302197488700D-03
11  4  1.32772466859133500D-02 -1.87928776414979300D-01 -1.15452807046902200D-01  4.27209225057567600D-02 -6.10526457198412500D-02
11  5  4.57174850132364500D-03  2.15369004513218700D-02 -1.76831237269569900D-02  8.40316441986853600D-04 -1.02895257211686000D-03
11  6 -7.19487955253048600D-03  8.22383212464736600D-03 -1.58668700534058500D-03  7.62282967409185800D-04  2.11817527731955800D-03
11  7  1.32865313681755100D-02 -1.88050465685759300D-01 -1.15522056422937100D-01 -4.27436247148445200D-02  6.11054090077969600D-02
11  8 -4.54597804086023400D-03 -2.15329987575338500D-02  1.76947387848170600D-02 -8.11349977838005400D-04 -1.02515775818387900D-03
11  9 -7.20121851337871700D-03  8.22637627156252800D-03 -1.58443285335619300D-03  7.75674147729628200D-04  2.11701398078265600D-03
11 10  1.32900781862690600D-02 -1.88070227047757100D-01 -1.15523473123559800D-01 -4.08160553020788700D-02 -6.18873010620632200D-02
11 11  9.16699238641146400D-03 -2.09752966247631600D-02 -1.80916785934007700D-02  3.17851203261237000D-03 -1.12061206254533900D-03
11 12 -7.14161050443998600D-03  8.26222256698536100D-03  1.94618177344764700D-03  3.84440933111941000D-04  1.92139868268286900D-03
11 13  3.27102614179731700D-03 -1.06279540697810900D-01 -7.01013699831619000D-02 -1.97099583130608000D-03  1.24776934830601700D-01
11 14 -1.40704064616373300D-02  2.51171192710004800D-05 -1.83301662553596300D-03  1.87893758695826400D-04 -1.40094132197653200D-02
11 15  5.69104713380378700D-03  8.31836608596151500D-03 -2.03277459013358900D-04  1.41827991048751800D-03  3.64123740605352700D-04
11 16  3.27120584595766600D-03 -1.06260814582087000D-01 -7.00869819003433800D-02  2.01549160586861300D-03 -1.24795001445771000D-01
11 17  1.37478669459957600D-02 -2.74602141728651900D-05  1.83573738778093600D-03 -2.20507781175802000D-04 -1.40047385512769100D-02
11 18  5.68728411246965100D-03  8.31745443880731900D-03 -1.90350163828916600D-04  1.41674024378645900D-03  3.66723603983230400D-04
11 19 -2.28987101905096500D-03  9.56386724627566300D-02  1.16134408930125100D-01  2.45758365938116000D-02 -3.95411723355533900D-05
11 20  3.01821577628654800D-03 -3.24787256729763300D-04 -4.00903132289561200D-05  2.92482754386175200D-03 -3.09713209861851500D-04
11 21 -1.70239016225206700D-04  1.08013602575470500D-02 -1.18789947646148600D-03 -7.48724985300038700D-04  1.82683388099698300D-03
11 22 -1.07810889569697400D-03 -4.80147208849597200D-05 -1.74805512732635900D-05 -3.72577813060506300D-04  2.20486772257536100D-03
11 23 -1.68452242435569700D-03 -5.20345298219662700D-04  5.37520126642235200D-05 -1.75181720361837200D-04  1.51278034734437900D-04
11 24 -2.29016519290804600D-03  9.56800882421221200D-02  1.16181355600833800D-01  2.45771140644495700D-02  4.89187893948435500D-05
11 25 -3.01615187154116600D-03  3.46650766252713600D-04  4.89878201452855700D-05 -2.92551376834000700D-03  3.41306316336562800D-04
11 26  1.70290363713533900D-04 -1.07970892877059700D-02  1.21939842029909600D-03 -7.48369810868740200D-04  1.82390029385624100D-03
11 27 -1.07553048298743300D-03 -5.00248938851143300D-05 -1.70400966120048000D-05 -3.84271865303746500D-04  2.20410801921795000D-03
11 28 -1.68401520621246800D-03 -5.20092813005503000D-04  5.04002202771212300D-05 -1.74783862701704300D-04  1.47000096243723500D-04
11 29 -5.10847163468192000D-02 -9.22781335448212600D-03 -7.63224071702808300D-03  4.58608816624720600D-03 -9.95746063435094900D-05
11 30 -5.11020629615628500D-02 -9.22907708614848300D-03 -7.48883526806469800D-03 -4.73066251720149700D-03  9.39572313796971500D-04
11 31 -5.10736337036252600D-02 -9.22572085170665300D-03  7.48478102304670100D-03  4.72733672527615900D-03 -9.29584985372872200D-04
11 32 -5.10661662450324300D-02 -9.22937263842574900D-03  7.62916721437423600D-03 -4.58083855424775300D-03  1.07339141726380900D-04
12  1  1.56661426479410900D-02 -2.15719879364517900D-01 -1.37139527076058600D-01 -1.84605065156888400D-03  7.52621026376767400D-02
12  2 -8.34344915585745800D-03  1.26640699660862900D-02  2.60838341203185800D-02 -3.60803207720688100D-03  6.62959998531511800D-03
12  3 -1.42990116271456500D-02  7.66941164183058900D-03  2.08483480282353100D-03 -1.55549203310213400D-04  2.77145341291247300D-03
12  4  1.56584958617037700D-02 -2.15658719345767400D-01 -1.37098106176118100D-01  4.81664861579243300D-04 -7.53171519968920700D-02
12  5  8.44763832336514100D-03  1.34749219007995900D-02 -2.58233451781373400D-02  2.17600029856638300D-03  6.72913841611461600D-03
12  6 -1.43611243827925500D-02  7.63198596667787700D-03 -1.29690651123918800D-03  2.17992597129751700D-04  2.96126861741599900D-03
12  7 -1.56526454916847100D-02  2.15573196962359300D-01  1.37031139406190400D-01  4.76263477295674300D-04 -7.53062629923347700D-02
12  8  8.42262559632358900D-03  1.34370742115489500D-02 -2.58211445944035700D-02  2.17431156569741100D-03 -6.73245131054146600D-03
12  9  1.43595197065158700D-02 -7.62706839597445200D-03  1.29707886852646700D-03 -2.22314918815309400D-04 -2.96108093673381200D-03
12 10 -1.56602545620010300D-02  2.15621643494132000D-01  1.37071921776592700D-01 -1.86765462519294300D-03  7.52534913175868800D-02
12 11 -8.36503876265050500D-03  1.26581166878344100D-02  2.60550945172366500D-02 -3.61261942855170300D-03 -6.63358544737172300D-03
12 12  1.42981846333463800D-02 -7.66459918597465300D-03 -2.08257551319341900D-03  1.51157101188535600D-04 -2.77085212746119500D-03
12 13  1.89065960689434900D-06 -8.43139604852539400D-05 -3.90153262239170600D-05 -1.09661237205193300D-01 -9.76898159667749000D-04
12 14  6.01836937312544500D-03 -2.37941456386841900D-02 -2.35706048819773800D-04  1.30774541519855900D-03 -5.61124905907412900D-04
12 15  3.40982712177191300D-04  2.20142193730176400D-04  2.01393247435333200D-02 -2.25063320026835600D-03 -1.12910143132175300D-03
12 16 -5.50479279022837700D-07  3.18454218416587900D-05  1.12723960957846300D-05 -1.09637191469411600D-01 -1.03329584791469900D-03
12 17  6.02422949103558800D-03 -2.37720622682683300D-02 -2.17707196094680000D-04  1.30659968037246200D-03  5.47074945717623100D-04
12 18 -3.34725908565953700D-04 -2.12349037151688300D-04 -2.01433101853570100D-02  2.20571282857451100D-03  1.12851391661100800D-03
12 19 -6.80809116634292700D-07 -1.17443964753541900D-05 -6.57167479308768700D-06  1.17347961127829500D-06 -2.54914426804301500D-02
12 20 -2.45865131634300000D-04  1.40138343256354300D-03 -1.50798597173940200D-02 -1.43314832548442200D-04  8.28484106833315200D-04
12 21  9.84068826599974700D-04  1.00974563335526400D-05 -5.42366754048726100D-05  8.61493740734283100D-05 -5.32003944293996400D-05
12 22 -3.29489796440628800D-05 -3.15083619938021900D-03  3.44178883094998500D-04  1.76675029180358300D-04  1.29862006626419900D-04
12 23 -7.98900359653465100D-05 -4.99719706612084400D-05 -4.79908081641593400D-03  5.20057218409215500D-04  2.68717795449460600D-04
12 24 -1.17269245183593200D-06  6.17768698177238400D-05  7.85721314369012300D-05  1.44118701509699300D-05 -2.54884864785649800D-02
12 25 -2.37892576206097500D-04  1.40003146807172400D-03 -1.50758782877953500D-02 -1.40422099775575900D-04  8.28273529019351100D-04
12 26  9.83701953386880100D-04  4.71683671473785300D-06 -5.35170600035713600D-05 -8.64240915848633500D-05  5.30740946439991700D-05
12 27  3.33499969409286200D-05  3.14922698473248200D-03 -3.52566482936265600D-04 -1.76672514863210500D-04 -1.30067018331050500D-04
12 28  7.70874620188057000D-05  5.29795563122440700D-05  4.79597437985772200D-03 -5.41035428939503000D-04 -2.68454431526727000D-04
12 29  8.36933976984128900D-02  1.01473025247776700D-02  1.06399121129094000D-02 -7.79589174407542600D-03  2.95056290616827700D-04
12 30  8.37265368291967800D-02  1.01580386838290700D-02  1.03961587313085800D-02  7.99627844827495800D-03 -1.46629085165981500D-03
12 31 -8.37732821883378100D-02 -1.01671497618570500D-02  1.04026762670073300D-02  8.00047296902384700D-03 -1.45120489947892000D-03
12 32 -8.37497469397434500D-02 -1.01638420473985100D-02  1.06464455779022400D-02 -7.79636913227947400D-03  3.08664173254577900D-04
13  1  8.95492812555937100D-03 -1.32546134967393800D-01 -1.45018886602452700D-01  6.15938415540947300D-02 -8.60387483588163900D-02
13  2  6.37479084099552100D-03  5.27153687078280800D-02 -1.46390113680057200D-03 -2.64440987282121500D-03 -1.70366412796742400D-02
13  3  1.06084875831864300D-02  6.42815369648778800D-03  8.65070811839981800D-03  4.70018168575290100D-04 -1.02112978443312400D-03
13  4 -8.96151708236380500D-03  1.32674122436461500D-01  1.45109693115199300D-01 -5.87914627338002500D-02 -8.71183606971013500D-02
13  5  1.29253457041067900D-02 -5.26459851033366600D-02 -2.45760855447967600D-03  3.08273291056477900D-03  1.65388379051861700D-02
13  6 -1.02982506826751800D-02 -6.24058722251091700D-03  9.31686259759262000D-03 -2.45844720575065200D-03  6.78182607297969200D-06
13  7  8.96239020977614300D-03 -1.32683180162543600D-01 -1.45140473600969600D-01 -5.88271532124950400D-02 -8.71509575882027900D-02
13  8  1.29903059013649500D-02 -5.26496119254134500D-02 -2.45454841628882200D-03  3.14430720112331900D-03 -1.65385228767651600D-02
13  9  1.02985736421649200D-02  6.23994923460034200D-03 -9.31821420589134400D-03  2.48457188931898500D-03 -1.18327027524337200D-05
13 10 -8.95830506286345200D-03  1.32602591363522300D-01  1.45095069956989800D-01  6.15911365135820100D-02 -8.60702715443566900D-02
13 11  6.32328417553800300D-03  5.27183679796528100D-02 -1.47500435048847800D-03 -2.70624844199247000D-03  1.70320887303053900D-02
13 12 -1.06055206828452700D-02 -6.42656804746010300D-03 -8.66116020934795000D-03 -4.94686239219392300D-04  1.01550120161371900D-03
13 13  4.47031625178337600D-03 -2.06748598549855500D-01 -1.15601503976897900D-01 -2.14003524314948800D-03  1.36202416350063700D-01
13 14 -1.54110799049562800D-02 -2.26326979725287500D-04  1.49863440248387900D-02 -1.71184433822500700D-03 -2.07498450217809100D-02
13 15  1.08315014434391500D-02  9.91834357834195700D-03 -3.62407370448968800D-04  1.95381490323656800D-03 -8.87189929486018500D-05
13 16 -4.47027517327418400D-03  2.06732482501086100D-01  1.15606000049152300D-01 -2.17943213819256100D-03  1.36266797270675300D-01
13 17 -1.49615087019902100D-02 -2.21468382737459700D-04  1.49864240629150700D-02 -1.63004424971132600D-03  2.07482896013829100D-02
13 18 -1.08297999895108300D-02 -9.91848961187213400D-03  3.55981710594744600D-04 -1.95349221760384600D-03  8.69478542083470200D-05
13 19  7.27980721021484800D-04 -1.32588747877864700D-01 -1.67433636052033800D-01 -3.22485936563445400D-02 -8.97982465755333500D-04
13 20  5.67181767328696500D-02 -6.22940835789098600D-03 -4.91336676184202900D-04  3.08404474799552400D-02 -3.38715708635016000D-03
13 21  1.66350778220555500D-04 -1.06521790698923400D-02  1.17181852942787700D-03 -1.21087163149736700D-03  1.63491608618301500D-03
13 22 -4.24044454685710100D-04 -4.71026915739830100D-05  5.27783113069869900D-05 -2.64077427200333500D-04 -4.40993928619827100D-03
13 23  5.16340767682573600D-03 -7.53468390627377400D-04 -1.49974202972681500D-04  2.40354883939144500D-04 -7.53114272908396000D-04
13 24 -7.26681658107083400D-04  1.32605140965140000D-01  1.67443697205896800D-01  3.22448905246928000D-02 -8.90583566132708100D-04
13 25  5.66997539001567200D-02 -6.41272282489759200D-03 -4.83969203969825400D-04  3.08303937140193500D-02 -3.48685111974452100D-03
13 26  1.67709950917993300D-04 -1.06466506463708200D-02  1.20233862609743900D-03  1.21158292015093900D-03 -1.63513937094412200D-03
13 27  4.23556450793263500D-04  4.57400795208482300D-05 -5.27053479521524900D-05  2.71245206873086600D-04  4.40945852924924800D-03
13 28 -5.15733672715091200D-03  7.47878197901698500D-04  1.47975117373676900D-04 -2.40519755713919700D-04  7.80169683924276500D-04
13 29 -6.47455394445480800D-02 -2.19867561343567400D-02 -8.35030659734256400D-03  6.60995595273061400D-04  3.80297979642792900D-04
13 30  6.47031208804108200D-02  2.19805567668866600D-02  8.32308101618364400D-03  8.14417411448247300D-04 -5.44749247114402600D-04
13 31 -6.46737320698456400D-02 -2.19794482780316900D-02  8.31931565772342700D-03  8.12702794147270600D-04 -5.34504661365761400D-04
13 32  6.47544235026887200D-02  2.19915778183686600D-02 -8.35013246931926400D-03  6.58698013734175600D-04  3.72025929527526200D-04
14  1  8.57133145806306300D-03 -1.61528316542802800D-01 -1.84457161034619600D-01  1.37584576559726300D-02 -1.12326114244142200D-01
14  2  1.19030327141860300D-02  5.74290271652725400D-02 -2.73580877355103600D-02  1.70970990320787800D-05 -8.10248741948743100D-03
14  3  2.94632897061213600D-03  5.15615844887522600D-03  6.10969551233958300D-03  1.23280406775390600D-04 -3.54987686013233700D-05
14  4 -8.57710672624311000D-03  1.61643404771928800D-01  1.84542322749839300D-01 -1.00414485246832300D-02 -1.12403753287523400D-01
14  5  1.31360131848768500D-02 -5.65025779521478200D-02 -2.84197405491810300D-02  6.19987826831319600D-03  7.74910412434657500D-03
14  6 -2.72151808270373000D-03 -5.02758604164288000D-03  6.31274564217270600D-03 -1.49782959737937800D-03 -6.49839585514368600D-04
14  7 -8.57283538441558000D-03  1.61596533144848000D-01  1.84504865001793900D-01  1.00780004674521900D-02  1.12382706975831800D-01
14  8 -1.31980029461601300D-02  5.64761022983664400D-02  2.84149082412005900D-02 -6.27414512919964900D-03  7.74104382397476700D-03
14  9 -2.71949768504919900D-03 -5.02154613892541400D-03  6.31313557553569400D-03 -1.52697735050918600D-03 -6.63494610809914900D-04
14 10  8.56832147088545200D-03 -1.61487807503499600D-01 -1.84423096257184700D-01 -1.37434277307661100D-02  1.12307984356116500D-01
14 11 -1.18497439087941200D-02 -5.73943998682317100D-02  2.73730202169350700D-02  5.55956371960545100D-05 -8.09326274286559100D-03
14 12  2.93750981608039200D-03  5.15575292678508100D-03  6.11704886230700900D-03  1.52355607946763400D-04 -4.77132511285374300D-05
14 13  9.27551494980442000D-07 -1.15823894324371100D-04 -4.52496389344119300D-05 -2.16123101328490700D-01 -2.03219338369432300D-03
14 14  1.18723741855557500D-02 -8.13055912767505000D-03 -6.61533391576523600D-05  4.44830553428626700D-04 -3.36723142548933800D-04
14 15  2.04906769035464700D-04  1.31816373513512300D-04  1.19345102287623000D-02 -1.34565480834410800D-03 -6.69437857406270500D-04
14 16  5.88421123942332000D-07 -9.99859459064085700D-05 -4.16436177783071700D-05  2.16106481512569200D-01  2.04161785338692900D-03
14 17 -1.18758257236718600D-02  8.13510328870946000D-03  6.53294054930160100D-05 -4.47076311325244700D-04 -3.23626926050239900D-04
14 18  1.98980815693198100D-04  1.24646110357075100D-04  1.19377267171310800D-02 -1.29560770602045700D-03 -6.68855826571217100D-04
14 19  9.40518810623211500D-07  3.89591550695582400D-05  4.39897736120209100D-05  4.80023804737499700D-06  9.64597129868245700D-02
14 20  9.02011333665767200D-04 -5.29988171913910200D-03  6.02754246488074600D-02  5.61934485247816000D-04 -3.31135917019508400D-03
14 21 -1.54085889185926500D-03 -1.46591736712153400D-05  8.49528215961568400D-05 -1.78585201230968300D-04  1.08950971258189700D-04
14 22  6.96342299726957700D-05  6.57726814781167100D-03 -7.18135744590029200D-04 -3.68438276564344800D-04 -2.41685992356071300D-04
14 23  1.47130502643804400D-04  9.45554897123404300D-05  8.97169845871714300D-03 -9.75278639703405300D-04 -5.02157076069542300D-04
14 24  6.16979943373612500D-07  6.78015764064475100D-05  8.36738049172516500D-05  1.44810808991111100D-05 -9.64354877549399200D-02
14 25 -8.73860872767007200D-04  5.29378673727472000D-03 -6.02625383942256400D-02 -5.46979190642200400D-04  3.30829618164027900D-03
14 26  1.54159368752390900D-03  1.25040477985643000D-05 -8.42530652739661600D-05 -1.78828171182939900D-04  1.07110243608500400D-04
14 27  7.17179275744191500D-05  6.57320545820148300D-03 -7.36305325683325900D-04 -3.67965756457651400D-04 -2.42899594411775300D-04
14 28  1.45037165127287900D-04  9.78624292844884600D-05  8.96781189155594300D-03 -1.00853928352601500D-03 -5.02051817843306500D-04
14 29  1.22360412375549800D-01  3.19326085409948600D-02  1.29413560395527300D-02 -5.01627621075864400D-03 -1.42761510598423900D-04
14 30 -1.22276678183353200D-01 -3.19250576556842700D-02 -1.27735528584696100D-02 -5.25005255638644600D-03  1.28753033363735400D-03
14 31 -1.22313691443110000D-01 -3.19432941665759000D-02  1.27768707615860900D-02  5.25287335685879200D-03 -1.26867931463067600D-03
14 32  1.22427068538339600D-01  3.19566935354131900D-02 -1.29468817837740400D-02  5.01424153758236800D-03  1.26597353019096200D-04
15  1  6.29144901639168000D-03 -7.94312125486936900D-02 -7.33894275585359200D-02 -1.65580126498162400D-01  1.01602599353152000D-01
15  2 -2.59992286474383900D-03 -4.25209389332149300D-02  3.21100861451651500D-02 -1.34999600364351600D-03  1.32459287608172200D-02
15  3 -1.23745651425127700D-02 -8.71363618304419600D-04 -3.07051192263853000D-03 -5.13125619463544600D-04  1.67449359890594900D-03
15  4  6.28014184094791000D-03 -7.92707548451752800D-02 -7.31357381659080400D-02 -1.62312233684453100D-01 -1.04899591842018800D-01
15  5  2.04279839546143000D-02 -4.15817396433022500D-02 -3.29338213708373900D-02  5.90629508471674900D-03  1.30667261547159800D-02
15  6 -1.22606391083057300D-02 -8.06087046410236600D-04  3.80651331019345200D-03 -1.27505632089111200D-03  1.28990998978371100D-03
15  7  6.28171534558934600D-03 -7.92853050005512500D-02 -7.31950387988934300D-02  1.62303309249543100D-01  1.04945828045365000D-01
15  8 -2.06425412579162200D-02  4.15724103863958200D-02  3.29485512871253200D-02 -5.97605053522768400D-03  1.30682999814123400D-02
15  9 -1.22659372060958600D-02 -8.02362775316529600D-04  3.80301361163942600D-03 -1.29804649403076600D-03  1.28932746771299800D-03
15 10  6.29119208629141300D-03 -7.94344954834448200D-02 -7.33631681537053700D-02  1.65585465013591500D-01 -1.01713129468233000D-01
15 11  2.39768956399633200D-03  4.25344208699379400D-02 -3.21131056735268900D-02  1.28125463969126200D-03  1.32476257385650600D-02
15 12 -1.23761813555888000D-02 -8.71444382976230500D-04 -3.07618907165178200D-03 -5.35624471894734000D-04  1.67666572588728700D-03
15 13 -9.11641931881679800D-04  1.91719360331699800D-01  1.56245360136136800D-01  1.02392323365333000D-03 -7.25621563389290700D-02
15 14  8.19245204630229100D-03  7.45125134173821100D-04 -4.82039592755246400D-02  5.43206013778815800D-03  5.57002298560541000D-03
15 15 -1.00558900263635500D-04 -5.46946408534179300D-03  2.80967666826299200D-05 -6.96309967798895600D-04 -7.20574303116174700D-04
15 16 -9.10547482993212700D-04  1.91742326750243300D-01  1.56255569273231400D-01 -1.05509529128168800D-03  7.25954212323609400D-02
15 17 -8.00170223671813400D-03 -7.55776118843957000D-04  4.82070912308394200D-02 -5.31576847433699400D-03  5.56977561943430500D-03
15 18 -9.61021692396720100D-05 -5.47367345019448700D-03  2.91023780443091300D-05 -6.96678182051641400D-04 -7.02773594178682300D-04
15 19 -1.20775761574003900D-03 -9.84485559458250800D-02 -1.26357989863459100D-01 -2.56119707763840200D-02 -1.50888726570966100D-03
15 20  9.89225089831218000D-02 -1.08834103602946700D-02 -8.00825183166350300D-04  5.27601519577668600D-02 -5.80286027044083800D-03
15 21  9.44976709235291100D-05 -6.12784080599922100D-03  6.72701920591372800D-04 -2.58475314133214400D-03  4.58732846554378900D-03
15 22 -2.00257532421173700D-03 -1.23887486262387200D-04  4.50326463339503000D-05 -8.47024936948839500D-04 -4.34394802357761800D-03
15 23  3.92994917333009300D-03  4.13998850247523500D-04 -1.13556289423378900D-04  3.07000747160950600D-04 -4.46885385374630400D-04
15 24 -1.20849504136037800D-03 -9.84284832252531700D-02 -1.26317088217158300D-01 -2.56014636063210000D-02  1.49759994501884900D-03
15 25 -9.88567964597917000D-02  1.11654316754093500D-02  7.94069885860188600D-04 -5.27294228118153400D-02  5.95736445806212300D-03
15 26 -9.62661240682971800D-05  6.12298717980927200D-03 -6.93227115445842400D-04 -2.58409940353408800D-03  4.58211746619309800D-03
15 27 -1.99801806265906700D-03 -1.23388005839561900D-04  4.53003195709671700D-05 -8.68595857173203200D-04 -4.34421544047078900D-03
15 28  3.92772433824142900D-03  4.16491102229356700D-04 -1.11808609742184800D-04  3.06862798314249800D-04 -4.59696031533276900D-04
15 29 -1.06304717067334900D-01 -1.49117029661349200D-02 -8.54746448829775800D-03  9.02405064427622000D-03 -5.47557907628949600D-04
15 30 -1.06466051362822000D-01 -1.49558503558463700D-02 -8.27598800985617500D-03 -9.19085878051327500D-03  1.48462524604404300D-03
15 31 -1.06493063912663600D-01 -1.49663199052027200D-02  8.27892714103629900D-03  9.19150872270005200D-03 -1.47217291736692900D-03
15 32 -1.06342744778291300D-01 -1.49140334566541100D-02  8.55175198287315400D-03 -9.02297698085300200D-03  5.57442997917582700D-04
16  1  2.66225515643440800D-03 -1.29678515269344400D-02  4.76622452288486300D-03 -1.12201738663619200D-01  1.96515579385409300D-01
16  2 -1.61777756688292900D-02 -4.44619778205095200D-02  6.48989887966661500D-02 -4.95713810587801000D-03  1.06037098212267300D-02
16  3 -8.62440912684792600D-03 -1.97930069437874100D-03 -5.75671017502547100D-03 -1.12909922675948100D-04  1.18579373235353400D-03
16  4  2.65915837404698000D-03 -1.29574733201690100D-02  4.81550159388523200D-03 -1.05951755341696400D-01 -1.98658732825975300D-01
16  5  2.78789126715553600D-02 -4.24387984263500000D-02 -6.57735162063703700D-02  9.61443565136978000D-03  1.02779521345217000D-02
16  6 -8.42343095861643500D-03 -1.85452117590532300D-03  6.27218049086766900D-03 -1.44481060040672900D-03  5.12646088255713800D-04
16  7 -2.65813557245009200D-03  1.29187612603973600D-02 -4.88236434760028400D-03 -1.05535562304962300D-01 -1.99115659611357700D-01
16  8  2.82042639800331000D-02 -4.22527753358839700D-02 -6.58772978594499800D-02  9.74009803853933200D-03 -1.02836745453687600D-02
16  9  8.43874491252125600D-03  1.84492963284746100D-03 -6.28300670586589000D-03  1.47816498804924400D-03 -5.13043921457262100D-04
16 10 -2.66143214168824600D-03  1.29631377225046900D-02 -4.83552382505437400D-03 -1.11803754234971300D-01  1.97034130490603900D-01
16 11 -1.59642425297316300D-02 -4.43260920083741300D-02  6.50692618738242900D-02 -4.86017524633729600D-03 -1.06079941052525100D-02
16 12  8.63499222955852600D-03  1.97300187569398500D-03  5.77615980802140500D-03  1.42924911708873700D-04 -1.18973919500593200D-03
16 13 -2.63682423215624100D-06 -1.32155582770548100D-04 -1.18273087891863800D-04  2.59336622568779900D-01  2.24714507038400800D-03
16 14 -1.42249378964116400D-02  6.15733641488752600D-02  5.23706678890734500D-04 -3.37598981391375900D-03 -1.45811187068517600D-04
16 15  8.59380621851987700D-05  5.98731248832207900D-05  5.01661055462633700D-03 -5.54140607838239900D-04 -2.80634780014891900D-04
16 16 -3.05143615220850900D-06 -1.20883881311161700D-04 -6.94843202558178600D-05  2.59352438720497700D-01  2.72001493075442300D-03
16 17 -1.42818089283945800D-02  6.15441227175801100D-02  6.62584046990022000D-04 -3.39136802818695900D-03  1.31549541586881400D-04
16 18 -7.92947139851135100D-05 -5.22548276018577700D-05 -5.02534820053314900D-03  5.54840185077395400D-04  2.81159546153827800D-04
16 19 -9.53935912620724100D-07  1.58431500973107100D-04  2.83940481762647000D-04  5.08317539055757900D-05  2.02953776144685700D-01
16 20  1.64082591986320200D-03 -1.11220954607681900D-02  1.24309154333244800D-01  1.03151355944364700D-03 -6.81517544387111300D-03
16 21  7.26392778152713100D-04 -7.74878307850152600D-06 -3.82389171004960100D-05 -2.71593449737228500D-04  1.56799935332998100D-04
16 22  1.14793514404154100D-04  1.02744635587806300D-02 -1.12038080872151200D-03 -5.72952419100673500D-04 -2.39176567402352300D-04
16 23  1.39652542925265800D-04  9.95240244770688400D-05  8.91400849628266000D-03 -9.72729351899149800D-04 -4.97544345167448500D-04
16 24 -1.59591443160872000D-06  1.91224929042268200D-04  3.49092139312381000D-04  7.32493742697398800D-05  2.02851391241761000D-01
16 25  2.34294349737136000D-03 -1.11931686489888500D-02  1.24243542522339800D-01  1.39423740880044700D-03 -6.85109485895325100D-03
16 26  7.23026559559983000D-04  1.75771434894876600D-05 -4.09911438127063300D-05  2.91689410268274800D-04 -1.89518833597517800D-04
16 27 -1.02170576670762200D-04 -1.02648301013573600D-02  1.15100900742942200D-03  5.78953501497843000D-04  2.47748781186288900D-04
16 28 -1.56706484611091600D-04 -9.10422965751975700D-05 -8.90798672107045300D-03  9.98333178765837100D-04  5.01111766626339000D-04
16 29  3.72940117428708400D-03 -5.52197682232640800D-03 -1.37551786440729800D-03 -5.12803091707778000D-03  6.54305063154326800D-04
16 30  3.81006224172995100D-03 -5.49933313748606300D-03 -1.53045519033119000D-03  5.10552415213548100D-03 -4.87060296541910200D-04
16 31 -4.24710525087558300D-03  5.40304643791895400D-03 -1.49718161870956300D-03  5.11796354999426200D-03 -4.98242015962075700D-04
16 32 -4.20953187094516400D-03  5.42324223631355100D-03 -1.33664377980111700D-03 -5.14418828568878900D-03  6.45760899247004400D-04
17  1  1.07852125684697700D-05  3.80395779957593400D-03  1.04651972884057100D-02  1.06899798470342200D-01  1.33064863692692600D-01
17  2 -2.06444207359204800D-02  4.58050760430901900D-02  4.00225463195623000D-02 -6.93542054253370800D-03  1.83504384595212600D-03
17  3 -3.65013720505599100D-03  1.81509335910391900D-03 -4.51046700754294600D-03  5.12406849090689100D-04  9.68659359602995200D-04
17  4  1.74507277048090800D-05  3.74095337808620700D-03  1.02853618782049300D-02  1.11001412734763100D-01 -1.30913231651230700D-01
17  5  8.78070499187196900D-03  4.71021834572095200D-02 -3.91507614710083600D-02  1.88679535781444900D-03  1.57746654664279300D-03
17  6 -3.49313556810174200D-03  1.91566902145877800D-03  4.71760409824692100D-03 -5.08525057219921800D-04  4.49230106452809000D-04
17  7  2.22990220008208000D-06  3.87211879578254000D-03  1.04991401218093000D-02 -1.11403633213146700D-01  1.30335102495865100D-01
17  8 -8.57767529745136400D-03 -4.71991587742992300D-02  3.89259841288615400D-02 -1.80164959851056600D-03  1.55105898005226400D-03
17  9 -3.46927081551176000D-03  1.91821183545932400D-03  4.68689524797260100D-03 -5.01764581420163300D-04  4.49840844484945700D-04
17 10  9.73880441465865700D-06  3.77317812442705800D-03  1.02787409371198800D-02 -1.07218934586793100D-01 -1.32355758078085200D-01
17 11  2.07099486022670700D-02 -4.60028283929300100D-02 -3.98291552486908700D-02  6.98285986079771800D-03  1.79216882092198100D-03
17 12 -3.61575253403278800D-03  1.82358371311075900D-03 -4.50597488779318600D-03  5.15765201970473900D-04  9.62400733415398300D-04
17 13  1.91048436801342200D-03  8.51085775729447200D-02  7.34830438202501400D-02 -2.10884509516184300D-03  1.59711449153105300D-01
17 14 -1.79171243608998200D-02 -4.72980427887232600D-04  3.65387607954321700D-02 -4.07478884728657600D-03  3.00194311698830900D-03
17 15  4.88606124706638200D-04 -3.49054924169423600D-03  8.28496688748079600D-06 -4.09121719322260400D-04 -5.38553899274064400D-04
17 16  1.91432728661917500D-03  8.52277207428191700D-02  7.36592895178682800D-02  2.94079614867817200D-03 -1.59880341953393100D-01
17 17  1.77060114844226000D-02  6.78200350286405700D-04 -3.64838365213119700D-02  4.06574932730707300D-03  2.98298436798241500D-03
17 18  5.18145996332865000D-04 -3.50113036431466600D-03 -9.11877596956149400D-06 -4.07155926234045900D-04 -5.15270914069005300D-04
17 19  5.73111894346865800D-04 -1.18194096764085100D-01 -2.12837281785136300D-01 -4.32790829128262700D-02 -3.61589898135047200D-03
17 20  2.51354431102627000D-01 -2.75310425622793400D-02 -1.82662373551419900D-03  1.29395718855989500D-01 -1.41569651056218100D-02
17 21 -1.26770009835951200D-04  8.18969024245549800D-03 -9.02537706226531400D-04 -6.52292565389327000D-03  1.19608524641879600D-02
17 22 -5.43792681029478400D-03 -3.13038409553169200D-04  8.90916059299138300D-05 -2.22606396795884100D-03 -2.26636883754376800D-03
17 23  5.05623394813110600D-03 -2.78986511058733300D-03 -1.21628604419647600D-04 -2.52791551316832000D-05 -9.98867898438388900D-04
17 24  5.73850861659095300D-04 -1.18083627356354900D-01 -2.12630714345301900D-01 -4.32392069163933600D-02  4.31182223988691300D-03
17 25 -2.50926001743129200D-01  2.84414268031503000D-02  2.25379623044475300D-03 -1.29187121891225400D-01  1.46582561993908200D-02
17 26  1.30866022227323400D-04 -8.17844263966970400D-03  9.22181149177184400D-04 -6.51314475601487300D-03  1.19288823019012800D-02
17 27 -5.41573754588650200D-03 -3.47929416174835100D-04  9.41151391639751900D-05 -2.29872423013986900D-03 -2.26684129804671500D-03
17 28  5.05201754492107900D-03 -2.78517624687437300D-03 -1.53335786102039300D-04 -2.11564766820313400D-05 -1.04580813230785800D-03
17 29  1.22595786785803800D-01  2.54758319597158400D-02  9.83002592326195900D-03 -3.63516488034833600D-03 -1.27176978286059000D-04
17 30  1.22469046265962900D-01  2.54237961552787100D-02  9.70526454943463000D-03  3.81546872286925000D-03 -9.57924556178637200D-04
17 31  1.22562801833210800D-01  2.54903340533353300D-02 -9.71672794197557000D-03 -3.80321665913992800D-03  9.44138829032491100D-04
17 32  1.22464544463555000D-01  2.54412142835482800D-02 -9.82829180872077400D-03  3.61120008980555800D-03  1.19024340356199600D-04
18  1  5.63580637125644200D-03 -8.91726187152144200D-02 -1.38430404025102600D-01 -9.42859444921971700D-02 -5.82658423031014600D-02
18  2  1.15287721298375000D-02  7.63892778792252200D-03 -1.38408711891147700D-02  1.11926625309905900D-03 -5.82174187620369600D-03
18  3  5.83422907436794000D-03 -1.24871981642735900D-05 -1.80125051501198800D-02  2.39966883200990400D-03  2.10534452572396100D-04
18  4 -5.63290200860559200D-03  8.91677054014021500D-02  1.38425851664170000D-01  9.62048202077628900D-02 -5.66497195352235800D-02
18  5  1.25939171907252800D-03 -7.14180915456449000D-03 -1.40542069471853800D-02  1.98303169507516600D-03  6.80160696850816200D-03
18  6 -6.44491539735622800D-03 -3.56691571152017500D-04 -1.76464529334989700D-02  1.54467333521804000D-03  1.75283357638774600D-03
18  7  5.63375118975487800D-03 -8.91738196973780600D-02 -1.38468907407836700D-01  9.60281948282267800D-02 -5.64620883358250800D-02
18  8  1.08035615655668200D-03 -7.20025982646862700D-03 -1.39878138443722600D-02  1.93838666990339500D-03 -6.79475305469910300D-03
18  9  6.42633787747365300D-03  3.68415177225516000D-04  1.76421110066196300D-02 -1.55824367934541700D-03 -1.78795091475766800D-03
18 10 -5.63431005181523700D-03  8.91588360504037300D-02  1.38477586484809300D-01 -9.43043157692021500D-02 -5.84657375392932800D-02
18 11  1.17418176314583100D-02  7.61653747304094700D-03 -1.39039070517674500D-02  1.17446218416233800D-03  5.83342129727433700D-03
18 12 -5.85156546266361900D-03  1.81441653891568900D-05  1.79983854436002400D-02 -2.38540745361710500D-03 -2.45103430384673400D-04
18 13  2.27033153885319600D-03  1.34697058981146900D-01  1.69261118560228600D-01 -1.90402054860872200D-03  1.21709261935502800D-01
18 14 -1.38448428616982000D-02  3.79312398639503000D-04 -2.37993477227083700D-02  2.63904283400964900D-03 -2.03218128538503600D-02
18 15  2.39874516861663300D-02 -3.66563883231604700D-03 -6.94041330382757500D-04  1.09550696288140900D-03 -3.63651413961755900D-03
18 16 -2.27217870733445100D-03 -1.34605898100051600D-01 -1.69165729406138900D-01 -1.97181094418998800D-03  1.21681545565460500D-01
18 17 -1.32827029544579300D-02  3.67738876185940800D-04 -2.38371403335786900D-02  2.67175801505491300D-03  2.03322947038782000D-02
18 18 -2.40141004393004700D-02  3.68180573542247700D-03  6.88701607259445300D-04 -1.09519406716505100D-03  3.54363177681302000D-03
18 19  1.60105547439132200D-03  1.01804374510259600D-01  1.75043724512577000D-01  3.56994681655162200D-02  4.13578095326075200D-03
18 20 -2.64947762062054700D-01  2.91881488107082200D-02  2.11162586630069200D-03 -1.35632330347608500D-01  1.49514477302575700D-02
18 21  1.20567106392668400D-04 -7.76547438860924500D-03  8.51948364072187700D-04  7.16797217891280700D-03 -1.28479276397878500D-02
18 22  5.67995546087505800D-03  3.53210045773864000D-04 -1.17901180433907800D-04  2.38345280940901000D-03  1.20889282501623500D-03
18 23 -3.28232805637550900D-04 -8.80660019378535900D-04  1.10584591512103500D-05 -1.32138448464007400D-04 -6.80279882945429400D-05
18 24 -1.60003642722269800D-03 -1.01897878171823300D-01 -1.75195872355374400D-01 -3.57314584284458600D-02  4.21434204020839200D-03
18 25 -2.65028061905517100D-01  2.98708456917310600D-02  2.16073782330320000D-03 -1.35692539013535000D-01  1.52829576897217300D-02
18 26  1.24594535941883900D-04 -7.76847144500939700D-03  8.78660695084979100D-04 -7.17114997664412300D-03  1.28427382832699000D-02
18 27 -5.67158830662577100D-03 -3.57814692174526300D-04  1.19324949423825000D-04 -2.44042894202240300D-03 -1.21464677227773500D-03
18 28  3.42239134788609100D-04  8.72407637489137000D-04 -1.43282174038622900D-05  1.32259345902707800D-04  7.78180851944206800D-05
18 29 -1.51383481845075200D-01 -5.32672228760273100D-02 -9.03798191590589500D-03  6.20942114719986700D-03 -2.06174584986557800D-04
18 30  1.51512442252099900D-01  5.33025422459381100D-02  8.85070277673430200D-03  6.38051344388124900D-03 -1.19843606496444800D-03
18 31 -1.51422556372575900D-01 -5.32854086011177300D-02  8.84208563185711300D-03  6.38283356972487200D-03 -1.18848169772630100D-03
18 32  1.51582815346212600D-01  5.33204866938890700D-02 -9.05289859833889400D-03  6.21299061113188500D-03 -2.13656839816800300D-04
19  1 -6.22232311075597700D-04  2.38832910868081100D-02  5.02242067143063000D-02 -1.96754892706865400D-01 -1.63984281330029300D-01
19  2  2.88523585264530300D-02 -9.62633185988082000D-02 -4.21217819485159700D-02  9.82581720817643800D-03 -7.35989908606855200D-03
19  3  8.77406704694638900D-03 -1.41416796087788500D-03  5.41105161887044500D-04  3.04115019710603200D-04 -1.36513408324362900D-03
19  4 -6.26896437271248600D-04  2.39643867724914800D-02  5.03482882889861200D-02 -2.01524371691135800D-01  1.60043536561941000D-01
19  5 -7.27532024629796600D-03 -9.74701089550070000D-02  4.02118365168980000D-02  6.47596833609917200D-04 -7.33065627936813900D-03
19  6  8.75765215309640000D-03 -1.42699587372820200D-03 -1.07781477268173900D-03  4.85303043188297500D-04 -1.27871162886411800D-03
19  7  6.27821764332716900D-04 -2.39403955763010400D-02 -5.02961800289923800D-02 -2.01524908430392700D-01  1.60055423525320000D-01
19  8 -6.95239463063045600D-03 -9.74743302067365400D-02  4.02212533638877800D-02  8.27680082940428700D-04  7.32757750236591300D-03
19  9 -8.75399416883763900D-03  1.42641666647168800D-03  1.07866072527794700D-03 -4.79133069763331000D-04  1.27340724179023000D-03
19 10  6.22904815851067100D-04 -2.38776919020370200D-02 -5.02160665563487200D-02 -1.96740962864202800D-01 -1.63901586539530000D-01
19 11  2.91885499806517600D-02 -9.62636683433432900D-02 -4.20862142639824600D-02  1.00097281846543900D-02  7.35921469358613300D-03
19 12 -8.77184710887032200D-03  1.41263241528432000D-03 -5.42756228219388300D-04 -2.98865646718597700D-04  1.36751460397483600D-03
19 13 -2.24746560068685500D-06  3.59894205642822600D-05  7.29287052769312900D-05  8.09110417455731300D-02  5.34346734724765200D-04
19 14 -4.41942059436128900D-03 -2.82572826266592800D-02 -3.57019907634714100D-04  1.56227057476744100D-03  5.96870620651261700D-04
19 15 -3.68904975645165500D-04 -2.27965645006102100D-04 -2.18317075108271700D-02  2.41863790034956600D-03  1.22465514440086400D-03
19 16  1.44226275269066100D-06 -5.87243670429309600D-05 -8.52269695928297900D-05  8.09043963530816800D-02  5.30738769956686400D-04
19 17 -4.41202265382752800D-03 -2.82615691882140200D-02 -3.39860507794075000D-04  1.56458429960120100D-03 -5.94312555590107300D-04
19 18  3.65891130401072000D-04  2.28421425189059600D-04  2.18282344942365700D-02 -2.41168036922500900D-03 -1.22429506882271400D-03
19 19  4.17278649705498900D-07 -6.49729034379010800D-05 -1.28916582976174800D-04 -3.52188674743072500D-05 -3.00863033300937700D-03
19 20  1.93948820235499300D-04  1.47886516337197400D-04  8.12219789465546400D-03  1.98353680503227800D-04 -4.54946685097546500D-04
19 21 -3.14974624286627400D-03 -2.18756801467134800D-05  1.72512182656422400D-04 -6.38284737118955600D-05  4.69976373760133000D-05
19 22  1.68308363357116300D-05  2.13088187127505700D-03 -2.32887598031801800D-04 -1.21143892079311100D-04 -1.18572506352234700D-04
19 23  7.36265116080552400D-05  4.49459947443784300D-05  4.30616178809076300D-03 -4.68485289233181300D-04 -2.40994819726033800D-04
19 24 -4.41699621905359300D-07  7.22773414964527000D-05  1.50735412896136300D-04  4.63521022227392900D-05 -3.04078852197854500D-03
19 25  2.10961305090703000D-04  1.39196670207846900D-04  8.09735588324418300D-03  2.05588106846948900D-04 -4.59893915297059400D-04
19 26 -3.15280477793464600D-03 -2.38128293131618200D-05  1.72469105480265400D-04  6.44208133443131700D-05 -4.70764203831413300D-05
19 27 -1.73443929612724700D-05 -2.12880146344508000D-03  2.38250593845317800D-04  1.21638713182372200D-04  1.18945382503219900D-04
19 28 -7.41516704066829800D-05 -4.47937120965375100D-05 -4.30195996629948700D-03  4.82828379350914700D-04  2.41684889944763400D-04
19 29  1.92156491247791600D-01  5.01689610417235500D-02  1.33462174205673400D-02 -4.90344363347151100D-03 -1.74460912970553300D-04
19 30  1.92460503035529500D-01  5.02695979942113700D-02  1.32051784208518900D-02  5.17122814999309400D-03 -1.29907406337318700D-03
19 31 -1.92478790398443000D-01 -5.02716575264726900D-02  1.32073313592415900D-02  5.17233219197382700D-03 -1.28539270883079500D-03
19 32 -1.92148841933909100D-01 -5.01636700341388700D-02  1.33468034652980100D-02 -4.89822259704955000D-03 -1.64038771329170100D-04
20  1  1.86365647839289000D-03 -2.19413650195738200D-02 -3.86745222071330700D-02 -1.61168406702339500D-01 -2.83214491038245200D-02
20  2  1.17633805723857900D-02 -5.35203058593494700D-02 -1.37848846592049700D-02  4.39009659994133700D-03  8.70919773473839500D-03
20  3 -6.09891288263437500D-03 -2.61028485210399300D-03 -1.63120192061846700D-02  1.14337102216052900D-03  1.34544677354979100D-03
20  4 -1.86120051408027000D-03  2.19012159570417800D-02  3.85432294940852600D-02  1.62374983552789400D-01 -2.52316691148003500D-02
20  5 -5.85140899382770100D-03  5.41357556429793900D-02 -1.27363884712875700D-02 -1.46203466559897600D-03 -7.81096933607585100D-03
20  6  5.54260509193142300D-03  2.26836424414443500D-03 -1.66767638438378300D-02  2.50824954141172200D-03  4.83756396572647700D-04
20  7  1.86032743807399200D-03 -2.18764808031948700D-02 -3.85925352462403100D-02  1.62312724957959200D-01 -2.55257163619647800D-02
20  8 -5.97053472392521100D-03  5.41066971530719400D-02 -1.28507149478284000D-02 -1.50980826607309500D-03  7.79428664123747000D-03
20  9 -5.53415417928014700D-03 -2.26013246195736400D-03  1.66624072894365700D-02 -2.51183191031408900D-03 -5.05469830245768200D-04
20 10 -1.86144671476965000D-03  2.19321618139342700D-02  3.86798013455918500D-02 -1.61043327623870000D-01 -2.80140815363533000D-02
20 11  1.19032515563751300D-02 -5.34664790779188300D-02 -1.37018121895399100D-02  4.45042716546507300D-03 -8.72485455271134300D-03
20 12  6.11295038719779800D-03  2.61190416551352900D-03  1.63027264785964100D-02 -1.13571233077293600D-03 -1.36799737854272000D-03
20 13 -2.57088964867515100D-03  4.69299989247261800D-02  9.72282821694315200D-02  3.95997930294948000D-03 -2.53162282619304100D-01
20 14  2.85026150835693900D-02  1.37858689797329700D-03 -8.63648367659272200D-02  9.71203154194433100D-03  5.93614466958350000D-03
20 15 -8.88776996231293600D-03  2.95162529272939000D-03  2.71272264071776800D-04 -2.07877912038736900D-04  1.55418371456796600D-03
20 16  2.57815844364302300D-03 -4.69433947279360100D-02 -9.72899370317255300D-02  3.80441288313836100D-03 -2.53415542767917800D-01
20 17  2.79503802098151100D-02  1.36691255710953900D-03 -8.64194718618746500D-02  9.53744063588460300D-03 -5.96661527702272800D-03
20 18  8.92635483823861100D-03 -2.95973956121589300D-03 -2.65866053775924500D-04  2.07602345095503100D-04 -1.52822698886581300D-03
20 19  8.50020384295101100D-05 -6.42441203303092000D-02 -1.36313272193701200D-01 -4.24798821950838900D-02 -3.98972380716835100D-03
20 20  2.45002917035037000D-01 -2.68346675951676900D-02 -2.19021099421161000D-03  1.32885705012558100D-01 -1.45429696660280500D-02
20 21 -1.42766602195499600D-04  8.85870681580662300D-03 -9.70181799995700300D-04 -6.13910762140311600D-03  1.18116208367382300D-02
20 22 -5.67251321533523500D-03 -3.32750906989779900D-04  5.26119566159571200D-05 -2.23984118364214600D-03 -9.70657464107106900D-04
20 23  2.24704182217195500D-03 -1.27638435806490500D-03 -7.05572122014447500D-05 -1.39588160271342300D-05 -4.45702327459049200D-04
20 24 -8.53094933768742900D-05  6.42244772754454500D-02  1.36236829466843800D-01  4.24491506268047700D-02 -3.85178716450504400D-03
20 25  2.44685803093081400D-01 -2.77494370806865100D-02 -2.09307977844759100D-03  1.32732010281212200D-01 -1.50662189373907800D-02
20 26 -1.34514374749438500D-04  8.84782099448076800D-03 -1.00409057904985800D-03  6.13248120417670200D-03 -1.17848541340441200D-02
20 27  5.65237292986744300D-03  3.26771922255731800D-04 -5.31191766661871600D-05  2.31032023871000200D-03  9.74533428974616500D-04
20 28 -2.25195416940894000D-03  1.27742074043436200D-03  6.38984049634676000D-05  1.44917479913686100D-05  4.74764372677057400D-04
20 29 -1.47274110814068600D-01 -4.79052869252384500D-02 -8.19996942773527900D-03  8.10245141498664200D-03 -4.62665029261987400D-04
20 30  1.46755714590124300D-01  4.77579643856640900D-02  7.90740131241657800D-03  8.24539726057818200D-03 -1.35901799481130400D-03
20 31 -1.46976717363091700D-01 -4.78310254923037900D-02  7.92272185712347000D-03  8.25130864572974100D-03 -1.34752657449843900D-03
20 32  1.47228486123817200D-01  4.78871972293260900D-02 -8.19569984557268200D-03  8.10691776744971800D-03 -4.74474663500067400D-04
21  1 -1.07788665922222400D-03 -1.19716549168424800D-02  1.10869478266401400D-02  8.71634443123773400D-03  2.25426498311179100D-01
21  2  3.42788866732410400D-02  5.14339057217002300D-04  7.97554328706277900D-02  2.46020919942674400D-02  1.59223708296828600D-02
21  3 -1.53314265267401200D-02 -5.90944302942859200D-04  1.02856806410503700D-03 -5.95174562087708700D-03 -9.95595685116157100D-04
21  4 -1.08534440295690100D-03 -1.18374079861490000D-02  1.11773353529184100D-02  1.62408941925432500D-02 -2.12048840065759700D-01
21  5  8.30162851277444500D-02  3.24833253580489800D-03 -7.22801236453869300D-02  4.15391774443945900D-02  1.59719728840837000D-02
21  6 -1.43373606056642900D-02 -1.63461227841932700D-03 -1.28569846537026300D-03 -5.78266418329985100D-03  4.38848496161572800D-03
21  7 -1.08518496949647300D-03 -1.18174849660127400D-02  1.12104494803964500D-02 -9.73350282068148800D-03  2.25306759997630300D-01
21  8  3.52930517504668100D-02  3.57220133825081500D-04  7.96814613570897400D-02  2.46236430936010100D-02  1.68719886635919200D-02
21  9 -1.53603874079972700D-02 -1.51160125559461200D-03 -4.86022208934578700D-04  3.75418602768928600D-03 -8.20508471765818400D-04
21 10 -1.07789358232674600D-03 -1.19745785059976800D-02  1.10974645452443900D-02 -2.50239952476016700D-03 -2.12118749769361100D-01
21 11  8.40711388632379000D-02  2.98491869975801000D-03 -7.23189266517463000D-02  4.15733946156319800D-02  1.67836836535350900D-02
21 12 -1.42704265435413400D-02 -2.51325710999401400D-03  2.38091388971971700D-03  3.35797168389105100D-03  4.27345789726060700D-03
21 13 -3.60007830922799000D-03  3.46265573408215900D-03  2.29114789076695200D-02  8.48343198285980400D-03 -1.75213899436953600D-01
21 14  1.18107219989091800D-01  3.06111345732838000D-03 -3.29101059976551000D-02  5.00818399681133300D-02  2.71087228410315000D-02
21 15 -2.98045407937584800D-02  2.69581795272677300D-03  1.16573202361821000D-03 -1.64666083307004800D-03  9.36307477584591400D-03
21 16 -3.59981445810788300D-03  3.44389042307647900D-03  2.28557015912623300D-02  2.06450302577107000D-03  1.96808220477212200D-01
21 17  7.67755613530809500D-02  1.89471289817758000D-03  4.31157990945196300D-02  4.16505262038501700D-02  2.71080316798400500D-02
21 18 -3.17172320942476400D-02  4.60920041440753600D-03  6.38573016492263300D-04 -1.43102900715967100D-03 -4.54818130315126000D-04
21 19  9.75048491530947500D-04  3.63737777190385100D-02  8.40944945768221200D-02  3.11271862077235900D-02  8.81630579970365700D-03
21 20 -2.11240923796007900D-01  1.28282548288343000D-01  5.50048718551792400D-03 -1.09459871302342700D-01  8.44992988618099000D-02
21 21  4.23845801178282700D-04 -8.76603987250216100D-03  6.52087709525508400D-03  5.87999710461566900D-03 -9.59776851261955700D-03
21 22  3.71777140800406800D-03  6.08447029823323700D-04 -2.15882541023854900D-04  8.13821166751042500D-03 -4.67954288417897600D-04
21 23  4.49078736173938300D-03 -4.02283307332145700D-03  2.52639396941899000D-04 -2.81830656121108200D-04  5.87502419043758500D-03
21 24  9.75418402173937100D-04  3.64570215564005600D-02  8.42522166936022800D-02  3.11782862657999300D-02  2.47204017136042200D-03
21 25  2.34776497783353200D-01  7.83975218900065200D-02  2.28732597566258200D-03  1.25675552965326400D-01  5.81707559961158200D-02
21 26  1.73871412618046200D-04  1.00082788750882800D-02  4.41764315420684300D-03  5.90539986758834400D-03 -1.20090678736833200D-02
21 27  6.10366800609497000D-03 -4.02259501478451100D-05  5.35690123494774900D-05 -4.03422400746959500D-03 -4.43470435477932600D-04
21 28  1.86674615295166200D-03 -1.42327571747371400D-03 -4.53340995134042600D-04  1.17026984332814300D-05 -7.40781537363026300D-03
21 29  9.91271793200372100D-02  3.98983293435938200D-02  7.30097065301249800D-03  2.26366523065629500D-03  1.39179745425938800D-03
21 30  9.86959662031564200D-02  3.97516396500476500D-02  7.33930415839204000D-03 -1.69673903313397300D-03  1.83570971090515600D-03
21 31  9.85839693278798600D-02  3.97130845933580500D-02 -7.11771453898524000D-03  2.15646566358790300D-03  2.18074656098791500D-03
21 32  9.92171454603293000D-02  3.99299507649891100D-02 -7.08920008392098700D-03 -1.80971936116262500D-03  2.62582309298125400D-03
22  1  4.98044303423695500D-04  5.59001701532202800D-03 -5.10908275283938900D-03  4.19692361942639000D-03 -8.74723700802056600D-02
22  2  1.38811608147336100D-01  4.37077455416998300D-03 -2.74010763814216200D-02  7.51229900700332300D-02 -8.54653821343793700D-03
22  3  5.76583970373614500D-03  2.78069850970178500D-03 -2.23567736938355300D-03 -9.41849365447457000D-03 -6.45884814169381900D-03
22  4  5.04007649905266000D-04  5.49408229895969600D-03 -5.18350867191422200D-03  5.84887068774171800D-04  1.16029515491775100D-01
22  5  1.16155062333160600D-01  3.03186590646095700D-03  4.33393636726935700D-02  6.72581252578020300D-02 -8.59297475367252500D-03
22  6  8.01537209396869200D-03  5.77602659703770800D-04 -4.23355133033839700D-04 -9.80586640899578000D-03  4.78224216649375500D-03
22  7  5.03453169897977000D-04  5.47977415637365000D-03 -5.18096649955374300D-03  1.31049054913242400D-02 -8.74348282666423400D-02
22  8  1.38349200217554400D-01  4.64760732862153400D-03 -2.73449869837773700D-02  7.51134625355165000D-02 -6.67920164431594600D-03
22  9  5.82666171988251700D-03  8.52539924433312400D-04  1.27412949738942100D-03  1.07370541918017300D-02 -6.46311471119263000D-03
22 10  4.98458698090076500D-04  5.59714886191413400D-03 -5.12973289768756200D-03  9.57624889711017300D-03  1.16061816535187000D-01
22 11  1.15722165213738900D-01  3.31598114833054100D-03  4.33846723397034000D-02  6.72624224595862500D-02 -6.65974848406748600D-03
22 12  8.02901794243699800D-03 -1.36926945836954900D-03  6.57278671726507000D-04  1.06325078994925600D-02  4.92228515916060500D-03
22 13  1.67648301500305900D-03 -1.62285787302892200D-03 -1.06890311025659300D-02  9.64668445791288900D-03  1.10252608192060300D-01
22 14  1.98981437782512000D-01  5.03208550873392800D-03  2.89456194659900200D-02  9.64494714307008900D-02 -1.26480759521167100D-02
22 15  1.64270281465290900D-02 -3.77895219441232500D-03  1.23509774074137700D-04  4.85861885856701000D-04  8.35130261116377000D-03
22 16  1.67602474405865600D-03 -1.61726220948424500D-03 -1.06517207344628600D-02  1.28244922082493400D-02 -6.32584308363546600D-02
22 17  2.18511371945103900D-01  5.57645547205334800D-03 -6.77464902748836100D-03  1.00526369972960500D-01 -1.26096425170691900D-02
22 18  1.23018366727425800D-02  3.07805844326457100D-04 -9.77220215479407800D-04  9.42520261216095500D-04 -1.25554126477214900D-02
22 19 -4.54238995760842700D-04 -1.68417934246563500D-02 -3.89921002377017700D-02 -1.44599864955449000D-02  1.06636954474181100D-02
22 20  1.28222633025780800D-01  2.12039761876056700D-01  7.62862510706503100D-03  7.16042094640886300D-02  1.48122376822076900D-01
22 21  5.87374127550268000D-04  5.66972157238046300D-03  1.13766190444615000D-02 -2.75584279153107000D-03  7.56879710488804500D-03
22 22 -4.81295431335709800D-03  5.67953192910562000D-04 -2.51718700056461300D-04  1.22381038586130300D-02  1.93981020482553800D-04
22 23  1.27981017283455400D-03 -1.47379119331709100D-03  8.06015294333913800D-04 -2.50095718950846400D-04  1.46477618683861800D-02
22 24 -4.54025374815294500D-04 -1.68746252299349700D-02 -3.90573148650831400D-02 -1.44835028329848600D-02  1.33424523862238400D-02
22 25 -7.81809735793117500D-02  2.34766940334125000D-01  8.93044681159683800D-03 -3.70783027763150600D-02  1.60047330933238500D-01
22 26  6.86118988711345100D-04 -3.01287243332870300D-03  1.23274197578727500D-02 -2.71936394090798800D-03  2.38648228784840300D-03
22 27  3.32881653059474800D-04 -8.18950825103315800D-04  3.29320260640521300D-04 -1.41006870694515900D-02  2.34363030387152200D-04
22 28 -4.33658584838036700D-03  4.10222281799320400D-03 -6.97476383293671800D-04  3.78757140382435300D-04 -1.38892347862939800D-02
22 29 -4.62507481969133300D-02 -1.86148793215527000D-02 -3.11542183215535100D-03 -4.56592611326191800D-04  4.61750107692317200D-03
22 30 -4.58727009850878900D-02 -1.84922983302638500D-02 -3.12258967625828300D-03  1.38620323289325000D-03  4.41334039762234800D-03
22 31 -4.58352781488256000D-02 -1.84760768646034500D-02  3.58797516450965800D-03 -4.15329259339689000D-04  4.25256441351418600D-03
22 32 -4.62642798976137700D-02 -1.86229639150742700D-02  3.58300975486602100D-03  1.42999775323371200D-03  4.04547343493156200D-03
23  1 -2.35257052655864700D-03  4.97768568381178300D-02  2.95024667750675700D-02  1.56042972244708800D-01  2.62716806403664200D-02
23  2 -1.12650721791524200D-02  9.99163573146652500D-02 -2.22503773489548900D-02 -2.79483656977436000D-03 -5.77869812458175300D-04
23  3 -1.86780399664771200D-03  2.44567380910599600D-03  2.01080882876957100D-02 -2.08181678914888400D-03 -5.24986078117773700D-04
23  4  2.34719302527620600D-03 -4.98369396954523400D-02 -2.94943415229311400D-02 -1.56729188322720800D-01  2.24448161864782800D-02
23  5  5.73840005656616300D-03 -9.91540228733827900D-02 -2.44669934153044200D-02  7.94825185040848100D-03 -4.52944317600868400D-04
23  6  2.48549814871584800D-03 -2.03255383111497800D-03  1.99936512602391300D-02 -2.34974010803101600D-03 -1.68508054872045100D-03
23  7  2.34902064778446500D-03 -4.98751000906348700D-02 -2.95846034934659800D-02  1.56867012637131000D-01 -2.24401304347617400D-02
23  8 -6.13220181949651200D-03  9.92274660928858800D-02  2.44618889329299900D-02 -8.24520785012596900D-03 -4.48209289624922900D-04
23  9  2.47398255999706300D-03 -2.02577327037227000D-03  2.00083593509943400D-02 -2.37492559544212700D-03 -1.71191633771012300D-03
23 10 -2.35509105092528600D-03  4.98151007752909200D-02  2.95940892726408700D-02 -1.56099378909086000D-01 -2.63677291993527900D-02
23 11  1.14603648699684600D-02 -9.99492160779183000D-02  2.22467026382918800D-02  2.97180782297530200D-03 -5.76039512403798000D-04
23 12 -1.87655458315864100D-03  2.45259409556258700D-03  2.01237118730308400D-02 -2.07992260543127300D-03 -5.61475703177184500D-04
23 13 -7.35328253694016200D-06  4.64467180343137900D-05  1.21764596147600000D-04 -1.83373772135542600D-01 -2.19692384364912400D-03
23 14  1.00281453803850400D-02  1.37686835330220700D-02  1.87805362364439200D-05 -7.91628360688178700D-04  3.66774585590708700D-04
23 15 -2.50492533924288200D-04 -1.16282051666515100D-04 -1.14046307201057600D-02  1.29377884401680000D-03  6.42663746111075600D-04
23 16 -6.88985493881668900D-06 -2.34427352719373200D-05  6.48064453762149600D-05  1.83302024781980100D-01  2.07412656330413900D-03
23 17 -1.02034629984473700D-02 -1.37987040974597100D-02 -6.30126119168460400D-05  7.06244327160321600D-04  3.69416596153797900D-04
23 18 -2.55271055007724000D-04 -1.14145541145924200D-04 -1.14275775363306100D-02  1.22564672559954800D-03  6.54423753495698300D-04
23 19  2.65450555285469200D-06  6.01126482634587200D-05  1.38448476002638300D-04  5.46901050137870800D-05  2.71704215055169500D-01
23 20  2.22065474254807700D-03 -1.49942642868817500D-02  1.94367934209539200D-01  1.66036058696711300D-03 -1.07319417747853300D-02
23 21  1.90752665011758800D-02  1.66629073398490000D-04 -1.05254142011051400D-03 -2.87688245191158400D-04  1.63091560511606700D-04
23 22  1.24596684679424600D-04  1.09413575331596500D-02 -1.19355168476861300D-03 -6.15487072861010400D-04 -3.54876358766203400D-04
23 23  2.22171641499743000D-04  1.32704717266535500D-04  1.30145155565018300D-02 -1.41806695543243600D-03 -7.37095876886161900D-04
23 24  1.64296042810299400D-06  7.09227473225037800D-05  1.69934093715644600D-04  6.65800254879739600D-05 -2.71654654968719500D-01
23 25 -2.16037942210697900D-03  1.47684708728870300D-02 -1.94331028031204800D-01 -1.62905832700852800D-03  1.05769432300195100D-02
23 26 -1.90679260105788800D-02 -1.63692357299294300D-04  1.03938950611904100D-03 -2.87696618541169200D-04  1.60950231954358200D-04
23 27  1.26746386586846900D-04  1.09354902055607200D-02 -1.22602274404125100D-03 -6.02322206043691600D-04 -3.57631659635795100D-04
23 28  2.23692669172067600D-04  1.33938990463728200D-04  1.30116000045064500D-02 -1.46037787012510800D-03 -7.23921717261977400D-04
23 29 -1.71346291241579100D-01 -5.88186905822167500D-02 -9.74751781955093600D-03  8.92157937797102000D-03 -4.75176312667104400D-04
23 30  1.71751670414391200D-01  5.89865895745687500D-02  9.49471125941561200D-03  9.09486969927198600D-03 -1.53952688300162700D-03
23 31  1.71619308003151200D-01  5.89325809987986700D-02 -9.48776668544458100D-03 -9.09241140665214200D-03  1.52616530577343900D-03
23 32 -1.71228805084162200D-01 -5.87773773243043500D-02  9.74329679601078700D-03 -8.91303179538520400D-03  4.77248530075168200D-04
24  1  8.03812924860596200D-06 -5.21958857733449100D-05 -1.90301270439934500D-04  2.16349438420253800D-03  4.68902627215833100D-03
24  2  4.18786112113718100D-02  1.26313159455348900D-03  2.67855448627770900D-03  2.34778390063529800D-02 -9.25027468889820800D-04
24  3  1.54680625483112000D-03 -6.21778785941394100D-04 -7.17778186622300600D-04 -9.86967601621563000D-03  7.81139137507479800D-03
24  4 -8.20215872104884700D-06  5.18328714055591500D-05  1.92526859396352800D-04 -2.15604744238695800D-03 -4.68365126613670700D-03
24  5 -4.15957082087383800D-02 -1.26207366806872100D-03 -2.57793049179905700D-03 -2.33229284683747800D-02  9.02647970085395700D-04
24  6  1.54739263260467200D-03 -2.45004060269015000D-03  1.47798959052510700D-03  9.51341556148387800D-03  7.90333003036974200D-03
24  7  8.19232577930410800D-06 -5.46145214391705400D-05 -1.93885585236377400D-04  2.34221030685948100D-03  4.68828374024518500D-03
24  8  4.17980779080419000D-02  1.26287261411150800D-03  2.67767165160388400D-03  2.34400270327838800D-02  8.89129683680544500D-04
24  9  1.58519474355630000D-03 -2.47432442723723100D-03  1.54554057919902700D-03  9.51998737485090300D-03  7.88021465343518600D-03
24 10 -8.21931190163567200D-06  5.32310599510208600D-05  1.94015356689475700D-04 -2.34062833960844400D-03 -4.70125660238718800D-03
24 11 -4.16599658860025800D-02 -1.26087065748519100D-03 -2.58376087254436400D-03 -2.33644077613833800D-02 -9.12064701112760400D-04
24 12  1.51134646426465900D-03 -5.99281763151949500D-04 -6.47169882404186400D-04 -9.86463084677108300D-03  7.83043405159812200D-03
24 13 -6.65741837220365400D-07  3.25692711463087700D-05  1.14155406930233400D-04  1.30085729423369600D-02  2.74641687421653200D-02
24 14  2.41514644716201800D-01  6.48519570225852700D-03  1.36615045940312500D-02  1.20388230697529400D-01 -5.66831861426857000D-05
24 15  5.22145229800475400D-03 -5.16476911186204300D-03  1.37334534321641100D-03 -5.73933548482572500D-04  2.60543486875714100D-02
24 16  1.02619253299805400D-06 -3.92932456751934000D-05 -1.30991208237136100D-04 -1.30088799277579400D-02 -2.67718486833913500D-02
24 17 -2.41398279563345100D-01 -6.48548218113272900D-03 -1.33760298141795400D-02 -1.20313898147549300D-01 -2.06678821639160100D-05
24 18  5.05063685173168900D-03 -5.02996896956764900D-03  1.37926618806964700D-03 -5.70163955575833400D-04  2.61012205397757800D-02
24 19  5.96016455243111900D-07 -1.75678507411755500D-06  2.58742911099345800D-06 -7.90284790723064600D-06 -1.76787375651428200D-02
24 20 -3.63343442462657700D-02 -3.28037247888326200D-01 -1.26010655645639700D-02 -2.58902215027364300D-02 -2.33820664048400200D-01
24 21 -1.45353120103750400D-03 -2.98832316478188500D-03 -2.69718439899680500D-02  2.53797280709569900D-05 -3.30644622519001700D-03
24 22  3.28106649711908100D-03 -8.98994883037961100D-04  3.73755482932711800D-04 -1.70291840079266100D-02  3.22659366491568800D-05
24 23 -4.04337816283624700D-03  4.01111222618714900D-03 -1.10017710881521700D-03  4.56123443886152800D-04 -2.08384077743339200D-02
24 24 -4.36681991042732600D-07  2.36502475029995600D-06 -3.10981066683869800D-06  5.30861867593532100D-06  1.76676400116669900D-02
24 25  3.73370786800973400D-02  3.28077253279618800D-01  1.25932639728765300D-02  2.66225758960884100D-02  2.33849962089502800D-01
24 26  1.45261128035685800D-03  3.06965416534569800D-03  2.69739888148949200D-02  2.53737131223421500D-05 -3.39828697735941300D-03
24 27  3.37291326423699600D-03 -8.97136057434119500D-04  3.77871453485939100D-04 -1.70129367114717000D-02  2.98052622440955500D-05
24 28 -4.16184001060712500D-03  4.13203474836303500D-03 -1.09808377277202100D-03  4.62024970423083200D-04 -2.08217163138836300D-02
24 29 -9.81147509996088400D-05 -6.00348192058424300D-05  1.03054595017413300D-04  2.15576205200890000D-04  1.89510383072379200D-03
24 30  1.05668099801041400D-04  6.39618326471904700D-05 -1.02612191726475400D-04 -2.09992353640776000D-04 -1.89155795338323400D-03
24 31 -9.89954997378821500D-05 -6.03212310041576800D-05  1.01202764491409800D-04  2.15622042904078800D-04  1.89820939913355800D-03
24 32  9.67692077709893200D-05  6.03340638736010100D-05 -1.00949775049001800D-04 -2.09714270702299300D-04 -1.88922114456550400D-03
25  1  1.69061203325282200D-03 -2.68694625416153800D-02 -2.50085487211634900D-02  8.92930077175495700D-02 -1.52685756464920400D-01
25  2  1.22494219334968800D-02  4.38577538382757200D-02 -4.55907050353348600D-02  2.66724365291040500D-03 -3.46397816715838100D-03
25  3  3.99356147584201600D-03 -5.29583308684006800D-04  3.00087277483583700D-04  1.39920305006756700D-04 -6.02759990502618200D-04
25  4  1.68985814888688400D-03 -2.68681111359135800D-02 -2.50438194263164500D-02  8.45243522819804800D-02  1.54338883787332400D-01
25  5 -2.19842985978630000D-02  4.24832628654465200D-02  4.64337177669314700D-02 -7.59893863777881100D-03 -3.44613804252201900D-03
25  6  3.98008380392606200D-03 -5.33945761404447400D-04 -5.33871432397364300D-04  2.32591584358275800D-04 -5.69590408999194000D-04
25  7 -1.68970783135943800D-03  2.68770616178764700D-02  2.50349256225840400D-02  8.45084714484693600D-02  1.54296230864468100D-01
25  8 -2.17985985474041600D-02  4.24456098572629600D-02  4.63952968882433700D-02 -7.40895960767764100D-03  3.43997075224004000D-03
25  9 -3.97855230308708300D-03  5.38581550847275800D-04  5.31247241556901100D-04 -2.43281040063369400D-04  5.55488885556084700D-04
25 10 -1.69144187511264000D-03  2.68628787919180800D-02  2.50249392356755200D-02  8.93090367936203900D-02 -1.52604891575789400D-01
25 11  1.24251617563220700D-02  4.38953844172008900D-02 -4.55583833869752500D-02  2.84616299970304200D-03  3.45600716451416800D-03
25 12 -3.98286117170518400D-03  5.26854007190922900D-04 -3.00714383541134600D-04 -1.51085066098050900D-04  6.14570042992056000D-04
25 13 -1.65082081818555600D-07 -3.49307015617172300D-07  8.18156151362544100D-06 -1.03151061402694600D-01 -9.89850367407825800D-04
25 14  5.66830331066003600D-03 -8.83806225698039500D-02 -8.51286769359626500D-04  4.85670138447116200D-03 -1.28701718007341900D-03
25 15  7.83189490739890500D-04  5.03827689333598700D-04  4.67326309912390900D-02 -5.26452574345527900D-03 -2.62050598372654400D-03
25 16  1.89178956338001400D-06 -9.24679088571081600D-06 -2.55083405415633200D-05 -1.03155108400847000D-01 -1.03302679303790800D-03
25 17  5.67461932612432600D-03 -8.83522530619690900D-02 -8.71814553388139300D-04  4.85954777708501900D-03  1.26383133718607800D-03
25 18 -7.76793845553032300D-04 -4.87037491633052500D-04 -4.67545919497469900D-02  5.07641932144006700D-03  2.61946319603155500D-03
25 19 -5.43845529859802800D-08  3.80091546735585800D-06  2.81280750048913500D-06 -8.88821797467561700D-06  4.02336767835111300D-01
25 20  3.94332422154024700D-03 -2.21252848199755400D-02  3.09959417609317500D-01  3.03017530553599400D-03 -1.70445425519833100D-02
25 21  6.16190812592149600D-02  5.98857350784860300D-04 -3.38813913442838300D-03 -2.05373489196294100D-04  1.27636179441711100D-04
25 22  7.77373097544159400D-05  7.48370070769229900D-03 -8.16745299426605100D-04 -4.19845614818322700D-04 -3.19956855173365300D-04
25 23  1.96717082795301100D-04  1.23239772377940800D-04  1.17595069225231100D-02 -1.27901708629775400D-03 -6.59085742894947300D-04
25 24  3.51700658124543800D-07  2.79343988208179700D-06  9.76015988986623800D-07 -4.44694154422864300D-06  4.02473292985615200D-01
25 25  3.86276043923917500D-03 -2.21181500542347700D-02  3.10063541655371100D-01  2.98077357561882000D-03 -1.70402116024116000D-02
25 26  6.16366173883903200D-02  5.94008681692282400D-04 -3.38750721729484700D-03  2.04827105072418100D-04 -1.24307270158834300D-04
25 27 -8.05198349135564800D-05 -7.48294578726717000D-03  8.38388779442594600D-04  4.19397158962784200D-04  3.23117270678940000D-04
25 28 -1.97422561303962900D-04 -1.25694709374978100D-04 -1.17642201777909400D-02  1.32223556889360100D-03  6.59777807552216200D-04
25 29  2.44580036456889300D-02  2.12057085520419900D-02  2.76648118831191400D-03  3.64153522512032300D-04 -1.84753591542851300D-04
25 30  2.44606602088678700D-02  2.12091259113854000D-02  2.77715919975143200D-03 -3.10530569979922400D-04 -1.09453756282690300D-04
25 31 -2.45089305256944700D-02 -2.12345421855860700D-02  2.78074080245872600D-03 -3.10854282634376900D-04 -1.20072383633074500D-04
25 32 -2.44540519468769800D-02 -2.12145616913188500D-02  2.76607610546124500D-03  3.67163316402727100D-04 -1.95839060115947200D-04
26  1  1.33061344743187500D-03 -5.73349232576120200D-02 -1.39403376802993900D-01  1.66712772329608700D-01 -3.23702794398718400D-02
26  2 -5.18885631868661300D-03  9.53788137222995200D-02  5.17411020282334500D-02 -1.08977202212144900D-02  1.12185672960413800D-03
26  3 -1.75820007748999900D-03  6.36343347885936200D-04  2.34850551065254400D-02 -2.68855001201720700D-03 -9.73363506751878500D-04
26  4 -1.33064462693153700D-03  5.73414110176270900D-02  1.39455636553032200D-01 -1.65703641660928200D-01 -3.57060765951938200D-02
26  5  1.28785758826759700D-02 -9.70224690676715400D-02  4.98277147238292800D-02 -3.54756009028669000D-04 -2.39085249419722300D-03
26  6  2.53591976957445800D-03 -1.45067275377307200D-04  2.33596154428744700D-02 -2.49496086057407300D-03 -1.62452515031063700D-03
26  7 -1.32947290960987100D-03  5.73113872079959500D-02  1.39406231736051200D-01  1.65636395573372000D-01  3.56410070500066200D-02
26  8 -1.30633964957052800D-02  9.69906539499794000D-02 -4.98626545187377300D-02  3.38801533277547300D-04 -2.39370632044464000D-03
26  9  2.53145590825055800D-03 -1.37749587805703100D-04  2.33591448454653500D-02 -2.50800600457671500D-03 -1.65378858783371000D-03
26 10  1.33156339968487800D-03 -5.73357780570973600D-02 -1.39433384628501000D-01 -1.66740532509265900D-01  3.24361451500848700D-02
26 11  5.43029735758857600D-03 -9.54098203388876300D-02 -5.17318390860476200D-02  1.09589508347457300D-02  1.12665530552633800D-03
26 12 -1.76635326646884500D-03  6.39697960942311800D-04  2.34864098195452200D-02 -2.67683954193858900D-03 -9.97628175107196500D-04
26 13 -1.19901250880493000D-06 -1.95370330514302300D-07  2.11375788876366000D-05 -1.71172710957261000D-01 -1.65973390978666800D-03
26 14  9.40215312563799600D-03 -1.08410671400544500D-01 -1.05990445035874400D-03  5.95482939310220700D-03 -1.47817833959714800D-03
26 15  8.98103122928452200D-04  5.80075216668820400D-04  5.40809405377127500D-02 -6.05096958425732300D-03 -3.03352992427648700D-03
26 16 -1.35240649196413300D-06 -8.81170269978720100D-06  9.80784766565649300D-06  1.71193907182062700D-01  1.67101146425361100D-03
26 17 -9.42040203137735900D-03  1.08437320950521900D-01  1.07364841486035000D-03 -5.96982095227107500D-03 -1.46237907040853900D-03
26 18  8.95693677902892500D-04  5.66685392505414200D-04  5.41136240983571300D-02 -5.91194680800752600D-03 -3.02882307515870000D-03
26 19  1.47465066498096300D-07 -4.35733680718615600D-06  1.87089464477756100D-07  1.78247236423687100D-05 -3.44762880022298400D-01
26 20 -3.38745822902096400D-03  1.89380981763987400D-02 -2.62864319514118300D-01 -2.57451295761724800D-03  1.44386275136643300D-02
26 21 -5.52157908365973700D-02 -5.33710839031967100D-04  3.03287420364545000D-03  1.14893696147509000D-04 -7.19368851419014400D-05
26 22 -4.29568110056380200D-05 -4.17631353733587300D-03  4.54692932365852300D-04  2.33543917178029800D-04  1.46667590044327400D-04
26 23 -9.04185500807520700D-05 -5.62490399636527600D-05 -5.36361645456761000D-03  5.85245227762688200D-04  2.99522765196624000D-04
26 24  2.30999205760317000D-07 -1.36345058739382800D-07  1.83533004605123200D-06  4.08556520458397600D-06  3.44722085723208600D-01
26 25  3.32699294197530400D-03 -1.89657537554251800D-02  2.62827448735264400D-01  2.53530295218135100D-03 -1.44598234887719200D-02
26 26  5.52055893928801500D-02  5.30372288188273700D-04 -3.03639638722221600D-03  1.14814854609164100D-04 -7.00587089273798000D-05
26 27 -4.47561456818606700D-05 -4.17347333735345200D-03  4.68897793521901200D-04  2.34826634151674000D-04  1.47018567812637600D-04
26 28 -8.91504623278415400D-05 -5.78681054847962600D-05 -5.36346093204464400D-03  6.00269199219310700D-04  3.01664921885834300D-04
26 29 -9.66676699281022900D-02 -3.94674153627466400D-02 -8.06005111076994800D-04  3.30218983608528500D-03 -3.28546944035015100D-04
26 30  9.67038231418697700D-02  3.94852263050329900D-02  7.02981985905472200D-04  3.31583653911623500D-03 -4.11138281115548000D-04
26 31  9.66754666067264900D-02  3.94662590042394000D-02 -7.01656091623517500D-04 -3.31436550995808000D-03  4.11652043864308300D-04
26 32 -9.66641248538138700D-02 -3.94532502094797800D-02  8.05268476911135400D-04 -3.30399241920584400D-03  3.28993143249173100D-04
27  1  9.27187417503112600D-06  4.49793176987214200D-05 -2.01178867309752700D-05  2.88617039775035100D-03  6.16949445379102900D-03
27  2  5.54868853876316300D-02  1.82524252401285400D-03  3.79878399836963000D-03  3.38124256574345600D-02 -1.11346167156987200D-05
27  3 -3.22810198698228700D-04  3.33944815413694100D-04 -9.23247282322360600D-05 -1.76629418199655400D-05 -1.69028759864024000D-03
27  4  8.97202425684419700D-06  4.23348709632254400D-05 -1.72465665874926800D-05  2.89976773461153400D-03  6.29112665615114700D-03
27  5  5.54537182041622800D-02  1.83117900557250900D-03  3.78596671144157700D-03  3.37974817153385000D-02 -1.55206526112162200D-05
27  6  3.42729559095397100D-04 -3.27208906484226700D-04  7.75205663464287600D-05 -8.76235088792985700D-05  1.68815726922669400D-03
27  7  4.94565974056887200D-06  5.00603723172875700D-06 -1.13907460448799300D-04 -1.88618223488446100D-02 -3.88233994050309100D-02
27  8 -3.45708207753719000D-01 -1.46307906302811800D-02 -3.00383365050576200D-02 -2.67261317069885500D-01 -5.53608773598228600D-04
27  9  6.13350403862241100D-03 -5.57989526502415000D-03  1.05480153830125700D-03 -6.04624489023058000D-03  3.11536320210154700D-02
27 10  5.34561404670750600D-06  1.87367122594395700D-05 -8.88197114661262000D-05 -1.88495809848477000D-02 -3.88684980000646100D-02
27 11 -3.45726197785438600D-01 -1.46282719879534900D-02 -3.00100917892531000D-02 -2.67294047868735200D-01 -4.59891425236691500D-04
27 12 -6.15171216062653700D-03  6.61160358586317900D-03 -2.26971248035423300D-03 -4.67232098051359800D-03 -3.11857593258409600D-02
27 13 -9.74385587658310500D-06 -1.56187890859392800D-05  1.21397148683705400D-04  1.97565851415494600D-03  4.11691569009555100D-03
27 14  3.65023731645034400D-02  1.35097923499334700D-03  2.75452598765524000D-03  2.53833214755145900D-02  1.64870666003072500D-03
27 15  5.34456231956669000D-03 -6.99326897959737200D-03  3.44389172670007000D-03  1.71764052009237500D-02  2.68015738673524900D-02
27 16 -9.83501486265868900D-06 -1.65125371449882200D-05  1.22365464051877600D-04  1.96148255188400100D-03  4.07894567367822000D-03
27 17  3.64711235383950400D-02  1.32592235269393100D-03  2.93468560732559100D-03  2.53480565024134800D-02  1.73077928267921400D-03
27 18 -5.20061175073406300D-03  3.46983246805481900D-03  5.73228839409804600D-04  1.83631816656191800D-02 -2.67163148076778500D-02
27 19  6.54243686869793500D-07 -1.25090683432095700D-05  6.84282469928665300D-06  5.70795052128069100D-05  1.03900934587183700D-02
27 20  2.07365324698177100D-02  1.88020852537416600D-01  8.24208375426868800D-03  1.64388792829284700D-02  1.48889643154870100D-01
27 21  1.59363091472788400D-03  3.20726766554756300D-03  2.88716755613170200D-02  6.93708017634594500D-05  1.17853057581953600D-03
27 22 -1.24790137758297400D-03  4.18119978801594500D-04  6.77488368377407700D-04  6.08251400453027900D-03 -1.96308059942258700D-04
27 23  2.27303069403776700D-03 -2.07672263409615200D-03  4.24000620240324200D-04 -2.14827241171227900D-03  1.17223436852181600D-02
27 24  2.38890949032590400D-07 -1.14905316912123200D-05  1.30174545949556600D-05  5.81780062874408100D-05  1.03432771343849600D-02
27 25  2.14798180989792000D-02  1.87927158439274600D-01  8.20351220387801300D-03  1.69928020489518600D-02  1.48821743682378200D-01
27 26  1.58564455473627400D-03  3.27619503076939300D-03  2.88644651319971200D-02  8.75957082442620000D-05 -1.21427441865540700D-03
27 27  1.12667871041117500D-03 -2.32935430004972700D-04  9.46914119724361900D-04 -6.06675538961394800D-03 -1.60180893655447300D-04
27 28 -2.34608362850171800D-03  2.50626452215716400D-03 -8.48374017463226800D-04 -1.62701733950441900D-03 -1.17216098045686300D-02
27 29  2.51633863001916000D-05 -3.32739118541084800D-06 -6.33988119569402900D-04 -1.30849247075617300D-03 -1.16444841816657800D-02
27 30  1.78311406225440600D-05 -3.83223442630528700D-06 -6.34255993765023400D-04 -1.30902628815775100D-03 -1.16459904590193100D-02
27 31 -6.44858589837624100D-05 -6.62021158863344200D-05  1.30681564949664700D-04  2.80045305249576800D-04  2.45023488768578200D-03
27 32 -5.71361785333529500D-05 -6.40639880708651800D-05  1.31326558972747700D-04  2.70621237480953400D-04  2.45038674504686600D-03
28  1  5.49063771382597700D-06  1.06295225862230900D-05 -1.17932303754535100D-04 -1.82940256209995600D-02 -3.86591621172463500D-02
28  2 -3.44309717038427200D-01 -1.41102863529557200D-02 -2.99323544293670500D-02 -2.66477102050107700D-01  4.50462962603758400D-04
28  3  6.14531259631421200D-03 -6.59577555891814500D-03  2.23870899144367200D-03  4.67648673450980100D-03  3.11535235064643200D-02
28  4  5.26044740886095200D-06  1.28746461232035700D-05 -8.92392209408655300D-05 -1.83721489644832100D-02 -3.86889894559152600D-02
28  5 -3.44297405292328400D-01 -1.41597979580334800D-02 -2.98969377153272300D-02 -2.66473372421763400D-01  5.42078921538299100D-04
28  6 -6.12290191950895400D-03  5.58082299797068800D-03 -1.01471442015122300D-03  6.04433690128082300D-03 -3.11155714356962900D-02
28  7  9.39428191643406900D-06  5.14352859468067800D-05 -1.34711128663051400D-05  2.56828263861702600D-03  5.06859663218056200D-03
28  8  4.56184151985199300D-02  1.40519885233033100D-03  2.94136223427798300D-03  2.61878123059062000D-02 -1.71146984460934500D-05
28  9 -1.47333489824652900D-04  1.64448188270690700D-04 -5.51192724887458800D-05 -8.20065327047759300D-05 -8.00440967042070000D-04
28 10  9.19925436719490800D-06  3.51321502371777800D-05 -3.43781843912697400D-05  2.52463406227304300D-03  5.19226090625012900D-03
28 11  4.55949649362958500D-02  1.39088892845053000D-03  2.93265447273204600D-03  2.61799364481019700D-02 -1.90093188188421200D-05
28 12  1.67567604687690900D-04 -1.48558285868816600D-04  3.70788260041544500D-05 -1.19658788402887400D-04  7.98979689823311400D-04
28 13 -1.02675811826537900D-05 -2.20608149628722600D-05  1.17418192057024900D-04  1.99281867916040900D-03  4.23998854562781600D-03
28 14  3.75404128590491700D-02  1.41231124171811200D-03  2.83351528165982200D-03  2.61108213329714100D-02 -1.63096509896941000D-03
28 15  5.43358017803538600D-03 -3.80261507906591200D-03 -5.19349194327904100D-04 -1.78888308388392200D-02  2.74679480638457100D-02
28 16 -9.84997712488502400D-06 -1.10250627804408500D-05  1.32500352988885600D-04  2.04705475899925400D-03  4.20016145865941300D-03
28 17  3.75042678875912200D-02  1.45169124522600800D-03  3.01568232069352900D-03  2.60485584631549600D-02 -1.55130228404709300D-03
28 18 -5.41173578187324900D-03  6.96303806592030100D-03 -3.37888310284659300D-03 -1.66725391161988700D-02 -2.75979246320591900D-02
28 19  6.91650657881300900D-07 -1.22389356088118000D-05  6.32231273108958500D-06  5.62787798082618100D-05  1.01549208325468400D-02
28 20  2.13187858771389100D-02  1.93371142646724300D-01  8.02808220638581000D-03  1.69000154362833300D-02  1.53135845717352600D-01
28 21  1.55993400248943600D-03  3.29657782724642000D-03  2.96941362143039100D-02 -8.04113057973926000D-05  1.20854465525032300D-03
28 22 -1.12813334945293400D-03  2.35857090614655000D-04 -9.25639308528269400D-04  6.24909335626234200D-03  1.52953418274242700D-04
28 23  2.34429088131582800D-03 -2.49724429958990500D-03  8.27061180343324000D-04  1.57376252122096200D-03  1.20721545000616300D-02
28 24  2.11795386984071000D-07 -1.20153513204331200D-05  1.41854188806307300D-05  6.07021372502056000D-05  1.02277488900371000D-02
28 25  2.21031732364828300D-02  1.93459781597895100D-01  8.08780615444825200D-03  1.74861523834105600D-02  1.53209376808246900D-01
28 26  1.57542257915529000D-03  3.37176528763400200D-03  2.97182046409790800D-02 -6.21895199370348600D-05 -1.25245351451697100D-03
28 27  1.31464303445414400D-03 -4.14140567237307800D-04 -6.50969489881320000D-04 -6.24988127627372400D-03  1.88118985674392300D-04
28 28 -2.40720748105084000D-03  2.21908849537645400D-03 -4.12062134222715800D-04  2.10253528619746200D-03 -1.20536754364212200D-02
28 29 -7.23824302504148800D-05 -7.25362933770759700D-05  1.14887073576163600D-04  2.43107684114929900D-04  2.11804781356763400D-03
28 30 -4.68817942202691600D-05 -5.64228773029133400D-05  1.15275229817970100D-04  2.33855023769985200D-04  2.11864838153697500D-03
28 31  3.84074404150703300D-05  4.77217982610804400D-06 -6.16989283470655100D-04 -1.30132338329693700D-03 -1.15835365769366800D-02
28 32  1.12853124052137500D-06 -1.75994665367505600D-05 -6.18653482640720300D-04 -1.30139836479577400D-03 -1.15833645967663500D-02
29  1 -1.06065408294724300D-05 -7.22802875821191400D-05 -5.85315248713485900D-05  9.57631696988074100D-03  2.01052826624455600D-02
29  2  1.78960303879048800D-01  1.31016205162440300D-02  2.74761775119586500D-02  2.44915568774619700D-01 -1.23148124451443800D-03
29  3  3.26207043733328400D-03 -2.03058919281828000D-03 -5.95433491805725800D-04 -1.31435522307271500D-02  1.64927762595428500D-02
29  4  1.01236096623256600D-05  7.19171957127147200D-05  6.94841991709296000D-05 -9.59929994686608200D-03 -2.01067886905310900D-02
29  5 -1.79022370095662500D-01 -1.31415346876834700D-02 -2.75537867674835700D-02 -2.45001986369300900D-01  1.18490898531408600D-03
29  6  3.25389044574312600D-03 -4.43879943105734600D-03  2.29573480420497100D-03  1.24107059439601500D-02  1.65848965315158600D-02
29  7 -1.08248753526467600D-05 -7.24992464464412400D-05 -5.89077377122596000D-05  9.70808804617099900D-03  2.01203686928692900D-02
29  8  1.79003552875996000D-01  1.32941591129131000D-02  2.74925860786803100D-02  2.44993402138263300D-01  1.15983236742842700D-03
29  9  3.31040136015124600D-03 -4.47023372757912100D-03  2.34036120386959200D-03  1.24111293070177200D-02  1.65766275963843000D-02
29 10  9.95727983683760800D-06  7.34507005195931800D-05  7.05101507346449100D-05 -9.70193904024879900D-03 -2.01130744745989900D-02
29 11 -1.78981369095319600D-01 -1.32722936751091600D-02 -2.75547813414131500D-02 -2.44957057732825200D-01 -1.20809209704736100D-03
29 12  3.20851650769582500D-03 -2.00042441064837800D-03 -5.49454985539003100D-04 -1.31453633311023900D-02  1.65033027449413800D-02
29 13 -1.19137024086907900D-05 -6.41811750080775300D-05 -2.40217978191163400D-04  1.12921968201789700D-02  2.39079224453442200D-02
29 14  2.09674854848169500D-01  1.10069419798159600D-02  2.30556315724078500D-02  2.04345931832914800D-01  5.70099058250445000D-06
29 15 -6.92387191778329100D-03  6.91817092720106200D-03 -1.83936171496519300D-03  7.76986015622547100D-04 -3.48539476552490100D-02
29 16  1.29140127982367900D-05  5.72022909092553000D-05  2.19978951143728900D-04 -1.13031418601401200D-02 -2.31964708146716700D-02
29 17 -2.09704873754824700D-01 -1.10141426232543100D-02 -2.28765332044098500D-02 -2.04327111480492400D-01  9.76686419163207600D-05
29 18 -6.81483937207260200D-03  6.71717073015643600D-03 -1.84121621808415200D-03  7.62649247339962900D-04 -3.48972675218658700D-02
29 19  5.62036735888607400D-06 -4.40548051613191800D-05 -1.92953542273171300D-04 -3.21247231172296200D-04  1.33797186132096800D-02
29 20  2.73948219441002800D-02  2.48168081607377500D-01  1.36103716375679700D-02  2.78409942399734100D-02  2.52433060733769100D-01
29 21  3.96077387570941200D-03  7.79142408431733900D-03  7.34421290521597400D-02  4.18443788581289400D-06 -1.61003075565337200D-04
29 22  1.56818637679643900D-04 -4.32090318405952700D-05  1.75531434816784500D-05 -8.20352001301914700D-04  9.36294252139175700D-06
29 23  5.41109570434274700D-04 -5.50472512955739800D-04  1.54023361580149100D-04 -6.47432039254127700D-05  2.90871242068649000D-03
29 24 -5.17648561407328500D-06  4.34535509420767200D-05  1.80732491222292600D-04  2.83527616358282100D-04 -1.33604497277847500D-02
29 25 -2.83327884281608700D-02 -2.48093971045693600D-01 -1.35891124917784900D-02 -2.88379549677957400D-02 -2.52344427686558300D-01
29 26 -3.94880908509580100D-03 -8.66756257460061400D-03 -7.33786975621034800D-02 -1.75037231265639800D-06 -1.62078994089620500D-04
29 27  1.63829366401990500D-04 -4.33371895387073600D-05  1.84729596232062200D-05 -8.20638591104857500D-04 -1.72896975670971700D-05
29 28  6.01625736066595500D-04 -5.84336038499495300D-04  1.52526400219588200D-04 -6.44254817754467600D-05  2.90129630310535600D-03
29 29 -1.98184604946087000D-05 -8.36983882363630000D-05  4.13520349542890500D-04  8.51940107812671000D-04  7.61080354646476300D-03
29 30  2.53791265482375900D-05  1.07962078022317000D-04 -4.13335428095002000D-04 -8.58684218057134400D-04 -7.60901229367346800D-03
29 31 -1.60886276164666300D-05 -8.44310469331243800D-05  4.06388738505304100D-04  8.51305194688767900D-04  7.60959634151472900D-03
29 32  2.90928247243521600D-05  1.05308665089613700D-04 -4.07427622084705100D-04 -8.58251287358599500D-04 -7.61251254827819600D-03
30  1 -2.64880565919131900D-05 -5.41011761681119500D-05  9.98881281971750900D-04 -1.39962264834586500D-02 -2.96960020664263600D-02
30  2 -2.64024927595953000D-01 -2.75088424210503700D-02 -5.84294991364234100D-02 -5.15425575280617900D-01  3.30246649342905300D-04
30  3 -4.29139209072373600D-03  3.96114544138065300D-03 -7.70740293189647700D-04  3.78779936420836400D-03 -2.19311244909560300D-02
30  4  2.60489974471663900D-05  6.26908965698011300D-05 -9.83231740866816200D-04  1.40314829248117100D-02  2.96132390782246900D-02
30  5  2.64120193455441500D-01  2.76242894008747300D-02  5.73761310086411000D-02  5.15715130625219200D-01 -2.66326474411134700D-04
30  6 -4.34904275700690700D-03  4.61536923141783700D-03 -1.51077104051565500D-03 -2.79903026859781700D-03 -2.19297599576550500D-02
30  7  2.48344815498555200D-05  5.83654951461352700D-05 -9.18937607947582900D-04  1.44475971327279700D-02  2.97185059296914900D-02
30  8  2.64050012217766300D-01  2.80102510394617500D-02  5.84608270769247900D-02  5.15529404264399100D-01  2.84082787375671700D-04
30  9  4.30276892486149600D-03 -4.58685171223715900D-03  1.54517101106005500D-03  2.80015103965075000D-03  2.19368788474347000D-02
30 10 -2.56514693539124000D-05 -4.85716859804970800D-05  9.98819632689265500D-04 -1.44415969517159000D-02 -2.96215959718138200D-02
30 11 -2.63973355937360100D-01 -2.80374323892430900D-02 -5.74201596131386200D-02 -5.15480673923735600D-01 -3.54541702265548600D-04
30 12  4.34147809175403800D-03 -3.98693638948836100D-03  7.97556270664324700D-04 -3.79203962423348800D-03  2.19197498099475600D-02
30 13  1.68794302067001700D-07  2.30857269986741800D-06 -1.75162067964694400D-05  3.21540001354042900D-05 -1.74171807163650200D-05
30 14 -1.46625763400083200D-04 -4.72467372765217700D-04 -4.31766961868509700D-05 -2.05223730892181900D-04 -3.40345685141947000D-03
30 15 -7.05096033619242200D-05  3.47396645478143100D-03 -4.15423623749615300D-03 -3.63891728590220000D-02 -1.14826766036274200D-04
30 16 -5.96750791784827000D-07 -1.77385821309087600D-06 -2.46646109236732200D-07 -4.37110928396627900D-05 -2.25645015096605300D-05
30 17 -1.81338731416525900D-04  5.07928031766866100D-04  1.64846069010324200D-05 -3.13162585580671100D-04  3.41118758782189600D-03
30 18  6.18439306536643900D-05 -3.47303151847572000D-03  4.08122256895025900D-03  3.63950644430260400D-02  1.20019181917601800D-04
30 19 -7.70515742207087900D-07 -4.17086522449715200D-06  6.81030418571978700D-06  4.52344153198194300D-05  2.16889855971322800D-04
30 20  7.59674635521590200D-06  8.24077256972684600D-05  1.35064889542652000D-04  1.77978728453541500D-05  9.57852355838472400D-05
30 21 -4.17263943558941800D-04  3.61369739707033800D-05  2.30613393051599600D-04  9.56296157222961400D-05  9.09480325177220100D-07
30 22 -9.65390960474435600D-05  1.25553606930376400D-04  1.02306848721339000D-03 -3.19107824555751600D-06  1.55841099129371900D-03
30 23  3.26372435914552900D-05 -1.59104823488506900D-03  1.77501492610257600D-03  1.66316706256389100D-02  7.53861871469065600D-05
30 24 -4.10404088962881500D-07 -3.03366174537649500D-06  7.70632025403185500D-07  2.77172383723729200D-05 -2.01634868383531000D-04
30 25  1.27679883126571600D-05  1.00028352973178000D-04 -1.28258347222964600D-04  7.40268559300074100D-06  1.09468854886874700D-04
30 26  4.28402537743815900D-04  1.10663446400901900D-05  1.34663856704143500D-04 -9.61118924479699600D-05 -8.74622079852196400D-07
30 27  9.69865145279160400D-05 -1.06230271283409800D-04 -1.02551321615159500D-03  7.22768582722497200D-07 -1.55331740601874400D-03
30 28 -3.34274850450728200D-05  1.58674489106381500D-03 -1.98336300554431400D-03 -1.66068080037352800D-02 -6.17422979723420000D-05
30 29 -5.71889758710292000D-05 -4.93814622552871700D-05  7.72409394896174100D-04  1.57192472124446800D-03  1.40220786963591100D-02
30 30  4.63324380678127200D-05 -2.14603151298101500D-05 -7.72253652380019700D-04 -1.57881463499490100D-03 -1.40136093858921100D-02
30 31  4.10436528056627500D-05 -1.25311283295393000D-05 -7.37753400116763400D-04 -1.57029807571980900D-03 -1.40192629978128200D-02
30 32 -7.06716478706867900D-05 -8.58641539872970900D-05  7.39682141717982800D-04  1.57903868325815700D-03  1.40254594213886000D-02
31  1 -1.57020718245894400D-04  6.66945744269453400D-04  6.73612360885670600D-03 -3.33240642615997600D-03 -7.79033430242627600D-03
31  2 -7.46715579292761400D-02 -5.95398471789863300D-03 -1.66164232476917100D-02 -1.74798872309448800D-01 -2.49850972244900400D-03
31  3  2.18529706776774600D-03  3.13212654681320900D-04 -2.42179804586453500D-03 -2.57736950598728500D-02  1.07426647224537200D-02
31  4 -1.60211517567084200D-04  6.36046819601352000D-04  6.76233305640380800D-03 -3.30604118382049000D-03 -8.90851393371842900D-03
31  5 -7.42900061835945100D-02 -6.03507760517689300D-03 -2.23052051980224000D-02 -1.73514996292082600D-01 -2.47501188424252900D-03
31  6 -2.08075170616165700D-03  4.55576359040426800D-03 -3.36755447458115700D-03 -2.53201698919920000D-02 -1.09680075992974700D-02
31  7 -1.57998028143976800D-04  6.64873879049539900D-04  6.77229796161212200D-03 -4.71115989445699000D-03 -7.77733368471826800D-03
31  8 -7.43700878619831800D-02 -1.28525771288611700D-02 -1.66335568352429100D-02 -1.73856569021778100D-01  2.27961915587451600D-03
31  9  2.29005831409235400D-03 -4.56967746996683400D-03  3.56284434705632400D-03  2.53098912370936500D-02  1.09301032601014400D-02
31 10 -1.61655685069419000D-04  6.41045837230714900D-04  6.80434184223325900D-03 -4.71705875449210200D-03 -8.95661793380710600D-03
31 11 -7.44523453504028500D-02 -1.27241117522372900D-02 -2.24849230877044300D-02 -1.73734334350092100D-01  2.31561773987110900D-03
31 12 -1.98652143542894100D-03 -3.29096304442034500D-04  2.21673449158510900D-03  2.58100938930143500D-02 -1.07648568817223500D-02
31 13  4.60023233469198000D-05  2.54846492484442300D-05 -1.31975750062409200D-03  1.68125721355634300D-02  3.57760694243349200D-02
31 14  3.12240075906125900D-01  3.63987263917525100D-02  7.48320985466728600D-02  6.75366471869134600D-01  2.56046816508474200D-04
31 15 -2.28003716385492000D-03  2.02399034734652500D-03 -5.17253917880235900D-04  1.91073245109044500D-04 -9.87939862010604700D-03
31 16  4.65512160276859800D-05  4.11155346856987900D-05 -1.55118166217614100D-03  1.68443281311331400D-02  3.43866365424629300D-02
31 17  3.12423017693269900D-01  3.63646913784110600D-02  7.68714435587667200D-02  6.75220177955178500D-01  2.29107253552787500D-04
31 18  1.62335993164825000D-03 -1.85246718520088300D-03  5.35644656095292800D-04 -2.12875251310757500D-04  9.98714328422808600D-03
31 19 -7.49596933476698300D-05 -2.05511574530672300D-04  1.00705905867356600D-03  1.77005486661807400D-03 -7.71730208818711700D-03
31 20 -1.64138204414527700D-02 -1.43245081728403300D-01 -9.21333629023245300D-03 -1.90108148482295800D-02 -1.70941658237931900D-01
31 21 -2.97810393649123100D-02 -5.96629639079227500D-02 -5.52301677922775100D-01 -2.56530887426373100D-05  2.94956345065854700D-03
31 22 -2.92391036191587400D-03  8.00197517538738400D-04 -3.32031684296168500D-04  1.51595804778186600D-02  3.96249699427290300D-05
31 23 -6.84931305710473900D-03  6.80968808716207400D-03 -1.86638536116986800D-03  7.86272674626432800D-04 -3.53780325656199200D-02
31 24 -7.20587509218314100D-05 -1.87163294554850700D-04  1.00479358961113600D-03  1.57967158333763600D-03 -7.72384425828518300D-03
31 25 -1.57655739586430600D-02 -1.43290383075251700D-01 -9.20754137391172600D-03 -1.93106068854006600D-02 -1.70858007657738600D-01
31 26 -2.96840858647791000D-02 -6.42857831555679600D-02 -5.51629703398048600D-01  1.92127530784941300D-05 -3.01778332606651500D-03
31 27  2.99857057298835100D-03 -7.98290286831199300D-04  3.35551711689673900D-04 -1.51377182084087900D-02 -5.93073952331920200D-05
31 28  7.06241224705862700D-03 -7.00310485182539700D-03  1.86112703366594100D-03 -7.93496517881580400D-04  3.53150200207464900D-02
31 29 -6.42908096722807800D-04 -9.77998008990446100D-03 -4.63892333182968200D-04 -8.05592061203287900D-04 -7.68012914903689100D-03
31 30 -6.43484946777656200D-04 -9.71786395407298900D-03 -4.63478444512786500D-04 -9.21853642149903800D-04 -7.67954570906119500D-03
31 31 -6.44296052095410800D-04 -9.79038950345034900D-03 -3.65869072221496200D-04 -8.05322851853590800D-04 -7.69823240010701900D-03
31 32 -6.33696044016565800D-04 -9.58393380117310500D-03 -3.63914365819882300D-04 -9.17894497858852700D-04 -7.67183713731167100D-03
32  1  1.76261467289568200D-02 -6.13083732068521500D-02 -7.15518324457465700D-01 -6.85394789997578100D-02 -7.25297426266425700D-02
32  2  1.11590010354524400D-02 -3.33977022327601700D-01 -3.13171571697812400D-01  5.11838290925279000D-02  6.00565685516123600D-03
32  3 -7.51440202217405200D-03  1.50874516701269600D-03  3.22692421389308700D-03 -8.87722416909020100D-04  1.09478359098086900D-03
32  4  1.76347927764461800D-02 -6.13195838806429900D-02 -7.15969991201489100D-01 -7.08005846459760900D-02  7.10465014141842100D-02
32  5 -4.81687088635487100D-03 -3.43622629446520300D-01  3.06091639973138400D-01 -1.77341038990085100D-02  6.16148929395591600D-03
32  6 -7.64453255871829400D-03  1.48304326476267300D-03 -2.84204006401211000D-03 -2.10931732172378900D-04  1.25118289738954100D-03
32  7  1.76562255993249900D-02 -6.14025785640918600D-02 -7.16673591844998300D-01  7.10965769184282300D-02 -7.13161928291287400D-02
32  8  3.52399081450867600D-03  3.44699413018806900D-01 -3.07293737900348500D-01  1.40435363795291800D-02  6.19934350592859500D-03
32  9 -7.60262535493074500D-03  1.40328184900224000D-03 -2.79436012324684500D-03  2.71656081289408100D-04  1.43877873665393200D-03
32 10  1.76651662716405700D-02 -6.13531080610432000D-02 -7.17042917995284200D-01  6.88390106673386600D-02  7.24970244355645900D-02
32 11 -1.25362160080490400D-02  3.34782212382453700D-01  3.13072267555621100D-01 -5.51853656253875500D-02  6.02981321969076900D-03
32 12 -7.54435248281418900D-03  1.51453926312372200D-03  3.28485365503372100D-03 -3.96076948992432300D-04  9.17332255624647200D-04
32 13 -3.12878313310336300D-03  1.28305081238407100D-03  2.90844759350608900D-02  6.35899070011370100D-04 -2.65231157277467300D-02
32 14  5.95525695579178100D-03 -1.52098119283064400D-03  1.45035090450348600D-01 -9.30772705800590400D-03 -2.06730055642507700D-02
32 15  2.12296726074077200D-02 -5.56667043156905000D-04 -6.14132597379664500D-04  1.30620946597958200D-03 -2.92155260953149100D-03
32 16 -3.13709006016962000D-03  1.26496631984479400D-03  2.91131298826740500D-02 -1.68546560034931500D-04  2.71671817752637400D-02
32 17 -2.19642633694205900D-05  3.01486171447222900D-03 -1.43157394630678100D-01  2.28382725854870400D-02 -2.06593177900654600D-02
32 18  2.12524418462727200D-02 -5.93124056206917400D-04 -6.29142234430305200D-04  1.30706302502999800D-03 -2.72516279949292300D-03
32 19  6.18305051849977900D-03  7.47556755030654800D-03 -1.06237957696182200D-01  2.74850376616850900D-03 -8.37816304924131000D-04
32 20  5.22869061755475600D-02 -6.94264355213304800D-03 -8.34698525806592300D-04  5.38647552387205000D-02 -7.34615141941264100D-03
32 21  9.86148493835240300D-04 -1.24408688740288700D-01  7.26735216835511900D-03  5.78396423177768100D-04 -6.49586897661965500D-04
32 22  7.11904744841458500D-05  4.14258833893415500D-05 -3.63702590383852600D-05  2.64700188663996000D-04 -4.88114548947441100D-03
32 23  7.64309767565836100D-03 -2.76195218618390500D-03 -2.69520708806447100D-04  1.56791349335258400D-04 -1.77268734732430300D-03
32 24  6.18932602294905900D-03  7.50048216236855400D-03 -1.06298965606066600D-01  2.47558664788625500D-03  8.32690594476476600D-04
32 25 -5.25433237795294200D-02  4.74237836985878200D-03  8.79933862079916000D-04 -5.40959199783938000D-02  4.69002453635065800D-03
32 26 -2.94622247560257600D-03  1.22928705401097400D-01 -2.02639819375304800D-02  5.80544363308303700D-04 -7.17135661057610400D-04
32 27  1.36591297749130800D-04 -2.42996951020412500D-06 -2.61688360742734300D-05 -5.94652126257490400D-05 -4.87945751915873500D-03
32 28  7.79865973482715200D-03 -2.91920221566848900D-03 -1.54720882801089200D-04  1.28808698953213300D-04 -9.79726384649520100D-04
32 29  4.27008574649083400D-02  1.00033584971061900D+00  6.27741146077690700D-03 -7.14690810659809400D-03  3.85501694912400100D-04
32 30  4.26747916549126600D-02  1.00014521531197400D+00  6.05398595196898600D-03  7.24983480833986600D-03 -1.22174360874704200D-03
32 31  4.26137841814814200D-02  9.98139650905213300D-01 -6.04014251867607200D-03 -7.25978266186818000D-03  1.06002744113630700D-03
32 32  4.26127818754901500D-02  9.98181426574318000D-01 -6.26976917262400700D-03  7.12757930583293700D-03 -5.41539852014798900D-04
33  1  1.06876838584751200D-02 -2.40521445126460200D-02 -4.22222480435751000D-01 -1.17955811741067100D-01 -4.11288165958609000D-02
33  2  1.09329419527312100D-02 -4.08202070356532500D-01 -1.95537506410556700D-01  4.37556332226159600D-02 -7.10075794969499600D-03
33  3  2.21289828388020300D-03  4.88785966581477900D-03  1.22572161691141200D-03  6.03882318949357700D-04  2.86192714496132800D-04
33  4  1.06822206879746700D-02 -2.40691841588084400D-02 -4.22243461281714500D-01 -1.19257821929527400D-01  3.88317447775661500D-02
33  5  2.02762613975722600D-03 -4.14546617999269600D-01  1.87465343554368400D-01  1.14494174753245500D-03 -7.04070529962326100D-03
33  6  2.18405987646337600D-03  4.85664542315987500D-03 -1.38287950198818500D-03  8.94969391357063500D-04  4.32745558236582300D-04
33  7 -1.06342076135670500D-02  2.38859105465714400D-02  4.20161459295205200D-01 -1.19048196142811900D-01  3.86455190008253000D-02
33  8  2.12366873597161800D-03 -4.13238926989365300D-01  1.86719842672009100D-01  1.48820171342324300D-03  7.04288796594453600D-03
33  9 -2.19621988679416400D-03 -4.84666807915010800D-03  1.38973207115323200D-03 -9.09478594550675500D-04 -4.28558641565370900D-04
33 10 -1.06286021335041200D-02  2.38917603140665000D-02  4.19929507608604900D-01 -1.17791025670176900D-01 -4.09237089967518700D-02
33 11  1.09836041687827900D-02 -4.07532289705611000D-01 -1.94483137504628200D-01  4.39799096148550500D-02  7.11485412326376900D-03
33 12 -2.24469724883996000D-03 -4.87015687442397600D-03 -1.22538161496934700D-03 -6.19925327618439000D-04 -2.82808269528197100D-04
33 13 -2.43728944687433900D-06  1.15672364592419400D-05 -3.67028010846248100D-05 -4.09853978570681300D-02 -4.47619533142694400D-04
33 14  2.24403580551658100D-03 -2.85529101739399300D-01 -2.52594884565047100D-03  1.56428029468677700D-02  2.20956193548659100D-04
33 15 -1.24666913134475600D-04 -9.62892804148263000D-05 -9.22683111095974300D-03  1.03776766817176500D-03  5.14011822924655600D-04
33 16 -8.74370285587793700D-06 -1.74143112488457900D-07  5.18571671733317500D-05 -4.10009180773114000D-02 -3.69559240430690200D-04
33 17  2.25113356468008200D-03 -2.85947716157734700D-01 -2.87158153128631000D-03  1.57230589214652600D-02 -2.72216511741658800D-04
33 18  1.71835765944519000D-04  1.00380745797601400D-04  9.23225359601635200D-03 -1.00305514139666900D-03 -5.19136462789208000D-04
33 19  8.65922277433632300D-06 -6.92272894081893400D-06 -1.80161338673855400D-04  1.87969843209743300D-04 -4.56662258961153400D-02
33 20 -3.76056569193990100D-04  2.50736417533570300D-03 -7.21589512531269800D-02 -5.84340094528600400D-04  3.96325043712930100D-03
33 21  4.82210863395459400D-01  4.46469569781816600D-03 -2.65005861474078600D-02  2.71510080218752500D-04 -1.67018046591708400D-04
33 22 -1.04492033626990200D-04 -9.93459775095542400D-03  1.08485466774346500D-03  5.56923932485988600D-04 -8.13713334430006600D-04
33 23  5.11031068738398700D-04  3.02682265692116500D-04  2.94360977728572100D-02 -3.21111813344291300D-03 -1.65182151132385500D-03
33 24  9.51488657256337500D-06  1.26156661880135000D-05 -1.61588932091172000D-04  7.24365961405517800D-05 -4.56401372031178700D-02
33 25 -5.09435183120588100D-04  2.51950696483169600D-03 -7.21741091858384700D-02 -7.72195828039391400D-04  3.97602276334917000D-03
33 26  4.81932365896640500D-01  4.73094996642139200D-03 -2.64599389515229700D-02 -2.70939506811558900D-04  1.63320598372680900D-04
33 27  1.07618908438818300D-04  9.92569461038852500D-03 -1.11154901597594500D-03 -5.55151685251882400D-04  7.94773241039414000D-04
33 28 -4.71014919112833100D-04 -3.23758321926582400D-04 -2.93957463562576900D-02  3.29457877304924800D-03  1.64337183171187100D-03
33 29 -1.67798204165165900D-02 -7.51030286108952600D-01 -8.21014898408341100D-03  2.43422858220733300D-03  1.76552805279577900D-04
33 30 -1.67818409901555200D-02 -7.51166450397499100D-01 -8.12996174531440500D-03 -2.59132708006943000D-03  7.36179764336520400D-04
33 31  1.68792223131165900D-02  7.53918569048611400D-01 -8.15177808856129700D-03 -2.61320014016898400D-03  7.25979950280620700D-04
33 32  1.68582505881766200D-02  7.54091905139469100D-01 -8.23420023848620500D-03  2.45687019810885900D-03  1.60756432529588300D-04
34  1  5.33133521948683200D-03  7.16830170686451900D-02  2.36590366829462400D-01  2.46688693515039900D-02  2.60551970737073000D-02
34  2 -4.28341729852509400D-03  5.33459888625908700D-01  3.12431839883371300D-02 -3.19779714830518800D-02  5.79012208399550200D-03
34  3 -1.18404053755476100D-02  6.05028329155141700D-03  8.18177061075157200D-03 -9.05732164170375000D-04  1.89297035781362000D-03
34  4 -5.31939116358890100D-03 -7.16722433331725800D-02 -2.36833331297312000D-01 -2.54391731403680200D-02  2.55981335999998700D-02
34  5 -1.46979412398782900D-03 -5.33822118048120100D-01  2.08374618869016100D-02  2.61877449676930100D-02 -6.24886076048672300D-03
34  6  1.21075830577273700D-02 -5.85872229724089600D-03  7.53641608973608700D-03 -8.25066243645673800D-04 -2.78174464337596200D-03
34  7  5.33263731796941300D-03  7.16990437113925500D-02  2.36575231311522800D-01 -2.54955832610596200D-02  2.55956130835061300D-02
34  8 -1.53132978041470400D-03 -5.34357354868895600D-01  2.11018428478653200D-02  2.66910027904601900D-02  6.22190000727433100D-03
34  9 -1.21088877110170700D-02  5.88698770374262900D-03 -7.52999742195606000D-03  8.56632910302103500D-04  2.77505091749761400D-03
34 10 -5.32442242056287600D-03 -7.16942991715973600D-02 -2.36622995448969600D-01  2.46861618587888000D-02  2.60869174996510000D-02
34 11 -4.23116138806573800D-03  5.33331314984915500D-01  3.10900434118149500D-02 -3.24981659629995500D-02 -5.81754018259268200D-03
34 12  1.18469879904312500D-02 -6.02944780783868400D-03 -8.19846202963260900D-03  8.83958170961977800D-04 -1.90064338751330100D-03
34 13  5.30158684738657100D-03 -1.37434383506973800D-02  8.90972500110480800D-01 -2.54169304368602400D-05  3.74905134680531700D-03
34 14 -2.72687695831627800D-04 -3.11703991517848900D-03  1.99890909711772000D-01 -2.19868150918972500D-02 -7.27340365876738300D-03
34 15  4.06437077627617100D-02 -3.33703041039942000D-02 -1.06883628189410800D-03 -1.56632776373165400D-03 -9.78812831130875700D-03
34 16 -5.30766008131945900D-03  1.36924411448261600D-02 -8.92145176638701700D-01 -5.70647069669556900D-05  3.72117378567371000D-03
34 17 -5.99623726836148900D-04 -3.06181386026193600D-03  2.00677659955937500D-01 -2.27363031551364700D-02  7.29628795050371900D-03
34 18 -4.07540867533996600D-02  3.34577988028961400D-02  1.06539645284261000D-03  1.57182337060888800D-03  9.58056228964411700D-03
34 19 -6.71970448572887000D-03 -8.68622309984602900D-02 -8.39920473158123800D-02  8.12201230609702700D-01 -4.83678613057881300D-04
34 20  3.14640314091062400D-02 -3.68390303318444100D-03 -5.05973744498772600D-03  3.21792230499087300D-01 -3.58265304368601200D-02
34 21  5.60652019673325100D-03 -3.60981045605924500D-01  4.17877235419392300D-02 -2.12540214168626800D-04  5.45627137822881900D-03
34 22 -5.24373116406012000D-03 -1.38067855523237100D-04 -3.06893379175063800D-04 -1.41773303080938600D-03 -2.98180086907577000D-02
34 23  3.56385987261781000D-02 -5.82059003542046900D-03 -1.03262629853631600D-03  1.58047515884370000D-03 -5.21785163222604000D-03
34 24  6.70291104062615200D-03  8.67862891506454400D-02  8.41840657488185700D-02 -8.10348034915858400D-01 -4.98978292907253400D-04
34 25  3.15052782862965500D-02 -3.33647537868628000D-03 -5.07458457728017800D-03  3.21425947020761600D-01 -3.58751594060507700D-02
34 26  5.64853037581916000D-03 -3.62182133459958400D-01  3.90035705340037500D-02  2.13681681136542400D-04 -5.46530918497629600D-03
34 27  5.25162750383981000D-03  1.39584801487256300D-04  3.07146466048103000D-04  1.38712257727893100D-03  2.97707016906654500D-02
34 28 -3.55018492478189300D-02  5.73114755715346400D-03  1.02318482732674200D-03 -1.58341338534221500D-03  5.50176547147174100D-03
34 29  1.49910068693945100D-03 -6.44857031937354000D-01 -3.72028739197348300D-03  3.60520286738371500D-03 -2.09488155974497900D-04
34 30 -1.56441067076172400D-03  6.44436999184911400D-01  3.60774998603940800D-03  3.67250267212838100D-03 -6.01301120585030600D-04
34 31  1.50078750868734700D-03 -6.44813214130026800D-01  3.60616814389324000D-03  3.67537548898776700D-03 -6.11861122118352800D-04
34 32 -1.55347856559687800D-03  6.44226657320481000D-01 -3.72090027683855400D-03  3.60478719743747200D-03 -1.98095739605897600D-04
35  1 -1.33045080396655700D-02  1.31807911682691700D-02  3.90504328292763700D-01 -2.96963205748478300D-03 -1.26597552210693400D-03
35  2  9.20372406069603500D-05 -2.67198268756601200D-01  5.25256555682204600D-03  1.32399483191605800D-02  2.24160856003342700D-02
35  3  2.21035044782288100D-03 -2.46264360481570000D-02  1.43881820490895200D-04 -2.99447977533379100D-03 -3.53198175049209500D-03
35  4 -1.33178450738865900D-02  1.31274104045601900D-02  3.90550909051352400D-01 -3.01968639718267400D-03  1.17628794006814600D-03
35  5 -1.50717347737241700D-04 -2.67452484841532200D-01 -1.04348754317961600D-02  1.51218619557040500D-02  2.24303461607969900D-02
35  6  2.20068214462585900D-03 -2.46310283054223700D-02 -9.50811572692812600D-05 -2.96886764604877700D-03 -3.56026461741446000D-03
35  7 -1.33014132288057300D-02  1.31893362016776900D-02  3.90395397946768000D-01  2.98062609886987300D-03 -1.19927122692579600D-03
35  8 -2.32405504254087300D-04  2.66803049158656300D-01  1.03309993170765000D-02 -1.60803557889399500D-02  2.24293142176158100D-02
35  9  2.20407452499485800D-03 -2.46333887426100300D-02 -8.67602166042573900D-05 -2.92740674678931700D-03 -3.51857963594792200D-03
35 10 -1.33152144695126700D-02  1.31336584480935000D-02  3.90644230223843800D-01  2.95246989506219800D-03  1.22950213824975300D-03
35 11 -4.83562687871287600D-04  2.67638701642403900D-01 -5.30628600372076200D-03 -1.43186284905609400D-02  2.24215926379840200D-02
35 12  2.20921605481468100D-03 -2.46308086927986500D-02  1.48604531654739100D-04 -2.95315413195246100D-03 -3.57417146526773000D-03
35 13 -4.99817757518432100D-03  4.69375224836416800D-02  1.03260501893999500D+00 -1.84416885956896600D-04  1.22537897083382100D-02
35 14 -1.05531467807792900D-03 -1.14094795995355800D-02  7.14054480771265400D-01 -8.00355633247707100D-02 -1.38179494346296500D-02
35 15  4.47713741251772500D-02 -3.09534246905468900D-02 -1.20253983919039100D-03 -9.93400874064883400D-04 -1.00349982795159100D-02
35 16 -4.98969377135826900D-03  4.69724317533840800D-02  1.03218598807972000D+00  2.19291486269998400D-04 -1.21859191715074600D-02
35 17  1.63063162056851400D-03  1.13137387348991000D-02 -7.14310472173966300D-01  7.90385935729021200D-02 -1.38164278395407000D-02
35 18  4.48034357257530600D-02 -3.09870078862122200D-02 -1.19351805538029100D-03 -9.97581946205809900D-04 -9.74122974289823100D-03
35 19  1.41754714971044300D-02  2.49407018002655700D-02 -2.20081476451696000D-01 -1.49557641745422300D+00 -4.62929165403359600D-04
35 20  2.76102552937286400D-02 -3.42582370561107200D-03  2.78272453180076800D-03 -1.79555898839686200D-01  1.90525008683958400D-02
35 21  2.14111442535830200D-02 -1.35943759587234300D+00  1.50406473883636100D-01 -4.41863153724093200D-03  1.16091579555394900D-02
35 22 -7.19052641829931000D-03 -3.11698247264145100D-04 -1.52851389892582300D-04 -2.42557701021818800D-03  4.84913191744508700D-02
35 23 -8.65364645180938100D-02  3.80451453436427700D-02  2.38844187292668200D-03 -8.21515002968819000D-04  1.60027607107184900D-02
35 24  1.41737758734722000D-02  2.49824379558894400D-02 -2.19895661229114400D-01 -1.49562587537619600D+00  4.15024755453080600D-04
35 25 -2.76594221642499500D-02  2.74616478952370900D-03 -2.87019377067494800D-03  1.79513474159583400D-01 -2.09294266404039800D-02
35 26 -2.14134547961405100D-02  1.35859449431562400D+00 -1.52726226443146300D-01 -4.41826362612094600D-03  1.15935148118252600D-02
35 27 -7.17525118570430800D-03 -3.13009880613917600D-04 -1.51554581399599200D-04 -2.47985255592482200D-03  4.85097504286772100D-02
35 28 -8.64764314563535000D-02  3.79666810276764300D-02  2.39770332011405400D-03 -8.30459000648464200D-04  1.64368995596247700D-02
35 29  2.82544408887161000D-02  3.04044006124405400D-01 -6.66683165437856500D-04 -2.35074120261310300D-03  2.86262767757679200D-04
35 30  2.82696340834614500D-02  3.04576934517000500D-01 -7.41769383417607500D-04  2.33904419554935300D-03 -2.34910054377898400D-04
35 31  2.82575211120846000D-02  3.04109121235402200D-01  7.39828617399208900D-04 -2.33907270305028400D-03  2.08650073321942500D-04
35 32  2.82562587717025300D-02  3.04593976186011300D-01  6.68766735766302600D-04  2.34946905327901500D-03 -3.11260510582176300D-04
36  1 -9.64008518877639800D-06 -3.26096287408768100D-06  1.23365478837462300D-03  1.73584618277092200D-03  3.59875611583420200D-03
36  2  3.27824997269197200D-02  9.58434952637080200D-03  1.83414701508714500D-02  1.75657978780636400D-01  3.36576040143057300D-04
36  3  4.64656406890757400D-04 -8.01232447033554500D-04  5.29379652032056200D-04  3.46370877110836900D-03  2.27924650613278800D-03
36  4  3.28542894175669100D-06  5.41651825517168400D-06 -1.05757751875116400D-03 -1.71805419474878900D-03 -3.75178014563679700D-03
36  5 -3.26668482287272900D-02 -9.56770929689378300D-03 -2.11061669444724000D-02 -1.75177390923172300D-01 -3.37898999530979000D-04
36  6  4.34924343743789100D-04 -9.70253442126188800D-05 -2.61823555906162300D-04 -3.54832304330117900D-03  2.27896270391420800D-03
36  7 -1.05758738295161800D-05 -1.11984700446908900D-05  1.24248187363831400D-03  1.81169198845370500D-03  3.60061976355231500D-03
36  8  3.27991656503399300D-02  9.47080497494102100D-03  1.83123589157987800D-02  1.75732626502358800D-01 -3.23261931416052300D-04
36  9  4.54344711144231600D-04 -1.31082779728663500D-04 -2.87895647603969300D-04 -3.56608541987120900D-03  2.25839417693203000D-03
36 10  4.46900669003421400D-06  9.30051762875344100D-06 -1.11344742268251600D-03 -1.80534754490676400D-03 -3.75911640211986900D-03
36 11 -3.26920623191140400D-02 -9.34065487751611600D-03 -2.11316532063329000D-02 -1.75333639380087200D-01  3.17973582843440800D-04
36 12  4.45704608567410000D-04 -7.63678191410952800D-04  5.04499086766165200D-04  3.45201726772583300D-03  2.30570947263375100D-03
36 13  4.07443384551996500D-05  3.13025416452001400D-05 -3.77069123193085400D-04 -7.55438957755947000D-03 -1.61221759446469900D-02
36 14 -1.40267944785813200D-01 -2.44654657966865300D-02 -5.12297995860630000D-02 -4.54895668577569200D-01 -3.31538206641726200D-05
36 15 -1.68929584410352700D-03  1.72244966476765900D-03 -4.63782189985637700D-04  1.93857349223166300D-04 -8.77353282207247000D-03
36 16 -4.16547508929422200D-05 -1.49190614422912100D-05  5.68660702234128600D-04  7.56182769318602700D-03  1.53704140068183200D-02
36 17  1.40212486808449700D-01  2.44917952097598600D-02  5.07747786090428500D-02  4.54764505866847200D-01  5.72083978670298300D-05
36 18 -1.76367276344755500D-03  1.70646436558035000D-03 -4.62682638097970000D-04  1.90812353183197000D-04 -8.78162013283666400D-03
36 19  2.78102409248878000D-06 -2.15470660892316800D-04 -4.63080464841163200D-04 -1.23039521039766600D-04  2.57543953189397200D-03
36 20  5.41031791235113400D-03  4.78013038243527000D-02  6.20592084399684800D-03  1.32587902768654100D-02  1.15151948445047100D-01
36 21 -4.75044958504921200D-02 -1.01089447505253700D-01 -8.81842004930552100D-01 -3.15394432023139300D-05  3.06644221026968000D-03
36 22 -3.03490276706745800D-03  8.22074278161453700D-04 -3.43223000331707600D-04  1.55791197959563700D-02  7.84533595142399800D-05
36 23 -7.00121735433462800D-03  6.92276399482082300D-03 -1.86980652823868700D-03  7.83863353097559200D-04 -3.54671671636953600D-02
36 24  2.69761563812466000D-07  2.10593520960526900D-04  3.92661026835076100D-04 -1.39536401413746800D-04 -2.56075189708877100D-03
36 25 -5.31354314431901400D-03 -4.76567672169514700D-02 -6.19068901061506900D-03 -1.25695055747353000D-02 -1.14986637130629500D-01
36 26  4.74693962903659200D-02  9.73268521595873800D-02  8.81784065399578700D-01 -1.61279972190708000D-05  3.07245660832032600D-03
36 27 -3.05632861110121100D-03  8.20693365736536500D-04 -3.44052913982296600D-04  1.55712328308060700D-02  3.56381661512810600D-05
36 28 -6.98474458712560200D-03  6.94910642097428000D-03 -1.86659772989091900D-03  7.81072012027039300D-04 -3.54517756596555400D-02
36 29  6.60050770931739200D-05 -6.21563663128116300D-05  2.61427279968237000D-04  5.80589744055726200D-04  5.00649697704598100D-03
36 30 -6.96534290723381000D-05  1.17100046427710600D-04 -2.60870117738256700D-04 -5.43200170594394700D-04 -5.00524084380225600D-03
36 31  7.04207936029142100D-05 -1.65424617044200300D-04  2.78578115886451500D-04  5.80876423582261300D-04  5.00409849670430900D-03
36 32 -6.43117459961687300D-05  1.32584689842819600D-04 -2.78425893519305600D-04 -5.43598463080825700D-04 -5.00298537186127600D-03
37  1 -1.42930140384324800D-02 -6.43252370155303100D-02  4.64270606220087800D-01 -7.63530894107667900D-02 -2.13536582657954800D-02
37  2  6.56994688035598100D-03 -8.05872227055714000D-01 -2.71298044479133800D-01  7.37220519441015300D-02 -1.49071273009180400D-02
37  3  3.01175521571874100D-02 -1.52104248562695400D-02 -1.41970289209412300D-02  1.55736448428575400D-03 -5.18473779850023600D-03
37  4  1.43033443134639000D-02  6.43080512534207900D-02 -4.64424754195978600D-01  7.69467705887163600D-02 -1.98716467449865200D-02
37  5 -1.98609984390283300D-03  8.13863517994285500D-01 -2.55539626213711200D-01 -1.50295525417699800D-02  1.56416927530629700D-02
37  6 -3.05730045675990500D-02  1.49313118145362000D-02 -1.25337668138949600D-02  1.39670580342747800D-03  6.65617906076057400D-03
37  7  1.42921695122898500D-02  6.43117792322480000D-02 -4.64411975150713200D-01 -7.70064822435755500D-02  1.98963492052905000D-02
37  8  1.84788160749795900D-03 -8.14016923934936700D-01  2.55797169311261300D-01  1.52943513231983800D-02  1.56350110641792000D-02
37  9 -3.05604822338009300D-02  1.49254711696214300D-02 -1.25267002735736100D-02  1.41790203383284100D-03  6.68384422727640500D-03
37 10 -1.43011880074187500D-02 -6.43177119490336200D-02  4.64815819483136600D-01  7.63136316986532000D-02  2.13644003227725200D-02
37 11 -6.45546783571783000D-03  8.05709295199851000D-01  2.71134328001647200D-01 -7.40553452258272500D-02 -1.49040147624981800D-02
37 12  3.01215795291387700D-02 -1.52175647666407200D-02 -1.41972974228313600D-02  1.54075349598935300D-03 -5.15878565748686200D-03
37 13 -1.91512463583092000D-06  5.73057583999629200D-07 -1.99825452016269600D-04  1.42155000727077300D-02  1.39772701292460800D-04
37 14 -7.77843171110530200D-04 -8.01437744891828800D-01 -7.69566426821561600D-03  4.40461172116748500D-02  1.35977686177001400D-04
37 15 -8.36307849662342600D-05 -5.23469012104457800D-05 -4.85079961214299000D-03  5.78686205720567200D-04  2.72272852794734600D-04
37 16  9.08600745803312200D-07  1.08477828789606400D-05 -2.23911423360436100D-04 -1.42025603137928100D-02 -1.09228102029110300D-04
37 17  7.93318200108262000D-04  8.01509322900837000D-01  7.53572343816198300D-03 -4.39943623016425800D-02  1.22510765515762100D-04
37 18 -7.19108680722103400D-05 -5.05998974439595600D-05 -4.86143873493414600D-03  4.91651590151092200D-04  2.70346409173720500D-04
37 19  1.21643028125897900D-06  2.08031291346857900D-05  6.80674845744220700D-06 -1.87913710729421300D-04  1.00671665559018400D-01
37 20  9.70297953388084700D-04 -5.54221713271787300D-03  6.98223075100460100D-02  6.20430521619407000D-04 -3.84540370194556800D-03
37 21 -7.92864469350924300D-01 -7.55152258900994100D-03  4.35496463906883500D-02 -4.10801717268034400D-04  2.51159352470849700D-04
37 22  1.59642364797451900D-04  1.51149528348137700D-02 -1.64496455817404900D-03 -8.45766141920807300D-04  2.12259317725810000D-03
37 23 -1.30456681279380200D-03 -8.18026364464708800D-04 -7.80243295753778500D-02  8.47504701636560600D-03  4.36898658074972400D-03
37 24 -7.17473441727366400D-07 -1.09852319338074800D-05 -1.41430572486913800D-05  5.35279516026054100D-05 -1.00671947969134000D-01
37 25 -9.76103779694260600D-04  5.52253018196627300D-03 -6.98595415816104400D-02 -7.13700594199144900D-04  3.82413642918652000D-03
37 26  7.92783120097993800D-01  7.73590501884127100D-03 -4.35356780141737400D-02 -4.14719698175881500D-04  2.53195782818399200D-04
37 27  1.61523915357556400D-04  1.51075592448680700D-02 -1.69682225928714800D-03 -8.46688970106220800D-04  2.13861022513556900D-03
37 28 -1.29855051547373500D-03 -8.40059709661838800D-04 -7.79787626223965700D-02  8.77541521655524600D-03  4.37052539849234900D-03
37 29  9.79199942881523800D-03 -6.43331867036321500D-01 -2.87337601592281300D-03 -1.01146524890534400D-03  2.70994892735070000D-04
37 30 -9.81208543346726700D-03  6.43115644665216100D-01  2.90227548666030600D-03 -9.55998689016968400D-04 -5.28422015753991300D-05
37 31 -9.80405853986062600D-03  6.43601808821402300D-01 -2.90804488018293900D-03  9.53020714344302600D-04  4.65400616509727500D-05
37 32  9.82236749257754300D-03 -6.43011296118205300D-01  2.87274312543206200D-03  1.01362076372843400D-03 -2.66417219173859300D-04
38  1 -1.46841553241969200D-03 -1.46892825746034300D-02 -1.27400336005317500D-01 -6.48185690896387800D-03  2.96234658930287200D-02
38  2 -2.82149480559025100D-03 -1.72650556216159500D-01 -2.07603882980917900D-01  3.26455458375103600D-02  2.16557443794145500D-02
38  3 -9.28276139858443700D-03 -1.23729829808301500D-02  1.09137750815279300D-02 -3.33611031037786400D-03 -1.03779063807713700D-03
38  4 -1.49693288005268500D-03 -1.47899467788433000D-02 -1.26775182298992300D-01 -5.57258244948465100D-03 -2.96844945895109100D-02
38  5  3.81063503483405800D-03 -1.80135485926635800D-01  2.04608938076041800D-01 -1.31749367803061100D-02  2.22459883434007600D-02
38  6 -9.61697279696075200D-03 -1.26290155464396200D-02 -1.02594771788887700D-02 -9.97824687986810800D-04  1.73407550765698100D-04
38  7 -1.47466851804515200D-03 -1.47084693001781400D-02 -1.27371871565466100D-01  5.56690265330595000D-03  2.97503997693211900D-02
38  8 -3.47495319735168000D-03  1.79167426071512800D-01 -2.04247201791340300D-01  1.33504447164945700D-02  2.22322826393630400D-02
38  9 -9.63180552161909200D-03 -1.26004771177438700D-02 -1.02684212854627100D-02 -1.03881619955507400D-03  1.48530660432395700D-04
38 10 -1.49407513384606300D-03 -1.47698317294796100D-02 -1.26740817852916800D-01  6.52252034421059400D-03 -2.95747106453184800D-02
38 11  3.13365025267638700D-03  1.73535354766342200D-01  2.08051775860971500D-01 -3.26666450932480500D-02  2.16589016943497200D-02
38 12 -9.26577795316221700D-03 -1.23931237411875000D-02  1.09134771026244300D-02 -3.38265133722057200D-03 -1.01169067641908100D-03
38 13  6.86420052277236000D-03  3.49245949254806200D-02  8.92022851787844800D-01  6.46267138939071800D-04 -4.14525766523415500D-02
38 14  4.61161394544146400D-03 -1.08368665634566100D-02  6.84927814141981500D-01 -7.68330583363688000D-02 -2.05076979276407500D-02
38 15  6.10325933081264900D-02 -4.05248953804854300D-02 -1.64202922609988200D-03 -1.14476888459626900D-03 -1.33871267296789500D-02
38 16  6.88811535259598000D-03  3.49896568992846600D-02  8.91276245201914700D-01 -6.34623919126847100D-04  4.14499591550028000D-02
38 17 -4.62746270616288200D-03  1.07558472623984400D-02 -6.85663265563701500D-01  7.59206081925994500D-02 -2.05179357884270200D-02
38 18  6.10678191789033300D-02 -4.05498833904760500D-02 -1.63615179406422900D-03 -1.14600693610721300D-03 -1.31299432129806400D-02
38 19  9.21512413699465700D-03  1.05439961356334900D-01  4.78345708789520700D-02 -1.53608981489534200D+00  4.21004165715118900D-04
38 20 -2.68109118029843600D-02  3.43263623492834500D-03  6.49035681446140800D-03 -4.11411512758455400D-01  4.60827192516107300D-02
38 21 -5.06211772456690100D-04  3.02811848922553800D-02 -6.20802145514631800D-03  6.08642537145214400D-04 -4.55248148618318000D-03
38 22  3.94383894903768900D-03  1.18467794670183700D-04  2.01446117368061100D-04  1.13345184753769300D-03  3.76687799558168400D-02
38 23 -5.20478637218709700D-02  1.43790837660537600D-02  1.47724441525406000D-03 -1.56602301959301400D-03  8.40409402664950100D-03
38 24  9.20771129992334300D-03  1.05460445930707600D-01  4.81068474473572300D-02 -1.53590200365297500D+00 -4.02423635802382400D-04
38 25  2.69082928642892900D-02 -2.56964999965846300D-03 -6.47405238777615200D-03  4.11536497768655400D-01 -4.56586980029593700D-02
38 26  3.95026651620262300D-04 -3.13151122431533100D-02  7.62661380453687400D-04  6.06957475416567300D-04 -4.56010644724745700D-03
38 27  3.95314897183093400D-03  1.18371107176208200D-04  2.02271686751850700D-04  1.09129945606482300D-03  3.76902722502620200D-02
38 28 -5.19996019259341400D-02  1.43093296756721400D-02  1.48009046225999100D-03 -1.57460724166818400D-03  8.84324050059121100D-03
38 29  5.75628877416904000D-02  3.54990749512484900D-01 -2.55894458986218000D-03 -2.67254553012884800D-03  4.42943562652333800D-04
38 30  5.75892940627741700D-02  3.55801647011169300D-01 -2.64348896945737700D-03  2.62199670967983400D-03 -1.48248864547192600D-04
38 31  5.75599444690407200D-02  3.54981279033185400D-01  2.64196600602913300D-03 -2.62088906247176500D-03  1.56168502756457300D-04
38 32  5.75723623027456800D-02  3.55881327547500500D-01  2.56304946832673700D-03  2.66876561290229900D-03 -4.33161396784315300D-04
39  1  5.50065459569768300D-05 -1.67634111928073600D-05 -1.44906299965594100D-03 -5.93593597667289100D-03 -1.23111881301687000D-02
39  2 -1.08324235574517600D-01 -6.93965268467193000D-03 -1.38437606823539500D-02 -1.15472244984056300D-01 -1.61670865897334800D-03
39  3  3.69389826896568700D-03 -2.07718960999231100D-03 -9.64216094333761300D-04 -1.77486908187379300D-02  1.89125125890060400D-02
39  4  6.03484027288165400D-05 -3.27980145320709400D-05 -1.66618455574993400D-03 -5.94509821356059600D-03 -1.20173583346237900D-02
39  5 -1.08343360273857400D-01 -6.86411957557124400D-03 -1.20328957037288500D-02 -1.15670408020350900D-01 -1.57237172416137900D-03
39  6 -3.77250774632466700D-03  5.34487947048618200D-03 -2.95521577661918700D-03 -1.69165831221778600D-02 -1.90372366642301800D-02
39  7  5.40532854875392600D-05 -2.15611241488506700D-05 -1.40643252151368200D-03 -5.72637654268555300D-03 -1.23086336028059300D-02
39  8 -1.08308424721346300D-01 -5.41856972903579900D-03 -1.38486352551351400D-02 -1.15419057791236600D-01  1.62551907794511400D-03
39  9  3.76295308167312100D-03 -5.38847215961816600D-03  2.96971421494093200D-03  1.69057287693738000D-02  1.90368488341925100D-02
39 10  6.07001145129876500D-05 -2.80280920245913400D-05 -1.69198907240211700D-03 -5.74729360418273000D-03 -1.20240766572177400D-02
39 11 -1.08395428069244400D-01 -5.70024150963352400D-03 -1.20747837413282900D-02 -1.15831934734086800D-01  1.67419420789790000D-03
39 12 -3.71070150866396200D-03  2.03650730076606000D-03  9.54174896782747500D-04  1.77479055080733700D-02 -1.89182096960896200D-02
39 13  5.81383035526064300D-05  7.49476230516655800D-05  4.52944137541232200D-04  7.37935077227986700D-03  1.54266753303861000D-02
39 14  1.36997994452095600D-01  7.37159917374159200D-03  1.71772331331938000D-02  1.36640698154870400D-01 -3.39501426125209100D-05
39 15 -2.53573740050836500D-03  2.56968754312096500D-03 -7.04632872460806700D-04  2.89145211661330400D-04 -1.33179838965100300D-02
39 16  5.53420482247002200D-05  6.12089840851349600D-05  1.32215947200435700D-04  7.39090144179054900D-03  1.53793703665431600D-02
39 17  1.37108798436851000D-01  7.39203224477391900D-03  1.40247655475796500D-02  1.37338556816133900D-01 -6.51593839495056700D-05
39 18  2.68383612986950600D-03 -2.61867674592005300D-03  7.01173522368983300D-04 -2.86003607611737400D-04  1.32892250779874200D-02
39 19  8.71217737998286400D-06  2.61886979960439100D-04  3.72561292189006600D-04 -1.76827402902072900D-03 -1.09554352430819100D-02
39 20 -2.26384401767966000D-02 -2.03201632206444500D-01 -1.91059429890100200D-02 -4.01742700681733700D-02 -3.54564062449020200D-01
39 21  3.84471752682319600D-02  8.18126782659328700D-02  7.13265545869903200D-01  2.52731408840384500D-05 -1.19163376251699900D-03
39 22  1.16636062163301700D-03 -3.11798556036503700D-04  1.30445954099190600D-04 -5.90825140772071200D-03 -1.99134463064923300D-05
39 23  3.00420639735694800D-03 -2.98429295105038600D-03  8.12215691715739300D-04 -3.37326280944619800D-04  1.53302285881726800D-02
39 24  1.81361645908545500D-05  2.76051473553043400D-04  2.37412753810845800D-04 -2.48822096513679100D-03 -1.09419493589031200D-02
39 25 -2.30248734011133900D-02 -2.03190643016552500D-01 -1.91143185131884300D-02 -3.94135189717118000D-02 -3.54735144537694800D-01
39 26  3.84615102537471100D-02  7.92426913086620900D-02  7.14227143179051700D-01  5.68880954500889400D-06  1.14585097459900400D-03
39 27 -1.15153978414392500D-03  3.12600549982139800D-04 -1.31032944306511800D-04  5.92693878232874200D-03  4.39737890592491600D-05
39 28 -3.07312893191185200D-03  3.02915514285258400D-03 -8.05872340238076300D-04  3.34809163305485800D-04 -1.53379270015876500D-02
39 29  4.91191377019239600D-05  1.77789951868591900D-03 -2.45518376918436000D-04 -5.20633634901856700D-04 -4.53191701901138400D-03
39 30  4.11615752265137100D-05  1.62648521707603400D-03 -2.45941064105466000D-04 -4.99547420128851900D-04 -4.54191329867415300D-03
39 31  4.81538507125336900D-05  1.72651084521743900D-03 -2.42203793774129800D-04 -5.20562272909648400D-04 -4.53584181054819800D-03
39 32  4.56032751610042600D-05  1.69226059163334900D-03 -2.44653436385584300D-04 -4.98310993253040000D-04 -4.53993729900772200D-03
40  1 -4.85826217939548100D-03 -6.71558980924277100D-02  2.03551547909879500D-01 -2.75254266090511200D-02 -4.25477275168506300D-02
40  2  6.03737079281555300D-03 -3.87251885266104000D-01 -6.53047939967429200D-01  9.34729732562767900D-02 -8.13706365053916100D-03
40  3  1.94619103669912000D-02 -1.13248467164517400D-02 -6.44763405044157300D-03  5.06498648493856500D-04 -3.69672002011380000D-03
40  4  4.85146802956030200D-03  6.71559850258776800D-02 -2.03276077770750700D-01  2.88576902709849300D-02 -4.20011961169323000D-02
40  5  3.32511222109349800D-03  4.07736950648714800D-01 -6.45412475586408500D-01  5.11844545777001400D-02  8.45876428064602600D-03
40  6 -1.96687008374039000D-02  1.12099365567581900D-02 -5.39933786570754000D-03  7.93230179295428400D-04  4.33919561699428300D-03
40  7 -4.85151800866485400D-03 -6.71583647547712300D-02  2.03395494431137600D-01  2.88469904781643300D-02 -4.20402723001164100D-02
40  8  2.94579346486919800D-03  4.07518218652291800D-01 -6.45652019671720900D-01  4.98263480676799300D-02 -8.45774890072668900D-03
40  9  1.96580314890654900D-02 -1.12002825883383000D-02  5.38883304637737500D-03 -8.06176507802505200D-04 -4.36062493914957800D-03
40 10  4.85564971757771900D-03  6.71491011993300000D-02 -2.03692244860907800D-01 -2.75086428031015500D-02 -4.25230295920938400D-02
40 11  6.42783475941712700D-03 -3.87145018436251000D-01 -6.53012270740293900D-01  9.48998386639448200D-02  8.12849193226856800D-03
40 12 -1.94617195354016100D-02  1.13332276031328600D-02  6.45159964529518100D-03 -4.91837125362910400D-04  3.67389816368480800D-03
40 13  1.40962116577138000D-02  1.23929430591021700D-02 -1.26585203919561000D+00  1.05056941800475000D-03 -6.72634567867437900D-02
40 14  7.86192457406858400D-03  1.59089807013180600D-03 -1.08800212857853300D-01  1.36445865205151200D-02 -3.42457370773357600D-03
40 15 -2.68918122218719600D-02  3.03163859296056900D-02  6.78200444316986900D-04  2.07397321016462000D-03  7.63602295448876400D-03
40 16 -1.40887025731847800D-02 -1.24075318681401200D-02  1.26556201631878700D+00  1.02580661022087000D-03 -6.73401621886296300D-02
40 17  7.23278993458170200D-03  1.73076642266076500D-03 -1.08844065895836900D-01  1.07308101877900600D-02  3.42929400839475900D-03
40 18  2.69368563206873200D-02 -3.03661503290823200D-02 -6.75023113680086800D-04 -2.07911087296732400D-03 -7.34701914570177900D-03
40 19  8.82927284725047200D-03  1.28495898211347400D-02 -7.91850924922914100D-02 -1.12627983773579500D+00 -5.90191111663802800D-04
40 20  3.72344351296730700D-02 -4.32130943519721000D-03  1.79717611579248700D-03 -1.15523605756818800D-01  1.23479074866571900D-02
40 21  2.02202516793092100D-02 -1.28235084765616200D+00  1.43104728197353800D-01 -4.74878676563667600D-03  1.38951339444518100D-02
40 22 -9.14634717881539600D-03 -3.72090547118336500D-04 -2.50784872571890000D-04 -2.99766317933239300D-03  4.00921189876009600D-02
40 23 -8.50656769308765500D-02  4.49735579432753000D-02  2.31166394867007200D-03  1.47885929714083400D-04  1.68112551801526700D-02
40 24 -8.83439919349287200D-03 -1.28524403279874400D-02  7.92551404486616400D-02  1.12658415159572900D+00 -5.90843863227295600D-04
40 25  3.72574406193444500D-02 -4.08678094616838200D-03  1.84015430091583100D-03 -1.15474989329642500D-01  1.32150865933521700D-02
40 26  2.03746801273969500D-02 -1.28264239732169600D+00  1.43043762011528400D-01  4.74945418652371000D-03 -1.38932875106826600D-02
40 27  9.14383332415888600D-03  3.75875571583795500D-04  2.50092297693797700D-04  3.01715118151772500D-03 -4.01012270761517500D-02
40 28  8.50323921305777000D-02 -4.49311650544258300D-02 -2.34259825799367000D-03 -1.39585570175749500D-04 -1.70858044001212200D-02
40 29  6.88084205026211200D-03  5.54264927825674400D-01  1.55721748377138100D-03  4.21588096661002400D-03 -5.78715739863990600D-04
40 30 -6.86609491881192600D-03 -5.54143104564372700D-01 -1.68826903204143300D-03  4.19235449709570900D-03 -3.61844821688913600D-04
40 31  6.86630172760256300D-03  5.54087016351421200D-01 -1.68987032001226800D-03  4.18891198948770000D-03 -4.00577385851641600D-04
40 32 -6.87070260624230400D-03 -5.54443262313130800D-01  1.56099562527154500D-03  4.21772312411490700D-03 -5.39803978950863300D-04
41  1 -2.90922498966444200D-02 -4.30235095915883200D-03  1.13493718431581200D+00  6.11956246384361100D-02  3.28494286209243200D-02
41  2 -6.85037397217888800D-03  5.52675361729486800D-02  4.70593085218031400D-01 -5.58589954665511000D-02 -1.81705952156616300D-03
41  3  6.16172077922314200D-03 -4.34466125765682200D-03  1.91565985177478400D-03 -3.80917558768985400D-04 -1.50638962250376500D-03
41  4 -2.90870034613256300D-02 -4.27062562843499100D-03  1.13437009075951800D+00  6.22313771980271400D-02 -3.16605977182277300D-02
41  5  3.41498219072431100D-04  7.05882067946507900D-02 -4.69605948713906300D-01  4.88971215297463200D-02 -1.71096803961522300D-03
41  6  6.09855599743122900D-03 -4.38758795781609300D-03 -2.24406026918909400D-03  7.76730287376290200D-05 -1.23403612782204700D-03
41  7  2.90901465157568400D-02  4.31245653237829400D-03 -1.13442784786640200D+00  6.22094307495299400D-02 -3.16832979894109900D-02
41  8  6.51279234785787500D-05  7.01960759725683000D-02 -4.69464006630576100D-01  4.90044488261707100D-02  1.71205512226763800D-03
41  9 -6.09670993963559900D-03  4.38465481736756700D-03  2.23309570013072600D-03 -7.60943883245354000D-05  1.27487397435449500D-03
41 10  2.90925369978385500D-02  4.30023401748747700D-03 -1.13476944580532500D+00  6.12255271783329800D-02  3.28228675247795400D-02
41 11 -7.12685849655625200D-03  5.55529407749723300D-02  4.70783330388603300D-01 -5.58827515494659100D-02  1.80929914285074500D-03
41 12 -6.15840191389052400D-03  4.34910277104025300D-03 -1.91247677503822500D-03  3.84261640517522300D-04  1.46721266627587300D-03
41 13  2.89176768151217700D-06  5.95102129161171900D-06  4.41783718889451900D-05 -7.90971157935805600D-02 -7.55733836227616500D-04
41 14  4.35152561916522700D-03 -9.96295916595925000D-01 -9.41814292384606500D-03  5.47329025855638000D-02  7.04584113356315300D-05
41 15 -3.38251312983643000D-05 -3.66332800364267200D-05 -2.80871117777069100D-03  3.28946509026870400D-04  1.54628398323352200D-04
41 16 -2.83708664780805700D-06 -3.71427743016510100D-05 -9.04219901319410800D-05 -7.91256226995545000D-02 -7.88668010097218100D-04
41 17  4.35390585733999800D-03 -9.96154403989250600D-01 -9.26128207614125000D-03  5.47434915744520900D-02 -6.34718656437743000D-05
41 18  3.16460547189436600D-05  3.18258109245922300D-05  2.82006907722339300D-03 -2.90015433470761900D-04 -1.56057938237774300D-04
41 19 -5.25452806971816700D-06 -2.24961961037745700D-05  5.85190535349129100D-05  5.68263780215258100D-04 -7.30412865413367400D-02
41 20 -7.00330983775934300D-04  4.01593487840441500D-03 -5.37582844004066200D-02 -4.12771078613756800D-04  2.94436513192057300D-03
41 21  9.55272208375924700D-01  9.49713404763180700D-03 -5.25724000541469400D-02  4.12203464888074400D-04 -2.54241757438430300D-04
41 22 -1.57961707450307300D-04 -1.51047539169339300D-02  1.64430510329736400D-03  8.47200943240182000D-04 -1.79932806509776400D-03
41 23  1.11706424392501100D-03  6.82263821171163600D-04  6.56039459476593200D-02 -7.14773335576247500D-03 -3.68207993580666900D-03
41 24  1.93674708409483000D-06  1.29894925594928400D-05 -1.61681535297737500D-06 -3.53198617115805500D-04 -7.30671908152438600D-02
41 25 -7.11500605047305400D-04  4.01227003408105500D-03 -5.38084776012917500D-02 -4.71918513673034300D-04  2.94659485389022400D-03
41 26  9.55308797043998000D-01  9.40776946832624000D-03 -5.25122424767331500D-02 -4.14566168871529700D-04  2.53219124920402000D-04
41 27  1.61347043951130700D-04  1.50988474808047800D-02 -1.69544926218830900D-03 -8.46571263016904900D-04  1.80718650907706600D-03
41 28 -1.10909038893255700D-03 -6.98096120144507700D-04 -6.55863512422409900D-02  7.35751980399558000D-03  3.67790468694587800D-03
41 29  1.57156047920733400D-02  9.48108950739989400D-01  9.17138610801604400D-03 -1.02630393535007600D-02  6.60651746584356300D-04
41 30  1.56903833579846400D-02  9.48281330433088300D-01  8.85268131880852800D-03  1.04317698761418900D-02 -1.64600088277614900D-03
41 31 -1.56791499934591300D-02 -9.48081689027170300D-01  8.85094512726837400D-03  1.04361940504898100D-02 -1.65124007933747400D-03
41 32 -1.57175836483375500D-02 -9.48691594086903300D-01  9.17585347118958300D-03 -1.02659067904806400D-02  6.55325369493997300D-04
42  1  1.76224995773729600D-02  6.66051656897094200D-02 -9.82452594907391500D-01  4.62357725155576500D-02  5.43759778782490400D-02
42  2 -8.84768856582998100D-03  1.15302637678073700D+00  8.56241986216720200D-01 -1.58238147179873100D-01 -2.72857280165396100D-02
42  3  6.63541471444553400D-03  2.06503133020950300D-02 -8.39723006705073100D-04  3.06516690631479900D-03  1.87531212717475000D-03
42  4 -1.76151392102914000D-02 -6.66024532681760400D-02  9.82296548013259800D-01 -4.78994550166634400D-02  5.35651728916418400D-02
42  5 -3.19028375814828100D-03 -1.17928334468219000D+00  8.33645004223781100D-01 -3.01226175271192000D-02  2.72976514608489900D-02
42  6 -6.66178582178690700D-03 -2.06358656390627700D-02 -2.64959271658301000D-04 -2.94839554587135000D-03 -1.87177041755403000D-03
42  7  1.76259980347341500D-02  6.66125072718151600D-02 -9.82884767254582800D-01 -4.79584153003523600D-02  5.34938750853030800D-02
42  8 -3.68340522043764800D-03 -1.17945351427888700D+00  8.34044532631025100D-01 -3.00806085645567500D-02 -2.73018876666226300D-02
42  9  6.64750649463391100D-03  2.06543811719891700D-02  2.78376666379898600D-04  3.00305435891143500D-03  1.81557757077281900D-03
42 10 -1.76107447637873800D-02 -6.66076735534249000D-02  9.82731826318011700D-01  4.62976578310552000D-02  5.44523943518110300D-02
42 11 -8.38843550220993100D-03  1.15296891482837100D+00  8.56431756956075100D-01 -1.58437055202452200D-01  2.72638730259901400D-02
42 12 -6.64410894163325300D-03 -2.06197640843565200D-02  8.16070865868095400D-04 -3.11681935046661400D-03 -1.93358435978498600D-03
42 13 -2.91384004776260300D-02 -1.12030573663034900D-01 -1.51131719232931200D-01 -1.06162719381892000D-03  6.93123520033377500D-02
42 14 -7.61413364667107500D-03  2.35652399193755400D-02 -1.48291394844963800D+00  1.67133591773431700D-01  4.57342317450955800D-02
42 15 -6.31222669455401300D-02  1.73880352004445400D-02  1.79058019621884600D-03 -1.90714670854185100D-03  1.05908829121447800D-02
42 16  2.91453826218890100D-02  1.12046248704710200D-01  1.51203211394349500D-01 -1.06477747162936100D-03  6.92862897685003200D-02
42 17 -7.81745291126896200D-03  2.31640979945267600D-02 -1.48311917074655500D+00  1.63546948095440800D-01 -4.57282808281395600D-02
42 18  6.31448648691852900D-02 -1.74165840410454600D-02 -1.78136871461488300D-03  1.90413442516057800D-03 -1.03395878400423700D-02
42 19  1.82505739557343800D-02  8.81237300950814500D-02 -1.87588063238818200D-01 -1.89591049881017700D+00 -3.22179106292018800D-04
42 20  1.85814638640001800D-02 -1.85759579895592900D-03  4.51870916894416700D-03 -2.88829324097201500D-01  3.19733287530544100D-02
42 21  1.26567907241575900D-02 -7.88898830200754800D-01  8.57906940328612800D-02 -7.78558014879429700D-04  5.76648356457821200D-04
42 22  2.01909658422232700D-04 -2.05077134160553500D-05  6.31058677113717600D-05 -3.76335177243025800D-05  3.36967628067515000D-02
42 23 -3.82571225110600300D-02  4.56035970430769700D-03  1.12671229524802300D-03 -1.91131306631790900D-03  5.39653269856947000D-03
42 24 -1.82473440970267000D-02 -8.81502554427439400D-02  1.87404234581981100D-01  1.89639998272251400D+00 -3.18177453518156900D-04
42 25  1.85451547949073100D-02 -2.30800515105194800D-03  4.53246076065665600D-03 -2.88905159316416500D-01  3.23334154396495100D-02
42 26  1.25778430151525100D-02 -7.88538387545216700D-01  9.01000939101084900D-02  7.80676152960473300D-04 -5.76459629849413300D-04
42 27 -2.04216523111265500D-04  1.82111312323380000D-05 -6.33046002266233400D-05  5.71060071807938700D-05 -3.37282316058750600D-02
42 28  3.82549326851483100D-02 -4.52670107927320900D-03 -1.11715295131123800D-03  1.91406911190786000D-03 -5.68899363915375000D-03
42 29 -8.02449559159210500D-02 -1.43588548162840100D+00  2.15260920740418900D-03  5.16773312144376100D-04 -1.88336156710925600D-04
42 30  8.02296462439999200D-02  1.43622924667646400D+00 -2.16607149430659600D-03  4.80558508891603100D-04  7.52677705788367700D-05
42 31 -8.02399987120645400D-02 -1.43617353782410100D+00 -2.17413703986764300D-03  4.74327649427816800D-04  5.00762798089304500D-05
42 32  8.01965129731220100D-02  1.43573176442774800D+00  2.15489536455625700D-03  5.18168302194188000D-04 -1.59821553639458900D-04
43  1 -1.96600882342632700D-02  3.85923791361078900D-02  7.89595670748425700D-01  7.43326478464273300D-02  3.70534152428594300D-02
43  2 -7.95086584428229000D-03  5.96865559603190400D-01  4.32974329924328500D-01 -8.02310827546593900D-02  2.61040270656975800D-03
43  3 -1.53105723978672900D-03 -1.07934546678337900D-03  7.42583809971695100D-03 -1.07122819772358300D-03 -3.30153328741066600D-04
43  4  1.96583501216533400D-02 -3.86275412182752500D-02 -7.89607186425344100D-01 -7.53839603157655500D-02  3.55893093407751100D-02
43  5 -1.27880994060189600D-04 -6.09940410836265600D-01  4.21256947066288600D-01 -1.49622253320274200D-02 -3.01113241843302300D-03
43  6  1.78236943827746700D-03  1.22876298015579100D-03  7.33054332016417400D-03 -5.61560903339400700D-04 -4.52043050921791200D-04
43  7  1.96655617823347500D-02 -3.86074053097274700D-02 -7.89732317147268100D-01  7.53752916361367400D-02 -3.56231270140739400D-02
43  8 -2.52175127862199600D-04  6.09449095420607200D-01 -4.21331645044566200D-01  1.39761567100253500D-02 -3.01075693536493700D-03
43  9  1.77115042519295000D-03  1.23960651017211300D-03  7.31964018566626400D-03 -5.65738402598495200D-04 -4.96915960011363200D-04
43 10 -1.96576429652768100D-02  3.85855447447926300D-02  7.89455980652965400D-01 -7.42982760916434900D-02 -3.69880560867341900D-02
43 11  8.36025776318156400D-03 -5.96469643383873000D-01 -4.32679921352825500D-01  8.12994654058334100D-02  2.61852504026720600D-03
43 12 -1.54128304810562900D-03 -1.07724199216218300D-03  7.42734278188620200D-03 -1.06727179940909600D-03 -3.73031498466266800D-04
43 13 -1.30829129073421600D-05  1.21466469145804300D-05  4.99728261624380500D-04 -9.26723604656574200D-02 -9.12798593665132500D-04
43 14  5.07826603114952400D-03 -4.61822887973872600D-01 -4.82192283146590200D-03  2.53952276925702500D-02  2.21301012476869400D-04
43 15 -1.40367309623092200D-04 -8.09337028547331600D-05 -7.90396413297430300D-03  8.99424059875784700D-04  4.44704164974870200D-04
43 16  8.08739126468844200D-08  4.03788604537660800D-05  1.73522073514646000D-04  9.26825191449478800D-02  9.32925311957797500D-04
43 17 -5.10469175408759600D-03  4.61674440951399000D-01  4.49412164779593800D-03 -2.54031411667561600D-02  2.04116087298105300D-04
43 18 -1.30251142940766300D-04 -7.38649443569471600D-05 -7.91475763997761100D-03  8.51211144731167500D-04  4.45356986116042900D-04
43 19 -2.62562092052807700D-07  4.47149313670174000D-07  2.64694152565456300D-07 -6.16806994744287100D-05  3.85723713525220300D-02
43 20  3.59014550445400100D-04 -2.11880129935028800D-03  8.11575300982923500D-02  7.51912442189895600D-04 -4.46095920669302400D-03
43 21 -8.82261928007718100D-01 -8.51556628757881200D-03  4.85432375793892100D-02 -3.15748669961960000D-04  1.93924834216790000D-04
43 22  1.21823835745071000D-04  1.15786536596748200D-02 -1.26265288023478500D-03 -6.49385043755047300D-04  8.20808892996954000D-04
43 23 -5.06504244752257200D-04 -3.14304648243530000D-04 -3.01274799050483700D-02  3.30696230374776400D-03  1.68979952081328700D-03
43 24 -1.81216108893567800D-06 -1.58326885569353900D-05  5.44080816404105800D-06  2.90085737442822400D-04 -3.86029905189653600D-02
43 25 -3.53455962000275400D-04  2.12860498002295200D-03 -8.12203525483246200D-02 -7.86419517001957700D-04  4.47645655949902900D-03
43 26  8.82498353393376800D-01  8.38999650551999900D-03 -4.84789195074916300D-02 -3.18327072355243900D-04  1.93811310240617400D-04
43 27  1.24515762114623700D-04  1.15764689992162300D-02 -1.29803133647266000D-03 -6.48582130878166000D-04  8.20297753651966700D-04
43 28 -5.03474618541508600D-04 -3.16823135110455600D-04 -3.01333307802618300D-02  3.35803707116060800D-03  1.69083469727379000D-03
43 29  3.83521595622825300D-02  1.49430828164277200D+00  9.87982811535918400D-03 -8.82445919206248000D-03  4.56516925947269300D-04
43 30 -3.83254830166826600D-02 -1.49456308986296500D+00 -9.60762310520781400D-03 -9.00597932663229300D-03  1.53190023627183700D-03
43 31 -3.83575238810583600D-02 -1.49524356001587000D+00  9.60820974122677900D-03  9.01052338206897500D-03 -1.52626311052269700D-03
43 32  3.83507288111473400D-02  1.49480144462346200D+00 -9.88333848807450500D-03  8.82617393058901700D-03 -4.61318552330781500D-04
44  1  1.47366371720023200D-02 -6.55962774321552400D-02 -9.11507571050831600D-01  1.50173650547217100D-01 -3.42051021634598000D-02
44  2 -4.00205126686123500D-03  8.70765110064529900D-01 -3.57157425521543200D-01 -5.85312930123086500D-03  8.86945236706015100D-03
44  3 -1.69473084270981300D-02  8.07785606003749400D-03 -2.57771588193487700D-02  2.91434127477793300D-03  4.74323188276621300D-03
44  4  1.47355715855264000D-02 -6.56501236805083300D-02 -9.11271132284673800D-01  1.49190380517631500D-01  3.70921309731240600D-02
44  5 -1.22276410777765900D-02  8.59768287698474200D-01  3.73553311935723200D-01 -8.81604936346960100D-02  7.43804194276905300D-03
44  6 -1.60657738978662900D-02  8.62773195509701100D-03  2.66899507800827800D-02 -2.91302927981315800D-03  1.75185353928923000D-03
44  7  1.47299721608393700D-02 -6.56408274626986000D-02 -9.11472956407025500D-01 -1.49122791783534200D-01 -3.70473174852085500D-02
44  8  1.24382241879175600D-02 -8.59278482354907900D-01 -3.73630765148151700D-01  8.91918135058448100D-02  7.42565308451549200D-03
44  9 -1.60580776139236000D-02  8.63242452940821100D-03  2.66982761033467200D-02 -2.95342355780759100D-03  1.79824089018455800D-03
44 10  1.47424547757203900D-02 -6.56117357520801200D-02 -9.12030932833696600D-01 -1.50190038875734900D-01  3.42173298141004700D-02
44 11  4.23785225155125700D-03 -8.71019260644753900D-01  3.57430035824725400D-01  6.94773013166671300D-03  8.86343854939013500D-03
44 12 -1.69602893752057200D-02  8.09685082581528300D-03 -2.57869322461531400D-02  2.87799046547441400D-03  4.69951254565461800D-03
44 13 -4.80355827478494600D-02  1.23308873266261100D-01  2.16103112863739400D+00  2.16344352327638600D-03 -1.40947124166987700D-01
44 14  1.58367822923888400D-02  1.43348226430501300D-02 -9.04002457712249600D-01  1.01493635082214100D-01  1.26321441856095600D-03
44 15 -1.72316798714187000D-02  1.59684654528571200D-02  4.38172547573390600D-04  8.94973978458945000D-04  4.38915828857538600D-03
44 16 -4.80426450953999100D-02  1.23318333622907700D-01  2.16137681608022200D+00 -2.10093463463194900D-03  1.41055560967143600D-01
44 17 -1.52932766706728100D-02 -1.43511967210624400D-02  9.04590760282843800D-01 -9.94609525481928000D-02  1.25993448870810100D-03
44 18 -1.72469991858856200D-02  1.59870646971777800D-02  4.31128782182091200D-04  8.96234520439286700D-04  4.30305567469090600D-03
44 19  1.98583919487641000D-03 -2.88981521826919200D-02 -9.64118904670202100D-02  4.69276370191300100D-01  8.69361120907374500D-04
44 20 -5.92664136355519300D-02  6.35715067491865100D-03  1.04954333215753500D-03 -7.18629007154367400D-02  7.66592298970711900D-03
44 21 -1.30962967751437200D-03  1.02246529062414500D-01 -1.05583616278599800D-02 -4.38370918222450200D-03  3.23462846214997700D-03
44 22  1.14908072007441800D-03 -1.01212905839370100D-04  3.55006757228270500D-04 -2.67484053785839000D-04 -2.06721128393278900D-02
44 23 -1.92059316274649000D-03  2.25927060020748500D-02 -1.05428414000184000D-05  2.72109642181382400D-03  3.23555849361863000D-03
44 24  1.98758078197064300D-03 -2.88895443867190900D-02 -9.64457298236772700D-02  4.69125277342818700D-01 -8.94761211604432900D-04
44 25  5.92357327266326200D-02 -6.66361856087167800D-03 -1.06841280424130600D-03  7.18155798247147700D-02 -7.99885955110450600D-03
44 26  1.48442731107303000D-03 -1.02067348883402900D-01  1.18930235506921700D-02 -4.38333854619070000D-03  3.23661947958227600D-03
44 27  1.14671906660795300D-03 -9.91972714166802100D-05  3.54618248909814500D-04 -2.59403005509598600D-04 -2.06724434982392100D-02
44 28 -1.90495419738588300D-03  2.25773976956250200D-02 -2.31948398873219300D-05  2.72111830353092200D-03  3.23244903160839900D-03
44 29 -3.47879209128141200D-02 -3.90118544747113800D-01 -6.00068074875274300D-03 -1.81553909697398600D-02  2.38971128427297200D-03
44 30 -3.47538339830280700D-02 -3.89848359305935800D-01 -6.56667550906471800D-03  1.80384864202324700D-02 -1.66786104960133200D-03
44 31 -3.47379573035986000D-02 -3.89822333617247800D-01  6.57002164445757300D-03 -1.80322458206228000D-02  1.69866849331988800D-03
44 32 -3.47107631127258100D-02 -3.90752823904856900D-01  6.01168440700296300D-03  1.81540577315952500D-02 -2.35840102402473200D-03
45  1  1.64111528916163100D-05  1.44007627703810000D-04 -6.61066315493863400D-04  1.18830413596692600D-02  2.44581949515363700D-02
45  2  2.20570393724267800D-01  3.84001442983533600D-02  7.36732179401030500D-02  6.57996181030747200D-01  1.99256431099575500D-03
45  3  2.00908211267791600D-03 -4.00164642367395300D-03  3.04472457849266500D-03  2.12125840955894500D-02  1.04780411757618800D-02
45  4 -3.27278194127839600D-05 -6.56587861430930100D-05  1.87074466876386800D-03 -1.20556967155648300D-02 -2.51057988496207700D-02
45  5 -2.20476284807923800D-01 -3.94711845076678700D-02 -7.47313374440111600D-02 -6.57721210916525600D-01 -2.03097362077918500D-03
45  6  2.10617937417823600D-03 -7.52057533991618300D-05 -1.85093381729830300D-03 -2.16749684361637500D-02  1.02871856068797600D-02
45  7  1.65160110880119700D-05  1.42172454228356400D-04 -7.59595045822596900D-04  1.18795574160483900D-02  2.44689879189721400D-02
45  8  2.20588434323167700D-01  3.24658219783350600D-02  7.35669190612991100D-02  6.58399474260182100D-01 -2.02028317438501300D-03
45  9  1.92801006050713500D-03  9.22731138778333700D-05 -1.93697757085090000D-03 -2.16567104029968000D-02  1.03420826277522400D-02
45 10 -3.02759404460944000D-05 -6.75587211266988700D-05  1.67625863491651900D-03 -1.17150208494126600D-02 -2.51132550360079200D-02
45 11 -2.20528544220176400D-01 -3.14765306017963400D-02 -7.45950824107185400D-02 -6.58386729952616600D-01  1.98198122656898700D-03
45 12  2.18549414387430000D-03 -4.16747537044365600D-03  2.93567380616051400D-03  2.12127919374731400D-02  1.04380704142142900D-02
45 13 -1.25780682392914200D-04 -2.98408371344811000D-04  1.85318415753350900D-03 -1.57192616333432100D-02 -3.31964900110689100D-02
45 14 -2.91580247325316800D-01 -3.35436806786380100D-02 -7.43827468401069000D-02 -6.22049153701481300D-01 -7.17429783803686200D-05
45 15  8.75772640814910800D-04 -8.04029662434515700D-04  2.22596361686630800D-04 -8.72686886756375600D-05  4.25400525928506600D-03
45 16  1.80610618091838300D-04  1.73436875839068100D-04 -4.17000718722458100D-03  1.57113955300596500D-02  3.21532930667970700D-02
45 17  2.91720239808873600D-01  3.35374753903616800D-02  6.43319913165797300D-02  6.23192400352897500D-01  5.32727887213983900D-05
45 18  8.24468586405098400D-04 -8.77741375126449800D-04  2.27144979823546100D-04 -9.42841279780384700D-05  4.25206866104182000D-03
45 19 -1.81762829151236600D-06  3.55286104035933300D-05 -1.60372665675744700D-04 -5.32456011233679600D-03 -9.35355568628045700D-03
45 20 -1.94528640067231500D-02 -1.73652494974233700D-01 -1.76732549950905700D-02 -3.71978572596620000D-02 -3.28319937796253100D-01
45 21  1.49794973221618400D-02  2.90645990216419900D-02  2.77197812150461600D-01  6.07673613310474500D-06  1.20130611644901000D-03
45 22 -1.20738285258204400D-03  3.29431833526377600D-04 -1.38182011980874100D-04  6.24734307771610300D-03  1.61550330752570200D-04
45 23 -3.33147447538231700D-04  1.71597116785686500D-04 -6.08421306766298300D-05  1.46958842449215000D-05 -1.25793914101225800D-03
45 24 -3.12840306000959100D-07 -1.49020208645660000D-06  2.64238348936070500D-04  4.56959161477310400D-03  9.36157259242467600D-03
45 25  1.94885777620405900D-02  1.73621024868361300D-01  1.77141476564677900D-02  3.65101399938957500D-02  3.28347923249580900D-01
45 26 -1.49211896414033600D-02 -3.29460131813156700D-02 -2.76800677411752700D-01 -1.96722861845398300D-05  1.25371755670106000D-03
45 27 -1.23404527051635100D-03  3.28906558098408400D-04 -1.37393100508412000D-04  6.23637617347662800D-03 -1.28226793341398800D-04
45 28 -1.73588997853038100D-04  3.01815791194402700D-04 -6.98381656859390800D-05  3.86163269570818300D-05 -1.26673718863705200D-03
45 29  9.63805718669227200D-05 -2.31342848756857900D-03  1.04678477938903300D-03  2.19768066906370600D-03  1.95922302553577100D-02
45 30 -7.29106393377505200D-05  2.83840832264698800D-03 -1.03791422098379600D-03 -2.22200362805082200D-03 -1.95890624921567000D-02
45 31  1.26693926448360400D-04 -2.28336460700591200D-03  1.06599700752292300D-03  2.19966346617448600D-03  1.95891088615192400D-02
45 32 -3.56171041591815300D-05  2.72451653121210100D-03 -1.07012687746022100D-03 -2.22484355359857500D-03 -1.95840780116149600D-02
46  1  2.64174368558999000D-03  1.65177656182644800D-02 -4.39155332325457500D-02 -1.21461113072848300D-01  1.74070064373949100D-01
46  2 -1.25681946540943600D-02 -1.62457370396728500D+00  1.02073767327283900D+00 -2.62199024009338900D-02 -2.23059661156702900D-02
46  3  2.78511825492761300D-02 -5.54521643360452100D-03 -2.24349951867123800D-02  3.60931497648204900D-03 -3.13141586108534100D-03
46  4 -2.55396617229869400D-03 -1.66326162327138500D-02  3.70116778461799300D-02  1.16475332326397200D-01  1.76231163802926800D-01
46  5 -2.65207685420070200D-02  1.59475338932565300D+00  1.05579192017365800D+00 -2.05472349748817900D-01  2.34030578544655800D-02
46  6 -2.85578698738541600D-02  5.15481201938936900D-03 -2.04897815422794800D-02  1.14412436601757400D-03  5.56572912666106100D-03
46  7  2.55817047773014300D-03  1.66558026462541800D-02 -3.67412507697517500D-02  1.16517542804098500D-01  1.76276435072231000D-01
46  8 -2.56321421340527600D-02  1.59511247096715900D+00  1.05558333315601200D+00 -2.03626578008917400D-01 -2.34201911219631300D-02
46  9  2.85740494586467200D-02 -5.15385833668404300D-03  2.04909007084510400D-02 -1.25938320592761200D-03 -5.54953083062042100D-03
46 10 -2.63668931982337000D-03 -1.64766099690926100D-02  4.38104099350659700D-02 -1.21421411048564300D-01  1.73929412111445600D-01
46 11 -1.34354913481065900D-02 -1.62437668567909700D+00  1.02033823396121900D+00 -2.80234954102597900D-02  2.23080216740342900D-02
46 12 -2.78477523608295100D-02  5.53973068679627500D-03  2.24485369111054400D-02 -3.50151074484638100D-03  3.15334862487458000D-03
46 13  5.77128885829807500D-02  1.29903535843191900D-03 -2.29163146090245400D+00 -9.61032525853569500D-04  1.13648695527125100D-01
46 14 -1.35322359384542500D-02 -1.98266231220497500D-02  1.51751077360227700D+00 -1.73502106113201400D-01  3.46025594807693000D-02
46 15 -2.21149406078563900D-02 -1.24876188729133800D-02  7.52727288454816000D-04 -3.01613548003445400D-03  1.22702000916784500D-03
46 16 -5.77046694462524500D-02 -1.29144542948953600D-03  2.29118398866351300D+00 -7.66604221940042600D-04  1.13782235326383700D-01
46 17 -1.19399362556798400D-02 -1.91083001469163900D-02  1.51823766095457800D+00 -1.65434770847107900D-01 -3.45943110494332000D-02
46 18  2.21181653490451900D-02  1.24761457003882900D-02 -7.59376036907252200D-04  3.01572685339555300D-03 -1.18572317336277200D-03
46 19 -5.77069458538463500D-04  1.75827696149972700D-02  1.45007174748749100D-01  1.14463050147062000D+00 -1.29669874678083200D-03
46 20  6.21027108114508800D-02 -7.09306567619491200D-03 -3.58033588050858100D-03  1.59538451345135600D-01 -1.82090816587459400D-02
46 21 -4.44454977230854800D-03  3.44798134817006200D-01 -3.72530801784485900D-02 -7.71859362974063100D-03  6.24839535425960500D-03
46 22  1.47019827548027500D-03 -1.67864551316813700D-04  5.88448165112539600D-04 -5.81337458551118200D-04 -3.77716249752553100D-02
46 23  2.64954453239247500D-03  3.51220804428637200D-02 -2.63668847626327900D-04  4.60736583359758300D-03  4.18030546934354500D-03
46 24  5.76537605711791900D-04 -1.75891253570775400D-02 -1.45004023326534300D-01 -1.14482757139420600D+00 -1.26287123838464300D-03
46 25  6.21827346070953600D-02 -6.71363906065394200D-03 -3.47243329038157500D-03  1.59758934591303900D-01 -1.72393000150531100D-02
46 26 -4.67006138649042700D-03  3.44552325259772200D-01 -3.96667906128911100D-02  7.71801489034988000D-03 -6.23440161310090000D-03
46 27 -1.48361327724901800D-03  1.70094028875029400D-04 -5.89726741455226200D-04  6.44916373068871300D-04  3.77752661387382000D-02
46 28 -2.70667173254640200D-03 -3.50685944061918000D-02  2.61463903386665700D-04 -4.59940710454778500D-03 -4.41616381234531400D-03
46 29 -9.62813881493523600D-02  6.60227513483328400D-01  2.10050254690553300D-02  6.24707922254635500D-03 -1.78812038242539100D-03
46 30  9.70927721301485700D-02 -6.59608392088334900D-01 -2.12735712907372700D-02  5.69913359731364700D-03  4.60810114602888100D-04
46 31 -9.71136653242065000D-02  6.59936200427835500D-01 -2.12740528360873800D-02  5.71311858186510400D-03  5.49188865524980500D-04
46 32  9.62819379953364400D-02 -6.60068470355694400D-01  2.09893512915557300D-02  6.24236031362906100D-03 -1.87908231390030500D-03
47  1 -1.40151634089665100D-02  3.22981751304913100D-02  1.54912250090676100D+00 -1.02332387987216800D-01 -2.66749657162112600D-02
47  2  8.33228215236088400D-03 -7.23148732396524700D-01  8.93212176903260700D-01 -6.22962989758771400D-02  1.26842494885953400D-02
47  3  5.16394653345627200D-03 -1.78481960220512300D-02  6.35766395959833900D-02 -9.08791550234397200D-03 -6.47569310956684300D-03
47  4 -1.40244690802251200D-02  3.23295320084718800D-02  1.54993982426163900D+00 -1.02690876250070100D-01  2.56234913495339000D-02
47  5  2.52835234220703800D-03 -6.86186808163818400D-01 -8.99579383310813800D-01  1.37252652651346500D-01  1.62656490965396300D-02
47  6  2.85902865143785800D-03 -1.91246777479775000D-02 -6.37823356249134600D-02  4.99770394687946200D-03  5.53791157868910100D-04
47  7  1.40628191330937600D-02 -3.21504356943878000D-02 -1.55002900350496600D+00 -1.02567946422154000D-01  2.55950200823664500D-02
47  8  2.79969255088174900D-03 -6.85879687307964900D-01 -9.00879716765100600D-01  1.38998730910252000D-01 -1.63190209965221500D-02
47  9 -2.87458891117878600D-03  1.91936099077010500D-02  6.38411109715143600D-02 -4.96063217618165600D-03 -6.88313409028599200D-04
47 10  1.40461328749801600D-02 -3.22529986503522400D-02 -1.54969859602230700D+00 -1.02300135499833100D-01 -2.66610024185378300D-02
47 11  8.66981175272743700D-03 -7.22163706790795000D-01  8.92878503178588700D-01 -6.05247236488003900D-02 -1.27382538635592600D-02
47 12 -5.09109790704844300D-03  1.78293517706087800D-02 -6.36415470500840300D-02  9.13706588474801900D-03  6.61405713065299900D-03
47 13  1.63414949692833200D-04  8.31271837765262400D-05 -5.92680355434630700D-03 -3.31563710313232100D-01 -2.89505322666679500D-03
47 14  1.82045874334162200D-02 -1.93280922129264700D+00 -1.38023452912381600D-02  1.05717799495329600D-01  6.48245343770996800D-04
47 15 -4.08177188984168200D-04 -2.40068154785683200D-04 -1.97970840332034600D-02  2.19257632044712600D-03  1.11645204744398300D-03
47 16 -1.36203103165196100D-04  3.62974823544413800D-05  6.85870840360279400D-03 -3.31655593797198300D-01 -2.94503159548016300D-03
47 17  1.81835979209382400D-02 -1.93188947472335100D+00 -1.53179455858937700D-02  1.05798467897166700D-01 -6.02723910336178100D-04
47 18  3.66795081971114600D-04  2.35928828364572500D-04  1.98172132964063200D-02 -2.17189998763642500D-03 -1.11120548102440900D-03
47 19  1.47691574147826300D-05  5.41550661113296100D-05  5.39162599829507500D-05  2.54695841179337500D-03  1.06731301380513200D-01
47 20  1.15094363515877900D-03 -5.87188117259906900D-03  4.00369750093996200D-01  4.10882202689964700D-03 -2.20226562279496100D-02
47 21 -3.11733124986983700D-01 -2.16606003033841700D-03  1.70388253253544200D-02  2.10741088525574500D-04 -1.28926898494637500D-04
47 22 -8.18141900315567900D-05 -8.40807214852451100D-03  9.10287379696624000D-04  4.69955366120311900D-04 -8.72780757288074200D-04
47 23  4.94931481109495800D-04  3.77849276176876200D-04  2.87133669963907700D-02 -3.02226117456139600D-03 -1.60181473599348800D-03
47 24  1.56104938864309000D-05 -6.70082501357928100D-05 -7.85952905549885200D-04 -3.62974042924162600D-03  1.06644335424473000D-01
47 25  1.27299217097737500D-03 -5.89641967296173100D-03  4.00314081087148200D-01  4.52732823136108600D-03 -2.20921046203626000D-02
47 26 -3.11731563373480100D-01 -1.93845072819392100D-03  1.70186377292685400D-02 -2.06995430916122600D-04  1.18434236169591100D-04
47 27  8.85611947469721500D-05  8.40169275449992300D-03 -9.50676210528485700D-04 -4.68933050360049200D-04  9.12679378790147800D-04
47 28 -4.95218950785829000D-04 -4.17460428004320300D-04 -2.87204349187354000D-02  3.30188871927153500D-03  1.59906718717433200D-03
47 29 -1.67264726243647300D-01 -8.85232687310439900D-02  2.03817203844221900D-02 -2.62760764505249600D-02  1.84149721944531400D-03
47 30 -1.66730411339405600D-01 -9.19766525216628900D-02  1.94325495541291800D-02  2.66852629628184700D-02 -4.05584881850101700D-03
47 31  1.66479541707560700D-01  9.26666176832896700D-02  1.93978596075437200D-02  2.66626959930431200D-02 -4.03086152508421000D-03
47 32  1.66948865181607200D-01  8.97669241934085600D-02  2.03328057471829400D-02 -2.62497825323406200D-02  1.86542804264032500D-03
48  1 -3.78619801584365700D-02 -1.21333148731165800D-01 -5.88545336261538000D-02  5.45328713848542900D-02  5.47168338883962200D-02
48  2 -9.21947118204929700D-03  5.20832676156121700D-01  2.50681895106212000D-01 -5.63273235754464300D-02  4.40355696417816900D-02
48  3 -2.37729468480344600D-02 -2.02626227937472300D-02  7.26123290589060900D-02 -1.22738361102599100D-02 -3.50427513826014800D-03
48  4 -3.78887103751216700D-02 -1.21365219647397800D-01 -5.72089747503567300D-02  5.62629811811460500D-02 -5.36697599556829900D-02
48  5  2.86951159469441000D-03  5.28237323438404600D-01 -2.39606506954589500D-01 -1.72123438881728500D-03  4.79515301519714100D-02
48  6 -2.61827283076006300D-02 -2.17688018443712000D-02 -7.10088384462369800D-02  3.60728554356474700D-03  4.40592485557449800D-03
48  7 -3.78663762541805800D-02 -1.21437067548669100D-01 -6.04457854538941300D-02 -5.63552534980723300D-02  5.37555432351513300D-02
48  8 -3.13131871775437600D-03 -5.29475670621699000D-01  2.39774168468041700D-01  1.49723882185735600D-03  4.79440165158326200D-02
48  9 -2.61697528584073600D-02 -2.17742636574255600D-02 -7.09338562087506600D-02  3.73163148626736300D-03  4.54501796938232700D-03
48 10 -3.78984534427575700D-02 -1.21393294340258000D-01 -5.89399273858549300D-02 -5.45972730802902600D-02 -5.47858400814751300D-02
48 11  8.97013667647765200D-03 -5.21402586412786600D-01 -2.48617005599043000D-01  5.58502192935957200D-02  4.40408587036794700D-02
48 12 -2.38190727793381400D-02 -2.02217859243410000D-02  7.25652482612316700D-02 -1.21452231379345700D-02 -3.63306896086573200D-03
48 13 -2.78331273957758800D-02 -1.37418965767960800D-01 -5.73855384875631100D-01  2.07957247474161500D-04 -2.19853202383287000D-02
48 14  2.73656548450844900D-03  2.86254216560769000D-02 -1.86935567240867900D+00  2.11244991714112500D-01 -3.69878663402197600D-02
48 15  4.32196964836551900D-02 -6.23183014343658200D-03 -1.25644829802678400D-03  2.02027501628944200D-03 -6.45381955772798800D-03
48 16 -2.78305829313408900D-02 -1.37424414037181000D-01 -5.74633648569964800D-01 -4.34581457335117700D-04  2.19486704131663700D-02
48 17 -2.15308268378513500D-03 -3.05047247565570200D-02  1.86956100663987000D+00 -2.05456150402234500D-01 -3.69874355007486400D-02
48 18  4.32176146951503600D-02 -6.23017919440178900D-03 -1.24163805475129400D-03  2.02170240113383200D-03 -6.37553743439824500D-03
48 19 -3.72873768659530700D-02  2.07876027559236300D-02  9.65725782695437200D-01  1.03365634523118400D+00 -2.40276673107701300D-03
48 20  1.54464674982690500D-01 -1.71337781666032200D-02 -7.63858484634080800D-03  4.96757553806681900D-01 -5.47622661870410700D-02
48 21 -2.75105188940734800D-03  1.66903900044113900D-01 -1.79411569132073700D-02 -5.90573686146056300D-03  1.12881592497262300D-02
48 22 -5.38242238826508000D-03 -3.13769639891392400D-04  5.46291339747458200D-05 -2.14387136709158900D-03 -1.17913252563669600D-02
48 23 -7.99429273212526800D-03  1.97856179884924000D-02  1.83090819816401400D-04  1.97538109856726300D-03  3.67173080176934100D-03
48 24 -3.72898326340226000D-02  2.07783155892336000D-02  9.65692321375589600D-01  1.03335595835754400D+00  2.48500151390663800D-03
48 25 -1.54465745864842700D-01  1.72958755204922600D-02  8.05652297923744800D-03 -4.96627749185788300D-01  5.59356951313441600D-02
48 26  2.44468969516852700D-03 -1.66620126300522200D-01  1.92147182287774600D-02 -5.89994207398406400D-03  1.12703863640328900D-02
48 27 -5.37044429004885800D-03 -3.07608600095968200D-04  5.46868556988888100D-05 -2.19674110027219700D-03 -1.17680717306976000D-02
48 28 -8.03358065076608400D-03  1.98016523814637000D-02  1.40955659725113600D-04  1.97418410470724500D-03  3.64423106616516200D-03
48 29  2.20778707844720600D-01 -7.34223080660238600D-01 -3.80607812245584900D-02  1.63713872683590100D-02  2.10417097700896400D-04
48 30  2.20725713691481200D-01 -7.33744889805119300D-01 -3.75309044277612700D-02 -1.70938746732565800D-02  3.94122762832723000D-03
48 31  2.20895601021618700D-01 -7.33828691617123600D-01  3.75475032570908300D-02  1.71193873889365600D-02 -3.94707760389437200D-03
48 32  2.20908554646098600D-01 -7.33657033314678700D-01  3.80816489214264700D-02 -1.63974942850732800D-02 -2.12823820311248900D-04
49  1 -3.60535692972247900D-02  1.11407506249646200D-01  2.80425023252073900D+00 -6.86216613011503000D-02 -1.28156363933934800D-01
49  2  1.83472993492671700D-02 -9.07754968828481300D-02 -2.45329530367112000D+00  2.80503381185013100D-01  8.63382435340756000D-03
49  3 -1.83479383940226800D-02  9.71411404061592300D-03  7.24338959603375300D-03 -7.28885413765483700D-04  3.31853380985516700D-03
49  4  3.60781918057034200D-02 -1.11323855984586400D-01 -2.80305062875083100D+00  7.26414137492480800D-02 -1.26650909790609300D-01
49  5  1.00169226209843000D-02  1.67146052252514200D-01 -2.45156268050586300D+00  2.66378970588217600D-01 -8.96066448658073400D-03
49  6  1.86038019324797000D-02 -9.64313744589761500D-03  6.22173897428100100D-03 -7.65001192565986600D-04 -4.03227654281554000D-03
49  7  3.60633571566899400D-02 -1.11331812308400400D-01 -2.80400721300150900D+00 -7.26570460422989500D-02  1.26595387810623000D-01
49  8 -1.05745048405353500D-02 -1.66969462356954600D-01  2.45116592784724900D+00 -2.66389787757166300D-01 -8.97307064836483200D-03
49  9  1.85788932903109100D-02 -9.60582264194848600D-03  6.25064011707424500D-03 -7.69415303526597200D-04 -4.07783226632854300D-03
49 10 -3.60463297113620800D-02  1.11367403937090800D-01  2.80363837853253700D+00  6.86210056003108800D-02  1.28078439123833700D-01
49 11 -1.78081227327837000D-02  8.99431327471493500D-02  2.45393892196398900D+00 -2.80526549709250800D-01  8.62611735111952700D-03
49 12 -1.83663497000948300D-02  9.74023234897489400D-03  7.22304344578364400D-03 -7.22207540208916100D-04  3.26953869599386700D-03
49 13  3.14337368579407000D-05  4.86010933495862800D-05 -8.31459065081730100D-04 -1.25697485212427700D-01 -1.23234809708735000D-03
49 14  6.91438605271789100D-03  3.39355867466158200D-01  3.97139792332912600D-03 -1.87322647412842400D-02  1.20514381403476400D-03
49 15 -7.41134762317369100D-04 -4.64009051717615700D-04 -4.50488330410648300D-02  4.99301896218535500D-03  2.52586170669760400D-03
49 16  2.84114787646396200D-05  6.03836726210962300D-05 -1.45850512296683000D-04  1.25629068218745500D-01  1.30362193756878300D-03
49 17 -6.91169042540813000D-03 -3.40422999524881100D-01 -3.44612678117311800D-03  1.87353035049051400D-02  1.20224341829713000D-03
49 18 -7.33776451324430300D-04 -4.68466966971695700D-04 -4.50387227104018700D-02  4.98090552410940500D-03  2.52282140700063300D-03
49 19 -2.49059314147969300D-08 -4.12218310960767900D-07 -3.62993754830599900D-05 -1.24116929249596400D-06 -1.50543871158885300D-01
49 20 -1.43979883185997300D-03  8.27336703431100700D-03 -1.43275792377863200D-01 -1.36592582359763300D-03  7.87363527355166100D-03
49 21 -2.05597237869590700D-01 -1.92262722508116800D-03  1.12864623266641200D-02 -2.86024845265301900D-04  1.73339613837494100D-04
49 22  1.12685231427696800D-04  1.06268504652626400D-02 -1.16544170909045200D-03 -5.94845889147524800D-04 -4.16274453798795600D-04
49 23  2.67687222901846500D-04  1.48587230896914500D-04  1.64698021029238000D-02 -1.50895978041316700D-03 -9.17003127579507400D-04
49 24  3.85047963530717300D-06  5.19000824123867800D-07 -1.31557034954283900D-04 -2.42318203562514400D-04  1.50558890861794400D-01
49 25  1.45767254322665900D-03 -8.27657074990531200D-03  1.43469400093040700D-01  1.40724726297176900D-03 -7.88840675699189000D-03
49 26  2.05486873345654700D-01  2.01724969936895000D-03 -1.13042174722396900D-02 -2.88294032330147200D-04  1.73069132901488700D-04
49 27  1.15224899428898200D-04  1.06292234854850300D-02 -1.18707377821404500D-03 -5.95086480971796700D-04 -4.66173224181776800D-04
49 28  2.72602297514146300D-04  1.93570926667632100D-04  1.63517643241954200D-02 -2.10298704339125200D-03 -9.21889123131209700D-04
49 29  2.31949167029136100D-02 -4.83201091674288000D-01  1.09535219344631100D-05  9.88801832860915400D-03 -1.13385309725483800D-03
49 30 -2.31942113887391200D-02  4.83319232151590400D-01 -3.11504860544043500D-04  9.88346510681711200D-03 -1.07074808458992300D-03
49 31 -2.31353108860951300D-02  4.83620681158874900D-01  3.25037978081846200D-04 -9.86924070021850100D-03  1.11429669550575100D-03
49 32  2.32936768368073500D-02 -4.83442264357005600D-01  4.14596966445507800D-06 -9.90903458198648700D-03  1.09134051457329300D-03
50  1 -3.04429308648762100D-02  1.48791025615121300D-01  2.49814514827294700D+00 -1.12713289437236500D-01 -5.07686629440920600D-02
50  2  1.17456577328086500D-02 -1.23391737164413500D+00 -1.07925921100585700D+00  1.85805475454294900D-01 -8.50642193771304600D-03
50  3 -1.05732202482855600D-02  1.90796421859986200D-02 -1.78626011720185500D-02  3.70039453637008600D-03  4.84700384942498300D-03
50  4  3.05527180301398100D-02 -1.48622894813208500D-01 -2.49614471841237600D+00  1.14414694295732500D-01 -4.80666097127484300D-02
50  5 -7.58782242184100200D-04  1.26655043741864600D+00 -1.05627887870680300D+00  5.23727693392898200D-02  9.64358120648772100D-03
50  6  1.00106780727261800D-02 -1.96542592792133400D-02 -1.83024528096390100D-02  2.88375307237021300D-04 -2.94736985835886400D-03
50  7 -3.05344321661212200D-02  1.48651624175146000D-01  2.49753010149483900D+00  1.14292681984992300D-01 -4.81748845204270900D-02
50  8 -7.47672266551158000D-04  1.26679183196545500D+00 -1.05709266924918400D+00  4.85630054428254900D-02 -9.55717691107132700D-03
50  9 -1.00128725732994800D-02  1.95700494843706000D-02  1.83108168232740100D-02 -1.63778743023162200D-04  2.83805200487364900D-03
50 10  3.04609638388198900D-02 -1.48787693262315200D-01 -2.49875151099276200D+00 -1.12784671506920800D-01 -5.05411852885665900D-02
50 11  1.17966277951433800D-02 -1.23343582746632900D+00 -1.07981493076005300D+00  1.89726596905748500D-01  8.57119314916680900D-03
50 12  1.05403907711693600D-02 -1.91115839203368300D-02  1.78651969487605100D-02 -3.84315961897047400D-03 -4.94443201485838600D-03
50 13  3.89888426453675600D-02 -1.45083830344179800D-01 -3.31893005325551400D+00  7.55539906614586800D-05  6.51954220070893500D-03
50 14 -7.05144385379195300D-04 -3.59046210370384800D-03  1.55599158569737700D-01 -1.58097300233406200D-02  4.17818623459178600D-03
50 15  2.01948592024009800D-02 -2.43730454369920600D-02 -4.99857191613895800D-04 -1.76213126351038100D-03 -5.95864037840910200D-03
50 16 -3.89330414420737700D-02  1.45178153715040300D-01  3.31776644622769500D+00  1.24096403904387700D-04  6.77070842272662600D-03
50 17 -7.69444497684917100D-04 -3.51051103012449000D-03  1.55264847351978300D-01 -1.89903780004183700D-02 -4.25895158592280100D-03
50 18 -2.01846567635268500D-02  2.44436083494485200D-02  4.82474027838078500D-04  1.77081989227459400D-03  5.72565326274200100D-03
50 19  1.11608963059964500D-02 -7.50810856538212100D-02 -5.79419436543090100D-01 -7.72963346320299600D-01  2.76329693465898400D-03
50 20 -1.78393769880326300D-01  1.95506562927141400D-02  8.96529294064465700D-03 -5.60187272483442700D-01  6.19593045261150800D-02
50 21  4.04770807900433600D-03 -2.54052016635084000D-01  2.78442807887484000D-02 -3.52176177921989300D-05  6.44713317762137700D-04
50 22 -6.09495699971153900D-04 -1.87090753611900800D-05 -3.48134671077357900D-05 -1.84334501550286600D-04  1.64670091822694200D-02
50 23 -6.47095694095582400D-02  4.82425602272877900D-02  1.83149293892997900D-03  1.87046350467972100D-03  1.48143256735379400D-02
50 24 -1.11684911298268300D-02  7.50917013905495800D-02  5.79532952602693100D-01  7.73024209314144700D-01  2.76994636832531200D-03
50 25 -1.78400286405572800D-01  2.02145518745085100D-02  8.97793815149679900D-03 -5.60246165229490600D-01  6.29454807174827500D-02
50 26  4.04134623303562100D-03 -2.53997774626610300D-01  2.87970735766433700D-02  4.35747400210126800D-05 -6.64570401009131700D-04
50 27  6.20995660987973800D-04  1.52843566513737300D-05  3.52810702768698400D-05  1.50970223911315400D-04 -1.64446397734255900D-02
50 28  6.46739969615039900D-02 -4.82293571880784000D-02 -1.81069276631212900D-03 -1.86591873205723300D-03 -1.47085247627966400D-02
50 29 -1.33693620447615500D-01  6.17416730141165600D-01  2.15256079479112700D-02 -1.81044771989568600D-02  8.28080329581729100D-04
50 30  1.33607973437202700D-01 -6.17374658093838300D-01 -2.09227151987707700D-02 -1.84993374244827300D-02  3.25565682115921400D-03
50 31 -1.33418842248227300D-01  6.17191211033936800D-01 -2.08939649732920400D-02 -1.84812532999857600D-02  3.15650248387097900D-03
50 32  1.33863210703646900D-01 -6.17373179440424400D-01  2.15531585859422200D-02 -1.81116442067508700D-02  9.24065332568697800D-04
51  1  5.68433059059440600D-02  7.16503668955005000D-02  2.32934724831399100D-01  1.44901701400824600D-01 -2.93815008905713100D-01
51  2  2.65210633729175900D-02 -4.38610276616450100D-01  3.49000300197146000D-01 -1.66534473128874400D-02  9.68159589169607400D-02
51  3  1.47330053922072000D-02 -1.11548964309167600D-01 -2.78026052179930300D-04 -1.29035111266363000D-02 -1.67040769750601600D-02
51  4  5.67419520176413400D-02  7.16181570140173400D-02  2.39970026601330500D-01  1.35828258783308400D-01  2.96960020883524200D-01
51  5 -3.93141329678129100D-02 -4.27024239222178600D-01 -3.49757612484450100D-01  6.12780463687137000D-02  9.67902239253789300D-02
51  6  1.48601615769009000D-02 -1.11650385502279800D-01  3.35040575363071500D-04 -1.29890654302755700D-02 -1.66630215619431700D-02
51  7  5.71088631712467100D-02  7.20372263915566700D-02  2.37010325483927300D-01 -1.35886608290655800D-01 -2.97522500100064500D-01
51  8  4.20670905858460800D-02  4.25392545000938500D-01  3.53833645971082700D-01 -6.37265600392677000D-02  9.69283061124467100D-02
51  9  1.49892101166095800D-02 -1.11917516229056000D-01  3.98978077507240000D-04 -1.33444318715083200D-02 -1.68267716156113600D-02
51 10  5.70586732636830800D-02  7.21525695282894800D-02  2.38679694781094500D-01 -1.45040550079422000D-01  2.95018379445793500D-01
51 11 -2.40045106022536600D-02  4.40907301100218500D-01 -3.48758661475600400D-01  1.44075553734999900D-02  9.69048669055535300D-02
51 12  1.49435839615105600D-02 -1.11848450867063800D-01 -4.64221086047151500D-04 -1.32465823436111500D-02 -1.66700424907939900D-02
51 13  5.43438615413944000D-02  2.00902169893094800D-01 -4.31140195695762000D-01  1.66924890368912200D-03 -1.61142875358690400D-01
51 14  1.91009277297084200D-02 -1.16527035675569400D-02  6.99111052347613400D-01 -8.01152929644824700D-02 -1.20524699110750300D-01
51 15  5.98916559198831600D-02  6.06330431908676800D-02 -2.05402461668280100D-03  1.15355598960635000D-02  2.18487950768628900D-04
51 16  5.43591052264137500D-02  2.00817056232011400D-01 -4.33709832730338600D-01 -2.65720712456473100D-03  1.61304989911852500D-01
51 17 -1.69016531721531800D-02  1.44217773879619100D-02 -7.01678587242466600D-01  7.57642589502541700D-02 -1.20509947785452000D-01
51 18  5.98754381516820300D-02  6.06345096337696100D-02 -1.93429734661057700D-03  1.15283648131998300D-02  3.38136591517220500D-04
51 19  2.34534061609445000D-03 -3.37346376059697700D-02 -3.16919013918093600D-01 -2.87964991922339700D-01  9.91972468401338600D-04
51 20 -5.33749082394304400D-02  5.66377028903337200D-03  2.20395219370655700D-03 -1.59440058476426400D-01  1.77531086617388900D-02
51 21 -2.83676728449373200D-04  4.02271862012296000D-02 -3.89034508916524800D-03  7.48004193557397900D-03 -1.02323812633981900D-02
51 22  2.75233932782395800D-03  2.87928965070209400D-04 -3.16836177721239900D-04  1.63773963457808200D-03  3.27310116197793400D-03
51 23 -5.93962639924294500D-02  5.61231628304512700D-02  1.31954973040079600D-03  3.23738133865932900D-03  1.54152923096975300D-02
51 24  2.33085775344905000D-03 -3.37757259960637700D-02 -3.16549739613431000D-01 -2.87826170823571400D-01 -6.66040912502076000D-04
51 25  5.33612736114633300D-02 -6.24358291045489600D-03 -2.43877087281657000D-03  1.59623517899762600D-01 -1.78432276727909300D-02
51 26  1.53159529887998700D-04 -4.01018722888842000D-02  5.13093306437071000D-03  7.47841061945807400D-03 -1.02074794166156400D-02
51 27  2.72906879715749300D-03  2.96304706134247400D-04 -3.19586317545695500D-04  1.72880438481284700D-03  3.32506676800688700D-03
51 28 -5.96253911654239600D-02  5.63003243974170800D-02  1.82743728071171800D-03  3.18910544512998600D-03  1.48496730665259700D-02
51 29  2.76030992400420200D-01 -1.10779110052936900D-02 -4.17692537591579000D-02  3.11666106306552200D-02 -1.15359243728137800D-03
51 30  2.75641756041366300D-01 -9.36239747701581700D-03 -4.07228105098629600D-02 -3.18984150390092500D-02  5.87775942261262300D-03
51 31  2.75395029772735000D-01 -1.03743815448362800D-02  4.06774320669426000D-02  3.19222929020960800D-02 -5.68096369866115800D-03
51 32  2.75462290996959500D-01 -9.56426580903521300D-03  4.16657842292740100D-02 -3.10950439006888400D-02  1.34650183323876400D-03
52  1 -1.00778451385351800D-01 -1.64963803296062700D-01 -6.01499564995542400D-01 -7.67740207410944100D-02  2.92960636353377500D-01
52  2 -2.79892674470701400D-02  2.61095041197820000D-01 -7.00975584681469700D-01  6.42481378617844700D-02 -5.62318828417850700D-02
52  3 -5.75275500644287900D-02  1.13759432906213800D-01  3.85328150633243000D-02  6.18905746145045600D-03  2.03546450189747100D-02
52  4 -1.00773549590161900D-01 -1.65136911361778300D-01 -6.02943957154799100D-01 -6.75068193141372500D-02 -2.94287765863639800D-01
52  5  3.74633583918132500D-02  2.38725587326086400D-01  7.03345711429858100D-01 -9.23169844937450500D-02 -5.42128743333650800D-02
52  6 -5.87306170630750900D-02  1.12943491396440200D-01 -3.60721508856973400D-02  1.44507274048148700D-02  2.46852199604785500D-02
52  7  1.00602358768569600D-01  1.64934277430262800D-01  6.01150343958545800D-01 -6.70620316172345600D-02 -2.93486586960365600D-01
52  8  3.58048601405023300D-02  2.38870811277398400D-01  7.05634592264489900D-01 -9.17087796604468300D-02  5.39012168524368300D-02
52  9  5.86576107916815100D-02 -1.12558827644118600D-01  3.59978581506310800D-02 -1.47911719238709300D-02 -2.44713448128591100D-02
52 10  1.00590443552309300D-01  1.64656673137108600D-01  6.01743805868524600D-01 -7.65450495065896500D-02  2.91980730610070300D-01
52 11 -2.94674019187253600D-02  2.57767308412436400D-01 -6.96786317001080600D-01  6.48455852051733100D-02  5.59119755350707300D-02
52 12  5.74902304821028800D-02 -1.13402206017174100D-01 -3.85760736515079100D-02 -6.54250478046160600D-03 -2.04718315371365500D-02
52 13 -4.79403966396415800D-05 -3.91556824597958300D-04 -1.59773601168102200D-03 -3.81583052851973000D-01 -3.47448648937314400D-03
52 14  2.09491480263013200D-02  1.28689226923822300D+00  1.06451436559087200D-02 -7.05364218875116200D-02  9.76052904277293800D-04
52 15 -5.42127650553637000D-04 -4.33925253724191200D-04 -2.80948140582325500D-02  3.17148220991879600D-03  1.56756423552677900D-03
52 16 -1.51156706955784700D-04 -2.49264439155644100D-04  3.16315484694308300D-03 -3.81995153788431000D-01 -4.00322528817426800D-03
52 17  2.10388395106560800D-02  1.28394147941708200D+00  1.31668340641943500D-02 -7.06735321621510100D-02 -5.93290551521868500D-04
52 18  3.59000707596567900D-04  2.34289843925237700D-04  2.81313489697508300D-02 -3.05417797023840300D-03 -1.57055591173960400D-03
52 19  1.38048534627397600D-05  2.56923328521208000D-06 -1.96964169453430300D-04  3.93899405414288800D-05  1.03499847396664900D-01
52 20  9.42411193146781500D-04 -5.68427445793303000D-03 -1.32399482148841300D-01 -1.47705534873229800D-03  7.30107432563864000D-03
52 21 -8.16330616783186400D-02 -9.58747488659101300D-04  4.50452527768306500D-03  1.49404333209871600D-05  5.07968610133799100D-07
52 22 -1.54484019306827300D-05 -9.98310546278657800D-04  1.33894251394370600D-04  5.35230280264911700D-05  5.13707938061831400D-03
52 23 -3.12607168913514700D-03 -2.01100769148221400D-03 -1.92312852426118700D-01  2.05196202969981100D-02  1.07597739083699000D-02
52 24 -2.38044520678200900D-05  9.70983859990982700D-05  1.23234869490007800D-03  1.06012242210337700D-03  1.03453584027702300D-01
52 25  7.81715566920190500D-04 -5.66121190991280300D-03 -1.32711135942244700D-01 -1.98260068990898900D-03  7.37527624573594000D-03
52 26 -8.12085632116945600D-02 -8.87139509592261000D-04  4.47633958433466500D-03 -3.60753162378862600D-05  3.31118156849638200D-05
52 27  2.96350055289038000D-06  9.95255129553603800D-04 -8.83258470109227200D-05 -5.84641289975634900D-05 -5.28433783326328900D-03
52 28  3.30149319897965600D-03  1.98284463428363200D-03  1.92087442919770100D-01 -2.19897429282908800D-02 -1.08018860392492400D-02
52 29  1.48021893599755900D-01 -4.47509520901950800D-02 -3.52847989733377300D-02  9.31511206147579700D-03  8.57875342831648600D-04
52 30  1.48265663154570600D-01 -4.51504111401262700D-02 -3.50240609852230600D-02 -9.99286634437767700D-03  3.01072123281230200D-03
52 31 -1.48919265004148000D-01  4.47161045154697200D-02 -3.51206995335364100D-02 -1.00864802448141500D-02  3.02378628956424400D-03
52 32 -1.48833972822875500D-01  4.46704673681380900D-02 -3.54061166334120300D-02  9.39375749901578100D-03  8.49981314539950900D-04
53  1  3.51082143901283600D-04  4.90287144539348400D-04 -1.99183095327825200D-03  2.33407290584244400D-02  5.03021238995325200D-02
53  2  4.49916335756681500D-01 -2.23789249074055800D-02 -4.94799199133118100D-02 -4.62394313010372700D-01 -3.37732722637169900D-03
53  3 -1.73034011095685300D-02  2.06807283359400100D-02 -9.17402949676859200D-03 -4.04615188277216600D-02 -8.73740092973875900D-02
53  4  2.12356987328601300D-04  3.71679755216927100D-04  5.03344315780321000D-03  2.35943717062628800D-02  5.06561835999446100D-02
53  5  4.49865621105232900D-01 -2.57605904733376400D-02 -5.06520387101422900D-02 -4.62053853580142100D-01 -3.72382679852227300D-03
53  6  1.71592876387691300D-02 -1.34354608402469000D-02 -3.69523869564757900D-04 -4.42589208703172100D-02  8.69599949677000200D-02
53  7 -2.22380752547574900D-04 -3.85561671710928000D-04 -4.95076914858203200D-03 -2.53461621600387000D-02 -5.12549730125818300D-02
53  8 -4.57662560176814000D-01  2.51589617809696200D-02  5.47770944532029600D-02  4.68150827202562000D-01 -4.48416592501536300D-03
53  9  1.71380862632826100D-02 -1.26539203382663900D-02 -3.75045387576366400D-06 -4.44595287485379300D-02  8.75791616007085100D-02
53 10 -3.52978373556453900D-04 -5.01744766637302500D-04  1.98616770532181300D-03 -2.55721676575926100D-02 -5.16188217216826200D-02
53 11 -4.57617555797182400D-01  2.70649248136175400D-02  5.59758147368502000D-02  4.67914166802624300D-01 -4.29971377587591700D-03
53 12 -1.73220479905546400D-02  2.16217617664305400D-02 -9.65905404103919000D-03 -4.05463880691328400D-02 -8.77620099113035100D-02
53 13  4.31703261399093400D-05  3.61286005341829600D-05  2.72243031201190000D-04  1.17412682125622500D-03 -4.96035904288707700D-04
53 14 -2.87869529079023500D-03 -3.17974225851374600D-03 -2.01599886114694000D-03  3.45942236414785600D-03  4.68193904862998400D-03
53 15  2.53893928198617700D-04 -4.93583297682815100D-03  5.47469065390799700D-03  5.00772573548505900D-02  6.61012812164254000D-04
53 16 -4.49022267344383700D-05 -3.75379929399436900D-05 -3.21116737161518000D-04  1.12732089334407500D-03 -4.94333553721351000D-04
53 17 -2.89615768607008300D-03 -4.46770258637772400D-03 -2.12685411545604800D-03  3.57271416711194500D-03  4.68566397096297800D-03
53 18 -7.36333315763614600D-05 -4.61203063938652600D-03  5.85549273686311300D-03  5.00384878170947900D-02 -3.51655035647598100D-04
53 19  3.08757513132400400D-05 -1.82447371545215600D-05 -9.78491070159626100D-04 -7.38295540419622800D-04  5.55294867263429200D-05
53 20 -3.97100654163427800D-05  6.79717839955426800D-04  7.96924447748519800D-04 -3.66187946914034000D-04 -3.97350127795014200D-04
53 21  5.65639308135511500D-04 -5.06796694269579700D-04 -2.97129321926880300D-03  4.53728706622655000D-04  1.21329041756444500D-05
53 22 -4.65861610798203200D-04  5.34406185477362100D-04  4.86633260991974600D-03  3.84349497390156900D-05 -1.06167266048010000D-02
53 23 -2.88555008817559500D-04  1.09052816136183200D-02 -1.19879597972749400D-02 -1.12204631048851700D-01 -1.49537707222535400D-03
53 24 -2.94907123031103400D-05  1.86560366860735600D-05  9.45785846430524100D-04  7.08794266487216700D-04  5.81574600215046000D-05
53 25 -3.51922576335785500D-05  6.91132050768929100D-04  6.36435218885352900D-04 -3.56761571435470700D-04 -3.57400722212716200D-04
53 26  6.02143213181129500D-04 -4.98654653012853700D-04 -2.94704865887484900D-03  4.57183814381028500D-04  5.80074994867695400D-06
53 27 -4.62984564329569600D-04  5.63028633178519500D-04  4.86310773351114400D-03 -4.96355248454255000D-06 -1.03865024785736900D-02
53 28 -1.20587147398776300D-04  1.05070896259724600D-02 -1.33436581972066500D-02 -1.12082116210907300D-01  7.10219696731679100D-04
53 29 -1.00732028285887500D-03  4.86796017310405900D-04  3.47726419362010700D-04  1.11861406939619200D-04  1.19546145367785300D-03
53 30 -1.12835479224760500D-03  2.44414749672627500D-03  3.90183851743321400D-04  1.92321646694330000D-04  1.17358977285585200D-03
53 31  1.13435839153658600D-03 -2.48108331302557100D-03  2.43868067749104000D-04 -1.07723035436602500D-04 -1.54298888294787200D-03
53 32  1.01515878716088700D-03 -4.11146836177852000D-04  2.01191348228893400D-04 -1.89670333287621300D-04 -1.53058519948700800D-03
54  1  8.81757667238417800D-05  2.91552331023633100D-04 -3.75410544588284200D-03  2.24018473274276900D-02  4.97629332439004500D-02
54  2  4.35297945370868000D-01 -1.54513253233667100D-02 -3.95866620305902500D-02 -3.53096928495443600D-01 -1.47711864278304500D-03
54  3 -5.50585200353101100D-03  6.98297064631412400D-03 -2.89917528155029600D-03 -1.27711612555514400D-02 -2.80029662356840800D-02
54  4  1.52089303427116600D-05  2.68356071970633900D-04  9.63230869867111500D-05  2.25404809445828600D-02  4.79802583352765900D-02
54  5  4.35489408673012200D-01 -1.73822552814460200D-02 -3.76245702035349700D-02 -3.53063557894274600D-01 -1.61291857053150800D-03
54  6  5.56362174852442300D-03 -3.95070317799286900D-03 -1.31185793744532100D-04 -1.39580055043616000D-02  2.79655161330510200D-02
54  7  8.18145195669594600D-05  2.99024823363914700D-04 -4.00893918325842600D-03  2.40348577175241100D-02  4.88770413737382200D-02
54  8  4.26919183712406700D-01 -2.16772126843909000D-02 -3.80099531839747600D-02 -3.44242044103997100D-01  9.52481633006711300D-04
54  9 -5.16178360734518600D-03  4.20930197433857800D-03 -7.05296643550749200D-05  1.32468548207871500D-02 -2.63154968296432800D-02
54 10  1.46930076035545000D-05  2.48512270507841100D-04  2.58347968843799400D-04  2.39534819607575000D-02  4.70888957192229100D-02
54 11  4.27132056413557700D-01 -2.07134038418105200D-02 -3.60003706306428900D-02 -3.44593280466119600D-01  8.20167125394284100D-04
54 12  5.31270402953193300D-03 -6.13287115492639400D-03  2.89841079804150200D-03  1.20740177047832000D-02  2.64461718546443800D-02
54 13 -1.39130567896239200D-04 -6.47706685568717900D-04  3.16206068782706300D-03  1.71055185308190000D-02  3.62737196667985500D-02
54 14  3.16282844767030000D-01 -1.83218966994712500D-02 -4.42822523394995500D-02 -3.45944890815379200D-01  4.76083810571917500D-04
54 15 -1.10177653036459100D-02  1.05416814930739700D-02 -2.86244383485586400D-03  1.65322841750324000D-03 -5.53304564449121900D-02
54 16 -1.80639731290569600D-04 -6.87484706906555000D-04  2.93076524395377100D-03  1.70098343295541700D-02  3.45832934286268400D-02
54 17  3.16474945490293900D-01 -1.90713519398123100D-02 -3.63028766852551100D-02 -3.46881249222242500D-01  3.21463467567494300D-04
54 18  1.07202758629049100D-02 -1.10417393304725300D-02  2.97489512716833900D-03 -8.28986479276177300D-04  5.53377848952735900D-02
54 19  2.58653561358348800D-05  1.50766381834064200D-04  4.37752109879721300D-04  9.95892802665447100D-04 -4.00854198281891100D-03
54 20 -8.06318652127110600D-03 -7.43882682571790400D-02  2.37037242553025500D-03  4.98489451122635900D-03  4.32771379031957000D-02
54 21  1.74951058610806200D-02  3.62379665255243800D-02  3.25437063867219400D-01 -6.85611615092936000D-06 -4.55097560314763200D-04
54 22  4.61953676465601600D-04 -1.24531933738606400D-04  9.82895260212709700D-05 -2.43133744117783000D-03 -2.13458122586842600D-04
54 23  2.28871892617391500D-02 -2.26737311391522800D-02  6.10065354877463200D-03 -3.61856907344216200D-03  1.17759062336812400D-01
54 24 -1.37260875857791600D-05  1.56049208451130200D-04  1.57629113392728900D-03  1.84369594726768900D-03 -4.00343749958401900D-03
54 25 -8.74630180841461100D-03 -7.43015954543874300D-02  2.31394138949060600D-03  4.35151499857300500D-03  4.33271095304933900D-02
54 26  1.75822742460650300D-02  3.66319730151037400D-02  3.25369111750105700D-01 -1.26924520247190300D-05  5.04685818869882300D-04
54 27 -4.91993366845094000D-04  1.32105199873347000D-04 -9.27166831439886400D-06  2.42587268599505700D-03  2.38324940700325800D-04
54 28 -2.35776646733760100D-02  2.33393397326756700D-02 -6.32949645777354200D-03  1.57252077801478300D-03 -1.17576549512500800D-01
54 29 -7.10446019827741800D-04 -1.10982980143909400D-03  1.10618332659412600D-03  2.02458230248525200D-03  1.86966875531696600D-02
54 30 -7.51688337250141900D-04  9.15627117423301000D-06  1.12736016658749900D-03  2.19518350696683000D-03  1.86727105123240400D-02
54 31 -6.48534063210541600D-04 -1.19978747644280300D-03  9.17097581127634400D-04  2.02231464049308600D-03  1.86876801993153300D-02
54 32 -7.94804484193262200D-04  6.95652829201784200D-05  8.85950906376269200D-04  2.19248859900217100D-03  1.86833464890564900D-02
55  1 -8.43719114202376300D-02 -6.01203304063160800D-02  4.53328466908244800D+00  1.41205771046045300D-01  3.79235845199813600D-02
55  2 -1.16118249026013700D-02 -1.60490303872662800D+00 -3.09408630477284100D+00  4.34069832525996500D-01 -7.49805381822841900D-02
55  3  7.41146104621929900D-02  8.65927720087559500D-04 -3.12684396603164300D-02  8.16427114279962500D-03 -7.94633240459957600D-03
55  4  8.42372276971985700D-02  5.98555155068012900D-02 -4.53249879981702000D+00 -1.42003052807509100D-01  3.53637598857599200D-02
55  5  4.46796260031483900D-03  1.70047043863405000D+00 -3.06258811712508800D+00  2.51254305237544300D-01  7.64885895239636200D-02
55  6 -7.50869937152502700D-02 -1.40159580871195900D-03 -2.68288134121913900D-02 -1.82470456681981500D-03  1.12307758496191400D-02
55  7 -8.42704288618667800D-02 -5.99874458867892400D-02  4.53604557911607500D+00 -1.42453405998874200D-01  3.50520730141698500D-02
55  8  3.29445922684657300D-03  1.70027588018614600D+00 -3.06580396538213000D+00  2.53584425481428000D-01 -7.64503866546772900D-02
55  9  7.52059935316382700D-02  1.24439312303842500D-03  2.68577776850971600D-02  1.73340213912908100D-03 -1.11137738051351600D-02
55 10  8.43810707647353600D-02  6.01378451329876300D-02 -4.53642936235802200D+00  1.41255983638085400D-01  3.80442773240192600D-02
55 11 -1.17515772229447800D-02 -1.60351056591854300D+00 -3.09782632030334600D+00  4.33996467490499200D-01  7.50370542177844900D-02
55 12 -7.42340520526663100D-02 -8.03002165120394100D-04  3.12982894052215600D-02 -8.22258739271830700D-03  7.84254398742267700D-03
55 13 -6.75850209121753900D-02 -6.79343030625745200D-02 -2.07296641877295500D-01 -4.90021093098520000D-03  2.84128385625718100D-01
55 14 -3.16028443720910800D-02 -4.82856047326877600D-02  2.99465488633378000D+00 -3.37433900621220500D-01  2.09940489804156900D-02
55 15 -9.58715238210583200D-02  7.48774748406429900D-02  2.54013657222815700D-03  3.24788118687998900D-03  2.26058183113604600D-02
55 16  6.75905169065438200D-02  6.80283147960089000D-02  2.05841346103227300D-01 -4.40266429891760000D-03  2.83981726770322000D-01
55 17 -3.14790878264172400D-02 -4.60968151555184400D-02  2.99576001577763600D+00 -3.30557453289005700D-01 -2.10671638662713700D-02
55 18  9.59737035522976500D-02 -7.49065396860270800D-02 -2.56762296287791900D-03 -3.17336174611019600D-03 -2.19712233794881300D-02
55 19 -3.67185244688382800D-02  2.80598594896074400D-02  1.21664860726454100D+00  9.61407381055499900D-01 -2.49495137550283800D-03
55 20  1.57010250686064800D-01 -1.72779137710410600D-02 -6.88782247157223300D-03  4.29067292291696700D-01 -4.69181038318715000D-02
55 21 -3.81616853864505300D-03  2.43417455053583700D-01 -2.65618155348358800D-02  4.10524978246216600D-03 -1.31241036136474600D-03
55 22 -2.79283942109890500D-03  5.20626507520219100D-05 -4.33907022756573500D-04 -2.04474276287411300D-04  1.29731146595747600D-01
55 23 -1.55714280084186900D-01  2.59831334884387400D-02  4.47617489592826300D-03 -6.91832496348681600D-03  2.32646258702329400D-02
55 24  3.66849549245301700D-02 -2.81236510818800100D-02 -1.21610448466846600D+00 -9.61313109013990400D-01 -2.46382085622795800D-03
55 25  1.57080981357325600D-01 -1.77682687843391500D-02 -6.69933047770432000D-03  4.28892398615603600D-01 -4.86183903559637400D-02
55 26 -4.24416236772283800D-03  2.43300554042401400D-01 -2.73970059114861500D-02 -4.10992407083155900D-03  1.32387299414964600D-03
55 27  2.78605107668235900D-03 -4.97279023705612100D-05  4.41053324173338100D-04  1.95834946320665800D-04 -1.29796664876408600D-01
55 28  1.55647545520000700D-01 -2.58508806435921900D-02 -4.42085159481748500D-03  6.75004568968137000D-03 -2.39512509896604400D-02
55 29 -1.16359467278922600D-01  1.41336173588412400D+00  4.05772383492947900D-02 -2.86302480021502100D-02  1.02730595837785700D-03
55 30  1.16890466442845500D-01 -1.41395600273684100D+00 -3.97782196092075900D-02 -2.94225574436771900D-02  5.46236124013292300D-03
55 31 -1.16673967203233400D-01  1.41406662837258600D+00 -3.97534415300157400D-02 -2.93906874871999500D-02  5.43908388991958600D-03
55 32  1.16666845686344400D-01 -1.41325609305405700D+00  4.06085453008230300D-02 -2.86267850827849400D-02  1.03723661128767900D-03
56  1  2.36438866463809600D-03  8.92133890617064800D-02 -1.03233427759068900D+00 -1.14142541193518400D-01  2.82910523222052500D-02
56  2  2.21710867888063600D-03 -1.69136800760908600D+00  2.74742510333866400D+00 -2.18964342819821800D-01 -1.64788902872979100D-02
56  3 -7.00907918707480100D-02  8.65696821580447100D-02  2.42155876987876100D-02  3.67828280032479700D-03  1.92606426032592700D-02
56  4 -2.67205192936889500D-03 -8.96872166156495300D-02  1.03368093840880800D+00  1.13172503108840700D-01  3.00069401786574600D-02
56  5 -8.54021599184256700D-03  1.60370970181347400D+00  2.77969723288074900D+00 -3.97397760976774600D-01  1.49621733951461600D-02
56  6  7.07674088522896900D-02 -8.57295822474373300D-02  2.08245374606734200D-02 -8.64867794247390300D-03 -2.17511979932530400D-02
56  7 -2.44175051204870800D-03 -8.93924719038414500D-02  1.02978918855073600D+00 -1.12864568384385900D-01 -3.00980353999193200D-02
56  8  1.03240232214513800D-02 -1.60660153796288000D+00 -2.77716064634258400D+00  3.99932748961457400D-01  1.51084897503297400D-02
56  9  7.07536704310853800D-02 -8.58621601814136800D-02  2.07606009943737100D-02 -8.90435073301800600D-03 -2.17560263882977000D-02
56 10  2.42776104665694000D-03  8.94227427191703500D-02 -1.02860696092928500D+00  1.13936515276953400D-01 -2.83548878988418700D-02
56 11 -3.77713619807778000D-03  1.69352349289377800D+00 -2.74613981449014700D+00  2.15881096156393400D-01 -1.64014830032827400D-02
56 12 -6.99917272109469200D-02  8.63932102142303300D-02  2.42105043053615600D-02  3.92710529784807600D-03  1.92647803129994800D-02
56 13 -8.35171738807655700D-06 -1.10327477149231200D-04 -1.24745538763323100D-05 -5.26672237669511100D-01 -5.06083065407378200D-03
56 14  2.89816878692787100D-02 -2.34425835037076700D+00 -2.43776402438334200D-02  1.29013067638371700D-01  9.58373854562421700D-04
56 15 -5.52905972173351700D-04 -4.05467882388550900D-04 -3.22821723198494000D-02  3.54790827511050400D-03  1.79528655395461700D-03
56 16 -4.38816953776090500D-05 -1.74675651938965400D-04 -2.57979506074755200D-03  5.26245077239210300D-01  4.83520022099208400D-03
56 17 -2.88708014134183500D-02  2.34493762036340800D+00  2.08420070907481200D-02 -1.28742218715125500D-01  9.85251840884082600D-04
56 18 -6.46388672406854900D-04 -3.38863168478174200D-04 -3.22917156804273200D-02  3.60421038665692700D-03  1.83191661182508600D-03
56 19  1.28748631384124800D-05  1.68350538926713800D-05 -2.73680488391903500D-04 -5.69140462968466600D-04 -5.82894629034842300D-02
56 20 -6.02291353878407000D-04  3.20198840765559600D-03 -2.74746853570415200D-01 -2.66102166903277900D-03  1.51101580450480700D-02
56 21  4.68006937424725900D-01  4.23739476398021400D-03 -2.56664545493106800D-02 -1.37978978094178600D-04  8.83737247910277600D-05
56 22  4.96052533046496600D-05  4.80531273013315400D-03 -5.15499576000737200D-04 -2.70466479524466300D-04 -2.43056339846267100D-03
56 23  1.61342372721651500D-03  8.17139671245870800D-04  8.66208974616211600D-02 -9.79662948937777600D-03 -4.88339423015671100D-03
56 24 -1.89517903005399300D-05  3.58924233438657300D-05  8.21934231821215700D-04  5.10623661039125400D-04  5.83198989163814000D-02
56 25  4.63034793353516400D-04 -3.20206068215931200D-03  2.74559613199801700D-01  2.33713819595393700D-03 -1.50501023687596500D-02
56 26 -4.68344394049752700D-01 -4.51876156757004200D-03  2.57779984775425100D-02 -1.36140847792739300D-04  8.74748333410300100D-05
56 27  4.86660144510079100D-05  4.79805014441070700D-03 -5.45398889184709000D-04 -2.70325275667883200D-04 -2.28464206176872800D-03
56 28  1.44094288780604300D-03  8.43699173962682700D-04  8.68166254190769500D-02 -9.38250085607605200D-03 -4.88301871242276500D-03
56 29  1.78872401305575000D-01 -4.10717773512781100D-01 -2.93189197821577800D-02  6.98606213666452000D-03  8.76195900835023300D-04
56 30 -1.79125127738094800D-01  4.10683068623657800D-01  2.91196815810681700D-02  7.57512659879203700D-03 -2.49468805520520900D-03
56 31 -1.79223992816920600D-01  4.09560872343890900D-01 -2.91476072748130900D-02 -7.57098523543793100D-03  2.34476893935136600D-03
56 32  1.78459198269780000D-01 -4.08690593613765600D-01  2.92011339825230600D-02 -6.93030508748592000D-03 -7.14267742469031400D-04
57  1  5.89275230975658300D-02  9.65255608734758900D-02 -3.59193066522578300D-01 -2.37302795248623200D-01  1.10301714036880400D-01
57  2 -1.08966465878256400D-03  6.48201065018566900D-01 -4.53978532507300800D-01  1.80010504026564100D-02  1.10865637020350300D-01
57  3 -3.41267960011839100D-02 -7.67388410191663500D-02  8.74888870712097600D-02 -2.13102586807348900D-02 -1.02428568960844100D-02
57  4  5.89547607079244200D-02  9.64752687948716000D-02 -3.61594686864650800D-01 -2.33820308396501600D-01 -1.15113530681415000D-01
57  5  2.40896372381907200D-02  6.34659359957900300D-01  4.64616828803529100D-01 -8.45254468842053700D-02  1.15646716427515200D-01
57  6 -3.71011997414251200D-02 -7.85455166860904900D-02 -8.47116151018629100D-02 -2.27627618918390900D-03 -1.08236549805285600D-03
57  7 -5.90194776475607300D-02 -9.66445469372660700D-02  3.63157323158065400D-01 -2.33944670562599900D-01 -1.14680966164395100D-01
57  8  2.69906333825691400D-02  6.35266638543901000D-01  4.63482728677844100D-01 -8.82554347164486600D-02 -1.15598667616076800D-01
57  9  3.70498589733694900D-02  7.85488086427070400D-02  8.48218967383421900D-02  2.87920666610605600D-03  5.92820566138808000D-04
57 10 -5.89680582530289300D-02 -9.65758595316183700D-02  3.58249882117778400D-01 -2.37223900527880400D-01  1.10577117470121200D-01
57 11  1.81314869436535800D-03  6.48254100902654500D-01 -4.55113643793738100D-01  1.43216669864957600D-02 -1.10833072824207700D-01
57 12  3.41322303261437800D-02  7.67008424980638000D-02 -8.73878586709747200D-02  2.19245357040850800D-02  1.07626366011751500D-02
57 13 -2.81927395543945900D-05 -1.94074666031610700D-05 -1.02135348399065700D-04  2.11881547322893000D-01  2.18979859592800200D-03
57 14 -1.16462827724398300D-02  2.21064697582265900D-01  3.68315211031673100D-03 -1.23396245414309600D-02  2.79961480897073900D-03
57 15 -1.78028682319343600D-03 -1.01932798577745900D-03 -1.03256091001168200D-01  1.12688967759347700D-02  5.79922847915469200D-03
57 16 -3.07144004026482300D-05 -8.66740734219301700D-05 -6.15140485681807900D-04  2.12196555778367900D-01  2.04637447990262100D-03
57 17 -1.16776120801884100D-02  2.20406044274869800D-01  3.39910356464279200D-03 -1.22429657023477600D-02 -2.83684999590072600D-03
57 18  1.71979583619655800D-03  1.11705415970414100D-03  1.03201392949884300D-01 -1.15734471965829200D-02 -5.78524947230388700D-03
57 19 -2.11678407688109500D-05  9.66618737353391700D-06  7.04828469616994800D-04  2.57077684241053300D-04  6.84362225360972300D-02
57 20  6.99067076945358900D-04 -3.76371804835172400D-03  1.40280192450485500D-02  3.71622052427893800D-04 -7.97254411694136200D-04
57 21  4.30055516342281600D-01  4.12712958426106600D-03 -2.36523153418320800D-02  5.93761274915153200D-05 -3.10019119337801800D-05
57 22 -2.83742155578941000D-05 -2.29400624883205100D-03  2.48941563157837200D-04  1.26989106148930300D-04  1.33917115906614800D-03
57 23 -7.99938468560951600D-04 -5.39232690505024600D-04 -4.79672022911838400D-02  5.26004750547849400D-03  2.67883026466627500D-03
57 24  1.61634740759833500D-05 -1.36859333632021600D-05 -5.71704216079336000D-04 -5.81602687525798300D-04  6.84701805694236800D-02
57 25  7.36577544346301200D-04 -3.77533218761141700D-03  1.39261393266140600D-02  3.30565190191498900D-04 -7.87716851461325600D-04
57 26  4.29769423480869700D-01  4.31807965307587500D-03 -2.36251249039571500D-02 -6.67867259727631800D-05  3.99729469524061500D-05
57 27  2.68137790199038700D-05  2.29236431416959000D-03 -2.58539202339904100D-04 -1.28621045245654400D-04 -1.37942487738132800D-03
57 28  9.08409665484726600D-04  4.71015211896601500D-04  4.81317766971586200D-02 -5.35681577163645900D-03 -2.72220917566105200D-03
57 29 -2.81039897106367000D-01  6.91006714542004100D-01  8.91034825476163700D-02 -1.03816956808660400D-02 -3.68817733821035800D-03
57 30 -2.81052867616108900D-01  6.89828762391733600D-01  8.87326817975688900D-02  1.20370802622124600D-02 -6.18817844221412700D-03
57 31  2.80879184017563100D-01 -6.89482500814722300D-01  8.86888999888920400D-02  1.20558757969671000D-02 -6.07804051556666700D-03
57 32  2.81092031637831000D-01 -6.90628138273058800D-01  8.90978512307577800D-02 -1.03528678981529100D-02 -3.58767799726761900D-03
58  1 -2.22028226653693700D-05 -9.09527544436360600D-05 -5.53223162473544500D-04 -1.07112031275169600D-02 -2.22724558761186100D-02
58  2 -1.98609407582918100D-01  2.62723371922837900D-02  5.44621433347464900D-02  4.85884462834403300D-01  4.21685386605627600D-03
58  3  1.55327667619341800D-02 -1.97496206279904000D-02  9.83398361650330100D-03  4.73501566520745200D-02  7.79261952494012000D-02
58  4 -1.30457444883308300D-05 -6.43959665891171200D-05 -9.92385214355703900D-04 -1.08058948351002300D-02 -2.22733132930707600D-02
58  5 -1.98564012048692000D-01  2.70576916469539000D-02  5.47927957251309500D-02  4.85822561319083100D-01  4.47753304539998400D-03
58  6 -1.51558140940330000D-02  1.06782810486329900D-02  1.26704644185119800D-03  5.08543219828762600D-02 -7.75664384668445900D-02
58  7 -2.61369755854369800D-05 -1.01066688316772900D-04 -6.70057380496520700D-04 -1.06583330037735100D-02 -2.22873222874065000D-02
58  8 -1.98543766428473900D-01  2.56836778664693600D-02  5.41976122119215100D-02  4.85886858549080800D-01 -4.95710624908183900D-03
58  9  1.53236796018220500D-02 -1.03665733527403700D-02 -1.63258373030834900D-03 -5.07515335771100100D-02  7.75829609336265300D-02
58 10 -1.01015554671168600D-05 -5.20758348578208100D-05 -9.34460556832220800D-04 -1.06428515902449600D-02 -2.23036433651491400D-02
58 11 -1.98461095226214000D-01  2.57644042541291000D-02  5.45865223643329700D-02  4.85859706840565700D-01 -4.72993669311046100D-03
58 12 -1.53232906680285400D-02  2.00532273611391300D-02 -9.48231345840651000D-03 -4.73437618621816200D-02 -7.79343960647734400D-02
58 13 -4.91258947603336100D-04 -9.33547590098866600D-04  5.95314234917590000D-03  2.73404976139528300D-02  5.89252085260206900D-02
58 14  5.07848177830884100D-01 -7.10463147700540200D-02 -1.48438962832970300D-01 -1.31431163007688900D+00  1.07162031451958900D-04
58 15 -9.32560304198349300D-04  8.25398272746343000D-04 -2.01083718822225000D-04  7.38926235437649400D-05 -3.93786247419584300D-03
58 16 -4.87944244860665600D-04 -9.48859868012095700D-04  6.40665623391710900D-03  2.74192564325402100D-02  5.52358265789210800D-02
58 17  5.08355701182640700D-01 -7.06506499099796600D-02 -1.46707092185331500D-01 -1.31488805774549400D+00  8.10695312406645600D-05
58 18  6.74335339749818300D-04 -7.55404870990547300D-04  2.22133719403405400D-04 -1.04641763992073000D-04  4.03265765187027700D-03
58 19  8.79855694535886900D-05 -3.35388698431247900D-05 -1.99313961209646300D-03 -1.51863667745503100D-03 -2.00288620790687800D-03
58 20 -4.31005951629930300D-03 -3.72226966783091900D-02  1.12040659634908100D-02  2.15682250090586300D-02  2.07964241909699300D-01
58 21  1.27307931759831100D-02  2.55139696419864900D-02  2.36454361470937700D-01  5.61114364174662500D-06 -2.04477471109845200D-03
58 22  2.03916356745644800D-03 -5.62321122164669700D-04  2.32934777304856000D-04 -1.06602860157175200D-02 -7.05169552221456000D-04
58 23  6.24632948897968300D-02 -6.17581253375753500D-02  1.69806752920910000D-02 -7.01208950489953300D-03  3.21697280618524900D-01
58 24  7.65981283554247700D-05 -6.19392926122082700D-05 -1.89829325951221500D-03 -1.58163047590549200D-03 -2.01173957340057000D-03
58 25 -4.00699346440781900D-03 -3.72539245905946500D-02  1.11879714084320800D-02  2.50460112207750000D-02  2.07489563570933300D-01
58 26  1.27235135672576200D-02  2.75734755159344100D-02  2.36062663322377800D-01 -2.80065669959827900D-05  2.15430503206476700D-03
58 27 -2.12629846506941400D-03  5.61416831862548200D-04 -2.37077856073602200D-04  1.06375066808784300D-02  2.26430611262725700D-04
58 28 -6.40963899380961000D-02  6.38699593268334100D-02 -1.69460082890193800D-02  7.17795198872055400D-03 -3.21105672766398400D-01
58 29  3.87823130245103300D-04 -2.53973145794254700D-04  1.41907956487067300D-03  3.09268409643507400D-03  2.72369803165333900D-02
58 30  3.89343738124483900D-04 -3.21193746657214600D-04  1.42259066515419100D-03  3.02997837334195200D-03  2.72398033099843200D-02
58 31  4.17309946013981800D-04 -2.18280136316231800D-04  1.51354534246994400D-03  3.08600032423199500D-03  2.72120449756115700D-02
58 32  3.55087540753910500D-04 -3.92417181867331200D-04  1.52082064977318600D-03  3.02043250156425400D-03  2.72401976070182600D-02
59  1  7.38031683479055600D-05  2.18163974559606000D-04  1.42019980001491900D-03 -2.61855819520833500D-02 -5.65074309408442700D-02
59  2 -5.00177268933052600D-01  4.65420713868760400D-02  8.18362652531600700D-02  7.96926960482751800D-01  1.66177353869638100D-03
59  3 -8.27116896039458600D-03  6.60939542169824500D-03 -3.75021570059189300D-04  1.74273470960680200D-02 -4.17037780348711100D-02
59  4 -9.89269289746655700D-05 -2.52885043164819100D-04 -9.66151786268698900D-04  2.63151208133385400D-02  5.57959296977438300D-02
59  5  5.00270240166366500D-01 -4.67564586629336400D-02 -9.72089892350206900D-02 -7.95157184555799300D-01 -1.55603280740590000D-03
59  6 -8.19491472996710200D-03  9.75094753737362400D-03 -4.06361924703599300D-03 -1.55675145547021500D-02 -4.18441890939153200D-02
59  7 -9.35297484657837500D-05 -2.52987986429608700D-04 -1.28190734947848100D-03  2.76466581914019600D-02  5.65622087435174400D-02
59  8  5.00196153459560100D-01 -3.93384351459422800D-02 -8.19220267429845400D-02 -7.97374846886262900D-01  1.41427835901822000D-03
59  9  8.33882709292037100D-03 -9.75310545193883700D-03  4.05109197718333000D-03  1.55988669256728600D-02  4.18719087016994400D-02
59 10  8.04169312862431100D-05  2.12286862899447500D-04  9.89707552660804800D-04 -2.76736589989243600D-02 -5.58423849604943800D-02
59 11 -5.00242149002799800D-01  3.90143248353354300D-02  9.71158955411949200D-02  7.95681312132052400D-01 -1.53213845867005100D-03
59 12  8.12728720462580500D-03 -6.59514874595570400D-03  3.41890750616297100D-04 -1.74367219301482700D-02  4.17554855674611600D-02
59 13 -1.10663970653957500D-05 -1.68797169599929600D-05 -1.39572521000889900D-06  7.53427244262674400D-04  5.22958376801532500D-05
59 14  5.33651520842758500D-05  8.42363160245914400D-03  1.63463457029377500D-04 -6.66705066781327200D-04 -5.80767981633764200D-03
59 15 -1.26600239512767300D-04  5.93428005585059300D-03 -6.94422000642773200D-03 -6.19928355948196500D-02 -2.19380298123039000D-04
59 16 -4.74700356011553800D-06 -9.82928992144313200D-06 -7.61534235011795100D-05 -7.14784999699904800D-04 -1.99494720038356000D-05
59 17 -1.04240587282870000D-05 -9.10327332435565000D-03 -1.88255310918655700D-04  6.14413362299830600D-04  5.78707430347922100D-03
59 18  1.07681344289901000D-04 -5.89475564776915800D-03  7.07529539485978900D-03  6.19415196995344900D-02  1.70226921821688900D-04
59 19  1.74905217767956600D-06  2.18636314693474000D-06 -2.95625590735113500D-05 -7.32796544680734700D-05 -3.44616383674697700D-05
59 20 -1.38051827771703000D-06 -1.12920312632961100D-05  1.21242497941564000D-03 -5.78156135792367300D-06 -1.03475420328239900D-04
59 21 -1.18444064523492500D-03 -5.39007795872496600D-05  2.91362537229120000D-05  6.84056238398956600D-04  1.29885287128274100D-05
59 22 -6.97044767111946400D-04  7.94897494957624800D-04  7.30007786436250300D-03  2.61821663328985200D-05 -1.95328766192459800D-02
59 23 -3.75384551837875900D-04  1.99082611710838400D-02 -2.29037907418481000D-02 -2.08462271313031200D-01 -7.65076810634039700D-04
59 24  8.59953296730840700D-07 -2.32383094259523000D-06 -3.14592754741069600D-05 -8.23185379162590800D-05  3.97706879624548300D-05
59 25  9.77896047574811100D-06 -1.81519491356926400D-05 -1.11009944405227900D-03  1.39305146157247100D-05  7.96667338925029000D-05
59 26  1.18899539556220400D-03  5.69738424328888700D-05 -3.27300568899028800D-06 -6.82781500015608200D-04 -1.28296263312282400D-05
59 27  6.95611126346598500D-04 -8.53077547823100200D-04 -7.29214896423667500D-03 -2.35464882920617500D-05  1.94690626681124700D-02
59 28  4.11671160026629900D-04 -1.98807338281391200D-02  2.41946206021914900D-02  2.08258762064390500D-01  6.36389045519121900D-04
59 29 -2.79155197065053500D-05  5.34686248768910700D-04  5.29774422513816500D-04  1.21258891735653400D-03  1.00987441270156000D-02
59 30  7.37320735480367500D-05 -5.84257649772413700D-04 -5.41534370071466400D-04 -1.07017752607849300D-03 -1.01254917267116100D-02
59 31  1.44287834921335400D-05 -3.68595958456557800D-04 -5.71720974528959900D-04 -1.21900396957537700D-03 -1.01105384082634000D-02
59 32 -5.57581800923368100D-05  6.41292788824411300D-04  5.46945288927799700D-04  1.06568348292058500D-03  1.01354715180240600D-02
60  1  1.03567570537845600D-01  2.25611773631071000D-01 -4.92496552439903900D-01 -3.39121011857167000D-01 -1.85193322033384000D-03
60  2  1.67198068245085700D-02  9.80987916276088600D-01 -7.28076946342922100D-02 -4.21761136927374500D-02  5.08443142309263600D-02
60  3  1.71930540383353100D-02 -6.80373682692619500D-02  8.80760416082656800D-02 -1.70879332317843100D-02 -1.61620673391508500D-02
60  4  1.03494153283614200D-01  2.25489242731377500D-01 -4.91377485862565600D-01 -3.38606756226623000D-01 -4.76653207603054200D-03
60  5  1.91443215757379700D-02  9.78163457763950500D-01  9.41942650393182600D-02 -6.30636137906844700D-02  5.55980321629818800D-02
60  6  1.42634130699923000D-02 -6.98614452329743400D-02 -8.83819238894325000D-02  2.14458515228855500D-03 -6.50322447890002100D-03
60  7  1.03456340762979300D-01  2.25438853494665300D-01 -4.90277884646344300D-01  3.38327651462654400D-01  4.59208294290018100D-03
60  8 -2.04318968553133100D-02 -9.77566438886736700D-01 -9.49396379060685600D-02  6.56901688014563000D-02  5.54066638350825500D-02
60  9  1.43818208213813900D-02 -6.97884846564641200D-02 -8.83527830062716400D-02  1.76013631291693600D-03 -6.28483370516807700D-03
60 10  1.03545204158475500D-01  2.25560419583373600D-01 -4.93673133688628100D-01  3.38958563218379900D-01  1.81374138368076100D-03
60 11 -1.82030503421020200D-02 -9.80609428447192000D-01  7.16769731662021700D-02  4.52069670781299200D-02  5.08043510573522100D-02
60 12  1.71217715990921200D-02 -6.79261226564446300D-02  8.79794722859741500D-02 -1.74811593856560400D-02 -1.63725534680079700D-02
60 13  5.80806744738199800D-02  3.88107720339652600D-02  1.00063367604316900D+00  3.93218395401484100D-03 -2.53647228639488400D-01
60 14  2.71184707179481400D-02  8.67385275850887800D-03 -6.18996418718168600D-01  7.17746811115257000D-02  8.40950162060540600D-02
60 15  9.81197489594968800D-02 -1.82214765165551800D-01 -2.28311469043115000D-03 -1.65870286943319300D-02 -3.68752598267748000D-02
60 16  5.81521300219301800D-02  3.89004669944421300D-02  9.99038517147850400D-01 -3.80443393132154900D-03  2.53783879358879600D-01
60 17 -2.66318565606628500D-02 -8.65904023511585900D-03  6.20308709082920800D-01 -7.15407906621325800D-02  8.40460676441942100D-02
60 18  9.83055186750767700D-02 -1.82351586319270900D-01 -2.20614048075121400D-03 -1.65976067461065000D-02 -3.62054159639761000D-02
60 19  1.48246296054224900D-02  5.45570022861461400D-02 -8.63763298297026600D-02  7.85764778208346400D-01 -2.04832050853376900D-03
60 20  1.29676948083434000D-01 -1.42311641056009000D-02 -1.33637671678169900D-03  7.60391411689157700D-02 -7.85702536407927400D-03
60 21 -5.77805018969142000D-03  3.81374669742020200D-01 -4.08308514423622800D-02  7.56325357298656500D-03 -1.37843255327754900D-02
60 22  6.22107195978878000D-03  3.80988230976887100D-04 -1.09910980121904500D-04  2.55309155817010200D-03  6.76787379014532300D-02
60 23 -1.89827692769058800D-01  1.22148954867605800D-01  5.13860648881010400D-03  3.04415616531322600D-03  4.06688866345738300D-02
60 24  1.48512125420732600D-02  5.45437832025424500D-02 -8.71608461543088400D-02  7.85105953456047700D-01  2.10545285410129600D-03
60 25 -1.29563777010984400D-01  1.47140363760761100D-02  1.36657944454728700D-03 -7.56583436694089200D-02  8.20142738290205600D-03
60 26  6.04988024938734700D-03 -3.81057061281915400D-01  4.18201594262177700D-02  7.56103465470275000D-03 -1.37625499927009500D-02
60 27  6.20151533799818200D-03  3.87304891754734400D-04 -1.13517063633127600D-04  2.65495481579962800D-03  6.76163229641240600D-02
60 28 -1.89638398899790700D-01  1.22022075935666600D-01  5.19608942814529000D-03  3.07361745926477100D-03  4.15054325935591300D-02
60 29  1.01027726678518600D-02 -6.79544849249589100D-01 -6.88510848752944800D-02  2.18215203564958500D-02  1.31378383062396900D-03
60 30  1.04330137001935600D-02 -6.81280042174157600D-01 -6.82636849940809500D-02 -2.32078921859844300D-02  6.41688099131738700D-03
60 31  1.05025206909883100D-02 -6.81163625738116100D-01  6.83044607171198500D-02  2.32189134347278600D-02 -6.23052453345300700D-03
60 32  1.03103690624114200D-02 -6.80525874321970100D-01  6.89631207862600900D-02 -2.18237114654043700D-02 -1.13950118788288500D-03
61  1  3.81943859835462100D-04  9.88988190594471100D-04  8.52444551144599000D-03  1.82164707883183000D-02  4.05292766494368100D-02
61  2  3.59214664937389000D-01 -2.05696271267856600D-02 -4.82386140093429500D-02 -3.68923464861650200D-01 -4.35841117235977200D-03
61  3  1.17162946629510100D-02 -7.35788349059083200D-03 -2.23179025477466200D-03 -5.02130949744873500D-02  5.87062807631438100D-02
61  4  2.03309039351228500D-04  2.78045008087335000D-04 -1.13151761647393000D-02 -2.01844812160889600D-02 -4.01349692785834400D-02
61  5 -3.59202707105133600D-01  2.63977132501278700D-02  3.53035438329819700D-02  3.70214210968871500D-01  4.47797146793611200D-03
61  6  1.16024153816123200D-02 -1.60803868495482700D-02  8.31163983145983800D-03  4.75423223373322300D-02  5.91019046176927800D-02
61  7  3.87729270365763900D-04  1.00188850236779400D-03  8.47526105015417200D-03  2.04896895358170700D-02  4.05498630642012100D-02
61  8  3.58950196166097100D-01 -1.90946129387884500D-02 -4.81946938253906800D-02 -3.68820516283136800D-01  4.79826584959791400D-03
61  9  1.18793059845715900D-02 -1.66775718341699600D-02  8.44126532480111600D-03  4.74624799465778900D-02  5.90193946171258600D-02
61 10  2.06448208754406500D-04  2.88682007840845900D-04 -1.12704319295330700D-02 -1.85444255166166200D-02 -4.01257053526606400D-02
61 11 -3.59147695103611800D-01  1.36851873595221200D-02  3.52240390760991400D-02  3.70688535611615900D-01 -4.67818444737866300D-03
61 12  1.14452976893103200D-02 -6.76711324193149800D-03 -2.09512919068968100D-03 -5.01855452404238700D-02  5.88029007088972500D-02
61 13  4.59689233730927500D-04  4.83729863089955200D-04  3.38641845179469300D-03  2.65491891522299400D-02  5.43703236257662800D-02
61 14  4.92635343838754300D-01 -4.71016258004717800D-02 -8.96204473733047000D-02 -8.72863308637323500D-01  1.25881885915904700D-04
61 15 -1.82195588164517100D-02  1.80936769305358700D-02 -5.04484030300732500D-03  2.11301484952669300D-03 -9.56183162551093300D-02
61 16 -1.47020294104951300D-04 -2.77496201197578900D-04  2.28578535207211600D-03 -2.65457938309307800D-02 -5.48832767334293100D-02
61 17 -4.92437023330696400D-01  4.67989616303300000D-02  1.09903252003818800D-01  8.70317928856313400D-01  6.51427210357043300D-04
61 18 -1.88685234095312100D-02  1.82170961991741100D-02 -5.03026914939608400D-03  2.08492151415689000D-03 -9.55359198950818700D-02
61 19 -1.70476285030273000D-04 -2.60990326447705600D-05  5.33966239850388100D-03  5.62532582655156700D-03  5.28001627010590900D-04
61 20  1.17732996338614800D-03  9.85289253040451400D-03 -7.77483515147516300D-03 -1.40026195172332200D-02 -1.43841131446919400D-01
61 21 -2.20736095103368200D-02 -4.35415547226218100D-02 -4.08925068382085500D-01 -3.10877984054529700D-05 -7.14310023609833600D-05
61 22  1.02518800766487100D-04 -4.18348406596094200D-05  1.12251357321497800D-05 -7.66175750001506400D-04  7.31601833359647300D-05
61 23 -2.50699601478627100D-02  2.49967999645271100D-02 -6.93233945534221400D-03  2.99839697000876300D-03 -1.31445652611323500D-01
61 24  2.47833702916077800D-04  3.18053929966008000D-04 -5.72242832792263500D-03 -1.12522387022138500D-03 -5.24448379328529800D-04
61 25 -1.73905381737012700D-03 -9.78562915320850000D-03  7.70976287403189000D-03  1.78124941752725100D-02  1.43444517285949600D-01
61 26  2.20071148357637500D-02  4.60819367984849300D-02  4.08670071812354800D-01  7.28399166992449300D-05 -2.95073724160586800D-04
61 27  2.22233807461306100D-04 -3.54739955111499100D-05  1.44911613699369900D-05 -7.12097862305776100D-04  6.83415341283585500D-04
61 28 -2.76511607571386600D-02  2.69677454158551000D-02 -6.88043399847222800D-03  2.97966552824085700D-03 -1.30878900907390000D-01
61 29  3.50514310517674800D-04  3.71946716568648200D-04  5.54922563573154600D-04  1.58254199585468700D-03  1.34411506796939100D-02
61 30 -2.50082636625273900D-04 -4.31520608053629600D-03 -9.58367669567315100D-04 -1.57036166482457200D-03 -1.34099593021167000D-02
61 31  3.39725418395355200D-04  4.15006454638304200D-04  8.86619519145991900D-04  1.58405833429141400D-03  1.34419488035495100D-02
61 32 -2.48962748919850400D-04 -4.32256632930098000D-03 -4.90634621159300100D-04 -1.56543133928142900D-03 -1.34602816524719400D-02
62  1  2.37021976189252200D-02  2.98463389175810000D-02 -5.16765498185707800D-01 -2.13117110537151700D-01 -6.05421650377703400D-02
62  2  1.88854477334414900D-02  5.95178086963260500D-01 -1.37793020815154400D-01 -1.81815321251057500D-02 -4.42921496314315900D-02
62  3  2.47524313382632900D-02  1.95397182931681100D-02  1.21614391215729800D-01 -9.69254648615054100D-03 -7.33109431518670600D-03
62  4  2.45214920399562000D-02  3.06179781267344500D-02 -5.25981094000698500D-01 -2.21898835849743100D-01  5.62983188335326400D-02
62  5  5.72166451477865100D-03  5.96253573733014200D-01  1.18817206922564800D-01 -4.52194377021413600D-02 -3.57283096591648500D-02
62  6  1.99582134784517000D-02  1.57700961807131600D-02 -1.23825864569397200D-01  1.72690715616156400D-02  6.28042379485677200D-03
62  7  2.43877300954217000D-02  3.02035354869595500D-02 -5.31241813946978200D-01  2.22409142856127600D-01 -5.63781947916157200D-02
62  8 -5.05011174794877200D-03 -6.00465609809287300D-01 -1.17017335646579200D-01  4.38945698667144800D-02 -3.58245090534877000D-02
62  9  1.99986448439652300D-02  1.58258642095225600D-02 -1.23949449799842300D-01  1.71617796759554100D-02  6.37009390846351100D-03
62 10  2.34910362361128100D-02  2.93758508619015600D-02 -5.13158021423137600D-01  2.13060973330466900D-01  6.08696299410003000D-02
62 11 -1.82294363939012300D-02 -5.93771989453657600D-01  1.40251111307866400D-01  1.65192216620738200D-02 -4.42473339092210200D-02
62 12  2.46531650175859000D-02  1.95941688916349700D-02  1.21790793986103300D-01 -9.86578498463778500D-03 -7.40955450525672700D-03
62 13 -1.30691702139727300D-01 -1.92547783319300900D-01  2.00513438399011800D+00 -7.85106426037171200D-03  4.73466640947004900D-01
62 14 -5.50237292748623000D-02  1.97184069162062300D-02 -4.36064441259424800D-01  5.30524244801982600D-02  7.70350342899201500D-02
62 15 -8.17719875102127800D-02  4.73695322029251600D-03  3.53681444958753400D-03 -4.84882388914903300D-03  1.14584222378991600D-02
62 16 -1.30758146036625000D-01 -1.92789672478350700D-01  2.00653885936976900D+00  7.84383907181875900D-03 -4.73462868099996300D-01
62 17  5.12067375762358500D-02 -2.19214105030038900D-02  4.29999949960411000D-01 -4.47554927773295300D-02  7.68063393608313800D-02
62 18 -8.16771007136687900D-02  4.87076135283778400D-03  3.47330393050813100D-03 -4.80386392948486800D-03  1.07910668919274600D-02
62 19 -4.92100638854991100D-03 -8.93637451321444700D-02 -2.99528540034039800D-01 -3.95769961169353600D-02  2.78846604718308800D-03
62 20 -1.49776971331379400D-01  1.63688053311758500D-02  8.37630708583089700D-03 -3.84840568968246500D-01  4.18810145991323800D-02
62 21  6.35373006524526700D-04  4.92942392171481600D-02 -5.94398236321844900D-03 -6.47554272447250700D-03  1.92915905890835400D-02
62 22 -1.28160478646110500D-02 -5.70209090886375700D-04 -3.57674058984756600D-04 -4.13229714102660800D-03 -2.15744848803633600D-01
62 23  1.22774684138116900D-01  9.29701646655168600D-02 -4.15807114136758400D-03  1.97281449286951900D-02 -3.75386405972074900D-03
62 24 -5.05649836477713200D-03 -8.94845369462090700D-02 -2.96280763986095900D-01 -3.57902702777575500D-02 -2.67946930969064000D-03
62 25  1.49841410647389400D-01 -1.69952275486697300D-02 -8.03459206020798800D-03  3.83299233654464100D-01 -4.38896678049599800D-02
62 26 -5.46717085471464600D-04 -5.08939320586749600D-02  5.01344148960456700D-03 -6.50286258250208100D-03  1.93178988474730600D-02
62 27 -1.28150362649712700D-02 -5.52669426337560300D-04 -3.56390715238342300D-04 -4.26327778294361000D-03 -2.15883217812131900D-01
62 28  1.23543305378709700D-01  9.23399124334220600D-02 -4.24735477035907500D-03  1.96750843878100200D-02 -2.98630392688395900D-03
62 29  2.35286489477914600D-01 -4.12975720993204500D-01 -7.66011804660735000D-02  3.11010913012847600D-02  6.68516990947637600D-04
62 30  2.29512727000234500D-01 -3.92344886090486600D-01 -7.37288405756806600D-02 -3.11620207458511400D-02  7.56222770014849100D-03
62 31  2.29489802747367700D-01 -3.93083225377633300D-01  7.36805413751185400D-02  3.11172458231918300D-02 -7.42591532931098900D-03
62 32  2.35289237760676600D-01 -4.10350706499934300D-01  7.64910304119318100D-02 -3.10175799731143100D-02 -5.59433198446849700D-04
63  1  1.84336684907671600D-04  5.10126139816071000D-04 -4.17917661271965900D-04 -1.95864052903718300D-02 -4.03880367047193300D-02
63  2 -3.57331792138347200D-01  6.47708924749740700D-02  1.30539396646046600D-01  1.17449710888757700D+00  4.92739868911526900D-04
63  3 -3.00263264530622900D-03  2.50989277639483800D-03 -4.54690266327607800D-05  5.43847954638060800D-03 -1.46593946030584700D-02
63  4 -1.29349945083814200D-04 -4.16788280722310600D-04 -3.93480856005578500D-04  1.92736858668679400D-02  3.99631105370683200D-02
63  5  3.57412935914475100D-01 -6.39383940875371800D-02 -1.33058592436026600D-01 -1.17410487782976400D+00 -5.25893361917762000D-04
63  6 -2.76393328079254300D-03  3.28982664271027200D-03 -1.38120229532901700D-03 -4.79997254348959300D-03 -1.48028720185340500D-02
63  7  2.79158807181160800D-04  5.98573105515974100D-04 -1.80305737129073600D-03 -1.80840813888706800D-02 -4.03736834909236500D-02
63  8 -3.57456465451105300D-01  6.11493999692098000D-02  1.34509563452376900D-01  1.17432585726153500D+00 -2.51965135747747300D-04
63  9 -3.09718751861905300D-03  3.34915265436647600D-03 -1.60500677391036900D-03 -4.80590291548284500D-03 -1.47235387946048000D-02
63 10 -2.28286342757121000D-04 -5.27542795201384200D-04  9.67938789530382700D-04  1.84988851339133300D-02  4.00399866633472600D-02
63 11  3.57469264705365800D-01 -6.23408183660922400D-02 -1.29215897593037500D-01 -1.17490191490456600D+00  2.38487569421683000D-04
63 12 -2.67842091320965100D-03  2.43993334378773400D-03 -2.44900193465326800D-04  5.45352353123837500D-03 -1.47501076264184700D-02
63 13 -1.50577397262699900D-04 -7.01344705859220000D-04  6.98508123176437000D-03  2.16630853013703200D-02  4.56335087250542700D-02
63 14  4.02653779236315100D-01 -8.24958469187176600D-02 -1.73818081192686500D-01 -1.56427638513824100D+00 -4.08214545341626400D-05
63 15  4.53087202344199700D-03 -4.49005056890772600D-03  1.20683687936761300D-03 -4.96992615595418700D-04  2.04444302244500600D-02
63 16 -4.65704407594726000D-05  4.10638319830374900D-04 -3.90986618766697600D-03 -2.16392008656288500D-02 -4.55543293375023400D-02
63 17 -4.02621628054611200D-01  8.22765792803035100D-02  1.78214568969208100D-01  1.56378332942900200D+00  1.11077477228408800D-04
63 18  3.43687959551026600D-03 -3.54795707273849800D-03  1.22014391910258600D-03 -4.52640298343137600D-04  2.06746883848090700D-02
63 19 -2.24343973200165000D-04 -4.63552607487906300D-04  3.28894990810486900D-03  1.67649017871725200D-03 -5.10102980384800700D-04
63 20 -1.86900766438378100D-03 -1.05711949782631500D-02 -1.19729137780125000D-02 -2.42073437882968800D-02 -2.27319019528711600D-01
63 21 -9.44221388527271800D-03 -1.89910726075561900D-02 -1.78383172022871500D-01 -6.78850436124142600D-05  1.86448965696350400D-03
63 22 -1.79660461335141800D-03  4.70343931629656000D-04 -1.98680316029938000D-04  9.07498494374325500D-03  2.27688770214486900D-04
63 23 -6.09484600083534500D-02  6.07207712381392700D-02 -1.68423103625491800D-02  6.97529760372423100D-03 -3.18536269824766600D-01
63 24  2.12612874351638300D-04  3.21787595302698500D-04 -3.65249439900294900D-03 -1.73617078947375900D-03  5.38439191924559500D-04
63 25  7.58300327281308800D-04  1.06634988759341300D-02  1.19361590573417700D-02  2.73707925370075600D-02  2.26945972165560900D-01
63 26  9.44057615725865700D-03  2.09661393565840700D-02  1.78095708547861700D-01  3.05974108208646600D-05  1.74768558777670700D-03
63 27 -1.77828299859718100D-03  4.75576593076520900D-04 -2.03084764390715900D-04  9.09834617358412600D-03  3.71226993784340800D-04
63 28 -6.41647411043574000D-02  6.37935141105730300D-02 -1.67641587551381900D-02  7.13725253278823800D-03 -3.17730278805205900D-01
63 29  6.45535071627157300D-04 -2.51260144659267700D-03  1.14882092614747300D-03  3.15230476663256800D-03  2.62571452936603200D-02
63 30 -2.90357474847738500D-04  1.77696819673776700D-03 -1.28606781741639800D-03 -2.79954350942677700D-03 -2.62622321925443500D-02
63 31  2.03643661886049500D-07 -3.74160708632179400D-04  1.46011978609968100D-03  2.99553607813489300D-03  2.62405370721018800D-02
63 32  3.92071284559469400D-04 -1.74336137863369800D-04 -1.34934136942905000D-03 -2.94324325521728100D-03 -2.62383628704310100D-02
64  1  4.60658086263703400D-02  4.49911999289421400D-02 -7.28039395448057300D-01 -3.93030100478723500D-01  6.23171553715625500D-03
64  2  1.96227706128818000D-02  3.34797684335539400D-01  1.83658037649690200D+00 -2.23344136651432400D-01  9.63576604786798900D-02
64  3 -3.43729803958590100D-02 -6.19846800828215000D-02  4.19024466561199600D-02 -1.45637832119216000D-02 -5.94323556038142200D-03
64  4 -4.58009820088506700D-02 -4.48310582437117200D-02  7.19318354456158400D-01  3.88983522019460200D-01  1.50536487663101300D-02
64  5 -2.17958018255550300D-02 -3.82316216145901800D-01  1.83154976817040300D+00 -1.86134409751439100D-01 -9.93468852627781600D-02
64  6  3.60833648639841100D-02  6.32635203987933900D-02  3.71154919944195800D-02  5.91501928584450300D-03  1.59727618180136900D-03
64  7 -4.56966770677444300D-02 -4.46421060137299500D-02  7.17898723638579600D-01 -3.89126706060581600D-01 -1.49914575517999700D-02
64  8  2.27597029950193800D-02  3.82133707878189700D-01 -1.83011114289724800D+00  1.86469249506654400D-01 -9.92526190363788900D-02
64  9  3.60142763432097600D-02  6.32383426931703300D-02  3.71732742685321300D-02  6.01022925989570500D-03  1.51236246066007700D-03
64 10  4.61133997811438300D-02  4.51634594211534600D-02 -7.26199343199371200D-01  3.93096505405085300D-01 -6.46351843978633300D-03
64 11 -2.05980009680989100D-02 -3.34080350437405600D-01 -1.83557558252333300D+00  2.22816119347679800D-01  9.63019320039033400D-02
64 12 -3.43143797560521900D-02 -6.19875522478515500D-02  4.18213604047618600D-02 -1.47013426927065300D-02 -6.07644083335493700D-03
64 13 -1.16998660063388700D-03 -1.64430330779446700D-03  1.68799688624355400D-02  3.88160122153846700D-02  4.84181904356913400D-03
64 14 -2.22583601705035800D-03 -1.63753733649615400D+00 -2.06570788331196500D-02  8.89284914831085000D-02  4.08176165792981200D-03
64 15 -2.90140066256276400D-03 -1.18036099536768800D-03 -1.25064643863970700D-01  1.39970921384296200D-02  7.16629146186900700D-03
64 16 -1.19431381235370800D-03 -1.73669560835646300D-03  1.68792696166436300D-02 -3.89182368032362900D-02 -4.99299541533211600D-03
64 17  2.21738744279894600D-03  1.63854495893490400D+00  1.90112614882970000D-02 -8.87791132377516000D-02  4.07954241531829200D-03
64 18 -2.90637428982342600D-03 -1.17316812549491700D-03 -1.25120482626907900D-01  1.36548948767050600D-02  7.15195247822089700D-03
64 19 -5.05953809184595300D-05 -8.55566050818588700D-04 -2.87451062807064300D-03 -6.81927679443398000D-04 -4.26438600628508800D-02
64 20 -1.86884674280802100D-03  2.49204217034027600D-03 -2.49558585879596100D-01 -6.02665101113309300D-03  1.38782907174312200D-02
64 21 -1.48117380159236000D-01 -1.10077949923967100D-03  7.91758589998342600D-03 -2.02784282386638600D-04  2.72532444410693800D-04
64 22 -6.97481620234820700D-05  5.13230861244126400D-03 -5.46914758410057200D-04 -3.17961552423419100D-04 -2.73303509511039800D-03
64 23  1.64179890316835200D-03  1.09123619194240100D-03  2.14485352563634800D-02 -2.63268133095971400D-03 -1.60901614320704700D-03
64 24 -7.88704264751058600D-05 -8.62679460530977700D-04 -2.04078842546751100D-03 -2.97541546723891200D-04  4.26104539530302000D-02
64 25  1.84782846886772800D-03 -2.49536426031671100D-03  2.49331208391999300D-01  5.72045540863795100D-03 -1.38453728923053400D-02
64 26  1.48031380872941300D-01  1.02737191168105100D-03 -7.90217349444022200D-03 -2.07811555506837500D-04  2.76192506761982600D-04
64 27 -6.83809512555916100D-05  5.12196559951487300D-03 -5.96960353932209700D-04 -3.19270496045633400D-04 -2.54905998528323500D-03
64 28  1.60930633148147200D-03  9.39753653801757700D-04  2.16711099206893200D-02 -1.71438065884297400D-03 -1.62021463209122800D-03
64 29 -3.10680149431109300D-01  1.01198156994034600D+00  1.01257790775313700D-01 -7.25507022565946200D-02  2.72912975032515600D-03
64 30  3.14874943035414400D-01 -1.01854066370416900D+00 -1.00239640110258600D-01 -7.50233434007669500D-02  1.38011896847158500D-02
64 31  3.14790422171052700D-01 -1.01923120752347700D+00  1.00257988247254100D-01  7.50359188317448500D-02 -1.38036645704801800D-02
64 32 -3.10576564834971400D-01  1.01220749605707000D+00 -1.01248884211197000D-01  7.25229542520421500D-02 -2.70793351664641800D-03
65  1  1.32694367776492700D-02 -2.05795717295893700D-02 -2.07313597454712200D+00 -1.38933957839220300D-01  9.33916709172607900D-02
65  2 -2.75061912033988500D-03  1.50531323022668500D+00  8.95478949669501700D-01 -1.80617796711217900D-01 -6.00621995827151700D-02
65  3  6.38387150467475500D-02 -3.77651546403033200D-03 -2.83269330070304600D-02  6.50643328516248100D-03 -7.21794213092665300D-03
65  4 -1.30095648025628400D-02  2.14563957621719600D-02  2.07764810368971100D+00  1.36936252940801900D-01  9.49411965697893900D-02
65  5 -1.83520012085364300D-02 -1.53841155143052400D+00  8.64726894995190300D-01 -1.52243978282599900D-02  6.14892425032740000D-02
65  6 -6.46772693817044800D-02  3.18802687842962300D-03 -2.37934989729369100D-02 -7.42309972246485900D-04  1.02765232235102000D-02
65  7  1.29040368015893300D-02 -2.16602049462161100D-02 -2.07823425700394500D+00  1.36667728437255300D-01  9.49480556116104700D-02
65  8 -1.77550070711100700D-02 -1.53872718462693100D+00  8.65015246127004500D-01 -1.32039345017927800D-02 -6.13669265057751600D-02
65  9  6.45759395494959900D-02 -3.20901304372040500D-03  2.39894433209120500D-02  1.00942892109382400D-03 -1.01410082371877400D-02
65 10 -1.33113455505876600D-02  2.05252687304758100D-02  2.07554332877096300D+00 -1.39321639468488100D-01  9.29991993602259600D-02
65 11 -3.19301825393334000D-03  1.50723748945930200D+00  8.94797674354430500D-01 -1.82832837599929500D-01  6.00785986337244200D-02
65 12 -6.37719605632906700D-02  3.69336192956714600D-03  2.80900415590924800D-02 -6.79997537633210500D-03  7.36642038562510300D-03
65 13  1.92997408740209100D-02  1.39393563268517500D-01 -4.96639688047168300D-01 -3.70848442939757200D-03  2.68980766881076500D-01
65 14 -2.83127421308416400D-02  4.97984937333749900D-02 -3.57146271926670900D+00  3.97802715631660400D-01  1.43018812138403600D-01
65 15 -1.60516294802819800D-01  1.74974826644165100D-02  4.67351602690567700D-03 -8.21316888787638500D-03  2.31085802884962900D-02
65 16 -1.90643372401402600D-02 -1.39103041855044700D-01  4.94229239463364300D-01 -3.95250983513560600D-03  2.69321061365526000D-01
65 17 -3.18160972506647600D-02  5.19277731620399100D-02 -3.57214837122858400D+00  3.99259053472452300D-01 -1.43134949904967600D-01
65 18  1.60694046950340900D-01 -1.75590970453732800D-02 -4.69034737949576000D-03  8.22998668612253400D-03 -2.30760438410103600D-02
65 19  6.88910076165532300D-02  7.72030401349693000D-02 -1.59879078660761100D+00 -2.00481271289224700D+00 -1.31899864147369900D-03
65 20  9.95617478364191600D-02 -1.11449721013726900D-02  1.04389816614827400D-02 -6.23937638765858200D-01  6.76022846170321300D-02
65 21  1.30338296758045700D-02 -8.15350414916046400D-01  8.79326949440673900D-02  1.69710118907722500D-02 -3.02848414075990500D-02
65 22  1.33138295168273500D-02  8.06274465434865200D-04 -2.85221129034313600D-04  5.60784836802523000D-03  1.35279120922699500D-01
65 23 -3.96533387345084700D-01  2.61254266422385200D-01  1.08062717494827100D-02  7.19982096952188400D-03  8.38240903214884400D-02
65 24 -6.88824465804481200D-02 -7.70652500889588800D-02  1.59891230435413800D+00  2.00465555447466600D+00 -1.26636869086831300D-03
65 25  9.93050549955376100D-02 -1.10658040151000600D-02  1.08645221636505200D-02 -6.24171459250083200D-01  7.13502303011306300D-02
65 26  1.33915217444620700D-02 -8.14571979506228900D-01  9.35983837849945100D-02 -1.69571838315791600D-02  3.02164129339328700D-02
65 27 -1.32592291023543200D-02 -7.94713439977127300D-04  2.85521516356222300D-04 -5.73652971066180600D-03 -1.34823306348399400D-01
65 28  3.95519422141022400D-01 -2.60696115792623000D-01 -1.10662089133600600D-02 -7.10499422798552600D-03 -8.75919458536393200D-02
65 29 -3.77810395877701600D-06 -8.32966196887464000D-01 -1.30137581056392500D-02  9.65039809254889000D-03 -3.25340114587585600D-04
65 30 -3.53930807049412600D-04  8.30378875092671800D-01  1.24683621251758100D-02  9.68345762374868900D-03 -1.81383941426799800D-03
65 31  4.29568092527989300D-05 -8.29607998520677300D-01  1.23244621398501200D-02  9.62701624343062800D-03 -1.69026799832085900D-03
65 32 -4.79497930424704500D-04  8.33230381560093300D-01 -1.31074418070265700D-02  9.67419637682981000D-03 -4.38139878409744100D-04
66  1 -8.97557409101145000D-02 -2.68975027095828500D-01 -1.01707525109507200D+00 -1.75105850795897000D-01 -2.36590358204998400D-01
66  2  3.59306312125099200D-02  1.28650170650733600D+00 -2.19912720189790200D-01 -4.32548635872519900D-02  1.50671875320585400D-02
66  3 -1.26005427461793800D-02 -2.46664478587916500D-03  1.56512748604289500D-01 -1.86840364980027800D-02 -7.27757092546731400D-03
66  4 -8.98017608933482400D-02 -2.68947389028124200D-01 -1.00915046568186400D+00 -1.82468206286995100D-01  2.33722732311179500D-01
66  5 -1.63487231273425700D-02  1.27780397121619000D+00  2.51768992500161000D-01 -9.62658881968831800D-02  2.38862419404368800D-02
66  6 -1.81856408472112600D-02 -5.70060109322546900D-03 -1.55782557009949800D-01  1.58287667249793800D-02  1.01858599627889000D-02
66  7  8.98634096648251700D-02  2.69007214226077400D-01  1.00681727277020300D+00 -1.82049140807672800D-01  2.33361369046613300D-01
66  8 -1.63712166838505600D-02  1.27301233358334900D+00  2.48906537871811000D-01 -9.77245527940271700D-02 -2.37977032734505100D-02
66  9  1.79950307550277000D-02  5.80267251842240700D-03  1.55557359535427000D-01 -1.56602375987380700D-02 -1.02318768274566000D-02
66 10  8.98739545536945100D-02  2.69274480356257300D-01  1.01866510354416400D+00 -1.75215648165212100D-01 -2.36889416146157000D-01
66 11  3.60438301820763000D-02  1.29040961416505000D+00 -2.22509263390339500D-01 -4.56573176026001500D-02 -1.51737857831200600D-02
66 12  1.28455684337203700D-02  2.32821734939918800D-03 -1.56453709170935200D-01  1.88393447766320700D-02  7.33281392765246900D-03
66 13 -5.41104574928639000D-05  1.32674784547810600D-04  2.62364074210746400D-04 -2.12276502037885500D-01 -1.27371824088494300D-03
66 14  1.15959882427351900D-02  2.84508702286821900D+00  2.00590830911795700D-02 -1.55632179594644300D-01  8.75689765127731700D-04
66 15 -7.24887581736967500D-04 -1.50802183390904800D-04 -2.22926909608105700D-02  2.34392530264481900D-03  1.30776008492048100D-03
66 16 -8.18474171694304300D-05 -3.57920176411907800D-04  1.43024746911514900D-03 -2.12431408590576500D-01 -1.77237794661225700D-03
66 17  1.16160884310739500D-02  2.85204139973043300D+00  1.99528220147283600D-02 -1.55803178820007500D-01 -8.30088870161960800D-04
66 18  6.46345609002039100D-04  1.83743261159780000D-04  2.23138100427086700D-02 -2.54419022496583900D-03 -1.29272937937056900D-03
66 19  1.49552977498704500D-04  1.28385042319424800D-04 -3.67166900229660100D-03 -3.83707934481670600D-03 -1.38750147942033100D-01
66 20 -1.18226653136012700D-03  7.60858787473573500D-03 -4.03463727580501300D-01 -5.37281617170216500D-03  2.23237423600284300D-02
66 21 -1.76591259687978300D-01 -3.16372975493975600D-03  9.84642712577487100D-03 -5.13876883377295300D-04  2.84123738182442300D-04
66 22  2.29753145196045900D-04  2.00887510314887200D-02 -2.18449090631067000D-03 -1.11562654125677800D-03  4.34717433507902100D-03
66 23 -3.36698988115579800D-03 -9.80184453921755900D-04 -1.58594965891834400D-01  1.71806026685353600D-02  9.03924573063216000D-03
66 24 -1.36294134568265300D-04 -1.92306277138093300D-04  3.02087211855768100D-03  3.62681160833615900D-03 -1.38615135745710000D-01
66 25 -1.05834645846007000D-03  7.58793724428452900D-03 -4.02521758256492600D-01 -4.85207328935801300D-03  2.22479856905362500D-02
66 26 -1.76247180698415100D-01 -3.18411021198771800D-03  9.86677307086014800D-03  5.14879789445644000D-04 -2.63606492316331900D-04
66 27 -2.51273297129580000D-04 -2.00467011792657000D-02  2.25460930059435800D-03  1.11041226857548900D-03 -4.73724487658976700D-03
66 28  3.43928413286499900D-03  1.29796074372476700D-03  1.58017564647455100D-01 -1.78787101714420300D-02 -9.04065207041658000D-03
66 29 -1.89716654108434200D-02  8.65028972949351100D-01  9.83346027330781700D-02 -6.78176878025368900D-02  2.22284661008428300D-03
66 30 -1.87751596183753200D-02  8.69510820597781300D-01  9.62875272026052200D-02  6.97383407056867500D-02 -1.31236959804363800D-02
66 31  1.91138222246792500D-02 -8.68466987216363800D-01  9.62846487853589000D-02  6.97126487637846200D-02 -1.29108546122803300D-02
66 32  1.91754284189163100D-02 -8.66579059778211600D-01  9.85305341953121400D-02 -6.78882738851204300D-02  2.39855369838855200D-03
67  1 -5.14179274612329300D-02 -1.43487776491897500D-01 -1.70345063551491800D+00 -1.03750277669851900D-01 -3.15010246375784300D-01
67  2  4.09685874937125200D-02  3.54288942072754100D+00 -2.20267744604573800D+00  6.07204987205660700D-02  3.62705309297426000D-02
67  3 -1.44577711766603400D-01  1.08307180836862400D-01  7.34619128343220200D-02 -3.50641577425982300D-03  2.92110361712628700D-02
67  4  5.11768668739201300D-02  1.42926269093391000D-01  1.70038070825381600D+00  1.13663150001183200D-01 -3.12787443464861700D-01
67  5  2.88007732935037200D-02 -3.47157370260718100D+00 -2.26911571347524000D+00  4.38203867248855300D-01 -4.00969839912080600D-02
67  6  1.46864096037174600D-01 -1.06767112045965600D-01  6.54125721779070900D-02 -1.17158547793353700D-02 -3.68192138020307300D-02
67  7  5.13352490370627100D-02  1.43289848695990200D-01  1.69940532228514900D+00 -1.13738814172864600D-01  3.13100740441905400D-01
67  8 -2.90406557434279800D-02  3.47191014838366700D+00  2.27033372363252200D+00 -4.46320640052887300D-01 -4.00848417064418000D-02
67  9  1.46840621655966100D-01 -1.06755779949523700D-01  6.55898223114921400D-02 -1.16764181150741100D-02 -3.69813083595452500D-02
67 10 -5.13039215962628900D-02 -1.43088199942295700D-01 -1.69992868593378500D+00  1.03519083880979600D-01  3.14637518441247300D-01
67 11 -4.07757306178775500D-02 -3.54011398082753400D+00  2.20594423834076300D+00 -5.30747364049123600D-02  3.62920763972516400D-02
67 12 -1.44627994313411500D-01  1.08335917916159700D-01  7.32739037214375600D-02 -3.54800413260297100D-03  2.90716820475855700D-02
67 13 -2.26689537480119300D-04 -5.30067696571586500D-04  4.15069615794952000D-03 -1.12897616323013900D-01 -9.27393521518475500D-04
67 14  6.20700996913234600D-03  6.02399258324736000D+00  5.92399789209393400D-02 -3.31270196890127000D-01  5.47280783670205700D-04
67 15 -3.26896152437135600D-04 -2.20384631233423800D-04 -2.38659431054504400D-02  2.18515957100415600D-03  1.31933121965080600D-03
67 16 -2.46657648865308200D-04 -6.22620196148167700D-04  5.37440345312249400D-03  1.12622200174312200D-01  1.06996070961564500D-03
67 17 -6.14836766825132300D-03 -6.02066442697061300D+00 -6.06445357434890800D-02  3.31102882590899400D-01  5.44049075629826200D-04
67 18 -2.53497273354990000D-04 -2.90551802274181900D-04 -2.37661620839033800D-02  2.84037908337917000D-03  1.31338754970520000D-03
67 19  8.20309635903810200D-05  8.16097093063760800D-05 -1.80600254089130800D-03 -2.19537080388440000D-03  1.22389671555452800D-01
67 20  1.26115482280781000D-03 -6.73389475489649800D-03  7.74527435790664100D-01  6.55535305619709700D-03 -4.24571225969074600D-02
67 21  2.46207640882061400D-01  1.46332162803788100D-03 -1.34033954667869400D-02  8.42234765674261700D-04 -5.30012099740036700D-04
67 22 -3.12222665937043700D-04 -3.04905044917817300D-02  3.30255487504114700D-03  1.71139145099689100D-03 -9.01528751398646100D-03
67 23  5.10212536431402100D-03  3.91316214967341600D-03  3.32575936766139500D-01 -3.58059407163505800D-02 -1.84898965252696600D-02
67 24  5.50882145907336600D-05  4.15882564048120300D-05 -1.23818222254055000D-03 -1.50199068635236600D-03 -1.22546925529633100D-01
67 25 -1.20182183779804600D-03  6.73906233953409800D-03 -7.74828065898265800D-01 -6.71937882695291600D-03  4.25053673403026400D-02
67 26 -2.46316589870153500D-01 -1.72193278963350300D-03  1.34821270800934300D-02  8.46546694442948300D-04 -5.13592485908980900D-04
67 27 -3.32954208533528700D-04 -3.04960959126087600D-02  3.46129845798848500D-03  1.71016046719074000D-03 -9.27146930600466500D-03
67 28  5.23035830443898500D-03  4.04111100156568400D-03  3.32354425358389200D-01 -3.83047477767332300D-02 -1.85524174124992000D-02
67 29  1.34849123652257900D-01  8.44844881999445900D-01  5.63976507285121900D-02 -3.51051974316373100D-02  7.19517686350226700D-04
67 30 -1.34649040191253100D-01 -8.42717272918626400D-01 -5.51341214150719200D-02 -3.60350095813027500D-02  7.19151266991858600D-03
67 31 -1.34679347187900500D-01 -8.44682648235368400D-01  5.52850297137632500D-02  3.61751561507056600D-02 -6.85540923796103800D-03
67 32  1.34847583586327900D-01  8.44698197983160800D-01 -5.63339886422364900D-02  3.49879751391701000D-02 -1.05496264984895400D-03
68  1  4.02066056364333200D-02  5.65285430196893400D-02  5.11234186528584400D-02 -1.13619822160977300D-01 -1.32280831481010400D-01
68  2  2.07232280247107600D-02  6.67882359717538300D-01  7.14205977189630100D-01 -1.15507852522091500D-01  1.87653714555748100D-02
68  3  2.64876098810916600D-02 -4.52529813366663600D-02 -5.83615751060346100D-02  2.69540357900676000D-03 -6.26498420564967700D-03
68  4  4.02348517969719300D-02  5.66844945372093100D-02  5.37969270679533800D-02 -1.17098086787944200D-01  1.29651626116217100D-01
68  5 -8.47486578598467800D-03  6.80847041447759100D-01 -7.08610245685248800D-01  4.34856978919110900D-02  1.55654813759202400D-02
68  6  2.86089032069211400D-02 -4.41743845828418600D-02  5.73586518425442400D-02 -1.01282374772104700D-02 -1.27075113520794200D-02
68  7  4.03481983400474000D-02  5.69263340409697500D-02  5.45968941389680000D-02  1.17539428273634400D-01 -1.29455778444186100D-01
68  8  7.96615313958179100D-03 -6.82048628383828500D-01  7.07161485855728400D-01 -4.20462226389437800D-02  1.55320169776117500D-02
68  9  2.86784848006278100D-02 -4.42105017782399300D-02  5.72757481300482500D-02 -1.04089587179135800D-02 -1.28101529574359600D-02
68 10  4.01744021617396700D-02  5.64894286650559600D-02  4.99790505558140200D-02  1.13006908977493600D-01  1.32371318546829600D-01
68 11 -2.12131349653621400D-02 -6.65897980285243900D-01 -7.15655280189645000D-01  1.16949463603606200D-01  1.87321466875793100D-02
68 12  2.64211559014742100D-02 -4.51533025890531500D-02 -5.85022266918669000D-02  2.43212323989722700D-03 -6.15956285748858800D-03
68 13  2.06507507730999500D-01  5.32633002750143200D-01 -2.57833394835165100D+00  5.30664174288725500D-04 -4.23782402156882400D-02
68 14  5.14247516649104300D-03  4.37088002146754000D-02 -2.30808224999606200D+00  2.58362333014266100D-01  8.95296432382334400D-02
68 15 -1.05699383524883800D-01  1.61697402866484300D-02  3.04555420301939900D-03 -4.82451301845471200D-03  1.60126702156623000D-02
68 16  2.06445774123742800D-01  5.32623867219359200D-01 -2.58133328419234100D+00 -5.02171096193526700D-04  4.26038879128913500D-02
68 17 -4.27220015273371100D-03 -4.33303194738976400D-02  2.30882060366948300D+00 -2.55597579419592500D-01  8.93906268073264400D-02
68 18 -1.05842159452716700D-01  1.64515326453898500D-02  3.06491520693577700D-03 -4.80532423124420800D-03  1.56725360754157300D-02
68 19 -6.65955905688164500D-02 -7.12866009122174600D-02  1.44931643169395300D+00  1.74811907600334200D+00  1.21946442056672700D-03
68 20 -7.01855794792152800D-02  7.76777874607827700D-03 -1.03253645573964900D-02  7.12765491532095800D-01 -7.80377076972834400D-02
68 21 -1.13778829974219500D-02  7.41286096895904900D-01 -8.10319614290479500D-02 -1.13815456245141500D-02  1.42831690398323100D-02
68 22 -2.90162341531701000D-03 -4.40066024833336700D-04  5.65714501759269200D-04 -2.21009700702491800D-03  3.73426663621359200D-02
68 23  3.74762863943976300D-01 -4.12105530306112500D-01 -8.97411588021495400D-03 -2.76902939797835400D-02 -1.01278776784202900D-01
68 24 -6.65597544513209100D-02 -7.12599623313221600D-02  1.44822745053620300D+00  1.74846956321302900D+00 -1.26255457621739000D-03
68 25  7.00891184814872900D-02 -7.86404019017708200D-03  1.03648765041362900D-02 -7.12154151503780600D-01  8.08196290055375500D-02
68 26  1.14539859568168400D-02 -7.41269058120009600D-01  8.41605910603371000D-02 -1.13771660272154800D-02  1.42641259239884400D-02
68 27 -2.88695989677307700D-03 -4.44440384070039200D-04  5.66264880947774400D-04 -2.24411176460673500D-03  3.72150030992623000D-02
68 28  3.74058442368989600D-01 -4.11273445468251600D-01 -9.09400177259141200D-03 -2.75712065588039000D-02 -1.04515820751534100D-01
68 29 -8.32129204331980000D-02 -6.43402159748231800D-01 -2.94509101713540100D-02  1.20869029502613800D-02  2.73153136667480200D-04
68 30 -8.38254267975949600D-02 -6.44335701930486400D-01 -2.90549800648736000D-02 -1.26035866711425700D-02  3.01985424931372000D-03
68 31 -8.36172318826943500D-02 -6.45220771223890000D-01  2.91730228322263800D-02  1.27153174085894400D-02 -2.95655956644269300D-03
68 32 -8.34680646383116100D-02 -6.43126300639669600D-01  2.93897247945184900D-02 -1.19966587098199600D-02 -1.95019169231855100D-04
69  1 -5.91461905336397300D-02 -1.15883584123905100D-01 -1.57627698295718400D+00  3.47761269993657300D-01 -2.42170274176372500D-01
69  2  8.58064184060838700D-03 -1.00354654406485000D+00  2.02358650993342900D+00 -1.72813051232386300D-01  2.60040895465589900D-02
69  3 -1.06580162054259400D-01  8.05760725077033200D-02 -3.64454917796269200D-02  7.48651296897473500D-03  2.66185197011131500D-02
69  4  5.93312355783986400D-02  1.16272277765460700D-01  1.57652450856399100D+00 -3.40094913424098800D-01 -2.48800457482211900D-01
69  5  4.61721788267764900D-02  9.39781320981002300D-01  2.04122179875372900D+00 -2.80397198197306500D-01 -2.38053691751368100D-02
69  6  1.05334693808527400D-01 -8.15293246333905200D-02 -4.17835832647079800D-02  1.10937626429810400D-03 -2.22908491842786800D-02
69  7 -5.92608921013857300D-02 -1.16188980790012500D-01 -1.57694504334608800D+00 -3.39742585312075900D-01 -2.48828939430263300D-01
69  8  4.63490789908896900D-02  9.38110213614461000D-01  2.04193863644548300D+00 -2.79473083108965500D-01  2.39132515614042200D-02
69  9 -1.05304346107162800D-01  8.13910945457590500D-02  4.18672219695650800D-02 -8.53602884693081800D-04  2.22074905437694100D-02
69 10  5.91921607456826100D-02  1.15978457797385500D-01  1.57694256843991200D+00  3.47720322666037300D-01 -2.41956863140949500D-01
69 11  8.31897520513689800D-03 -1.00362380449776900D+00  2.02231220538144200D+00 -1.73533449555991200D-01 -2.60243868518455100D-02
69 12  1.06595738335065800D-01 -8.05713514832185900D-02  3.62993858080623100D-02 -7.84688399360593300D-03 -2.66214573297406900D-02
69 13 -1.58647004830133500D-02  3.44122868884409800D-02 -2.15763750147169000D+00  4.25821369483227900D-06  1.18132006094590500D-02
69 14  1.81136217629517000D-04  1.55091641325014600D-02 -1.05676361406698800D+00  1.14297836559300200D-01 -1.13425043304042900D-01
69 15 -6.32961358125817000D-02  1.76721179116624400D-01  1.22376423159271700D-03  1.81924374202630800D-02  3.17944901877189700D-02
69 16  1.61393901854838400D-02 -3.37302411363901700D-02  2.15470549007449600D+00 -1.68359290228640000D-04  1.15667401137197000D-02
69 17 -2.85422722439729700D-03  1.66047124718360500D-02 -1.05313306897730600D+00  1.21013619577188100D-01  1.13516249466765800D-01
69 18  6.33049121883710000D-02 -1.76821161655136200D-01 -1.14572387220594200D-03 -1.81440746064703600D-02 -3.13772391713977900D-02
69 19  4.00616936703840800D-02  4.28566048346695900D-02 -9.64397401687635800D-01  2.17470370201387500D-01 -1.18786159713681500D-03
69 20  7.74979761257778000D-02 -8.73953740731763100D-03  4.67100107458681300D-03 -2.94780324931988900D-01  3.16327048080529300D-02
69 21 -3.52147236556622600D-03  2.32277670111536000D-01 -2.65101974673128000D-02  4.04454011821809900D-03 -1.20067487455870600D-02
69 22  7.96220862736888300D-03  3.13664783922516800D-04  2.21796647858809800D-04  2.57073936870350200D-03 -1.06238150116265800D-01
69 23 -6.91442608788999000D-02  1.75382410995166400D-01  1.35982628312972700D-03  1.77221668679203500D-02  3.11118375261861500D-02
69 24 -4.01382707330233700D-02 -4.29357295314920200D-02  9.65958630796479000D-01 -2.15408553922526100D-01 -1.20214341804590500D-03
69 25  7.75781074418706900D-02 -8.56473772014577600D-03  4.77891307903650200D-03 -2.95341957443315700D-01  3.40922621452565300D-02
69 26 -3.59042993663228300D-03  2.31487706889129200D-01 -2.52330623167600800D-02 -4.05531765994084900D-03  1.20025583340895300D-02
69 27 -7.94724067414906900D-03 -3.21143461349291600D-04 -2.25370632740045600D-04 -2.63948805226523400D-03  1.06345546348988900D-01
69 28  6.91791903460246700D-02 -1.75524736695013700D-01 -1.46944835002685400D-03 -1.75224705041175900D-02 -3.32037669573920600D-02
69 29 -1.55750851228243000D-01  1.27176288782278200D-01  4.50327145475690100D-02 -5.46859547900001200D-02  3.70794131227099400D-03
69 30  1.55552104374480600D-01 -1.28524797512168400D-01 -4.33916835105751900D-02 -5.56126379327108900D-02  8.60461489256394600D-03
69 31 -1.55822141362351600D-01  1.28160644346784300D-01 -4.34058250526728500D-02 -5.56420410808415600D-02  8.57084689535045700D-03
69 32  1.55714076149104900D-01 -1.28469874341737100D-01  4.51258832501469900D-02 -5.47468194518536100D-02  3.72365835465146300D-03
70  1  1.27626507422463600D-04  3.07274291005860300D-04 -8.02078510417620800D-04  4.37242214951207400D-03  1.05906256839440300D-02
70  2  9.58413991879830800D-02 -2.58851182187789700D-03 -1.52339280448819100D-02 -1.27745400548758500D-01 -9.46940228845124000D-03
70  3  1.97613324833608100D-02 -1.02919301949098900D-02 -6.13897464830147900D-03 -1.04012890048796500D-01  1.00729538918262200D-01
70  4  2.39548181672161000D-04  5.65853693248878600D-04 -1.63390567742506000D-04  4.54970190781895300D-03  1.04707734709919000D-02
70  5  9.60707149809969800D-02 -6.41058970655089200D-03 -1.57675317993693100D-02 -1.27718497875199300D-01 -9.23337251225778300D-03
70  6 -1.99223121257942200D-02  2.91556846380522400D-02 -1.68538267944054200D-02 -9.96331858182416000D-02 -1.01594699851083300D-01
70  7 -1.03741610421022800D-04 -2.56380305501524700D-04  1.41821184110711100D-03 -5.84410617412694500D-03 -1.05354165799989700D-02
70  8 -9.58661579125803900D-02  1.07750680743245700D-02  1.45214852684780400D-02  1.27378470414683900D-01 -9.59491985179819000D-03
70  9 -2.01127334043126100D-02  2.97076532561114000D-02 -1.68270543063506900D-02 -9.95430297699738700D-02 -1.01450953548501600D-01
70 10 -2.60103423243704700D-04 -6.09272103711022200D-04 -4.38264166036079300D-04 -5.91637931031798300D-03 -1.03894464100390200D-02
70 11 -9.58596404753137100D-02  7.70974058378717500D-03  1.49661172284381300D-02  1.27706467987718000D-01 -9.81454716535930400D-03
70 12  1.95010191782819300D-02 -9.68647201292233000D-03 -6.17603149021006600D-03 -1.03957719772734000D-01  1.00850677590972900D-01
70 13  3.70933496140466300D-08 -1.34916510868697500D-05  4.98312330944309400D-04 -1.35676121000255400D-04 -2.44389536850254300D-05
70 14 -1.20035636064704200D-04  3.83686451662923100D-03  3.26669805164070700D-04  2.40321308051390900D-05  1.87300851573381500D-02
70 15  3.96299130140721700D-04 -1.91263842874789000D-02  2.26116806544001500D-02  1.99914862971116300D-01  7.13576064038365800D-04
70 16  8.16785056309298400D-06  3.15851700339147800D-05 -6.02655039262930900D-04 -1.21401407278845600D-04  1.06165802430762900D-05
70 17  1.31506671091461400D-04 -1.41179934089538700D-03  2.45548888318940100D-04 -2.35919900431649900D-04  1.87045316314148800D-02
70 18  3.66389327060309200D-04 -1.90709209584751000D-02  2.26653991896312400D-02  1.99971725758341200D-01  7.37984197275655400D-04
70 19 -1.04006881949958300D-05 -1.07083752154510200D-05  2.47420785036840100D-04  7.33805292788435200D-05  1.31659187338975200D-04
70 20 -1.46551451207147500D-05 -7.84967008965148300D-06  3.68372774715012200D-04  1.05003839654137600D-04  1.85509988891759500D-05
70 21  5.66442540661721600D-05  2.07783249765508400D-05  9.45780887967602000D-05 -1.62470903115263400D-03 -2.97591011825025300D-05
70 22  1.65446813233508100D-03 -1.94652202201173100D-03 -1.73394026790235100D-02 -6.29668660872103100D-05  4.97278001483907100D-02
70 23  1.03046141186255300D-03 -5.07582615602533800D-02  5.89207573626429800D-02  5.30773836355450700D-01  1.98205651130825300D-03
70 24  9.31642769435114500D-06  1.05855951644198800D-05 -2.17047114067239900D-04 -2.72188026478160600D-05 -5.18696374484411100D-05
70 25 -1.78744598325744000D-05 -3.72525948714334200D-06 -3.44516344526649100D-04  6.74839473935817100D-05 -2.76861635232058400D-05
70 26 -1.69056478274931900D-04 -2.28259020142455600D-05 -7.30300463801834600D-05 -1.62022167584009500D-03 -3.60447548269847700D-05
70 27  1.65626643066708400D-03 -2.01188537162977800D-03 -1.73308667839138800D-02 -5.55239134802463300D-05  4.96053539598138600D-02
70 28  9.99351739139056500D-04 -5.06047056989528700D-02  6.13664600261060100D-02  5.30392403119005300D-01  1.80146819305204000D-03
70 29  8.11101082853511600D-04  1.71964921785109600D-03  8.83357523221468200D-04  1.65298898532891600D-03  1.46250942647382100D-02
70 30  5.32836041673460300D-04  6.26214549240275600D-04  8.07609761244709800D-04  1.64582126075419100D-03  1.46544404928339700D-02
70 31 -7.75681106982092400D-04 -1.71623128417472400D-03 -6.85654599623334200D-04 -1.63121989242764200D-03 -1.46459802292770800D-02
70 32 -5.73293793474059100D-04 -6.41607926751234700D-04 -7.77837324016702400D-04 -1.61897474370435500D-03 -1.46509970141040600D-02
71  1  7.06362008273043500D-02  1.28550694366112700D-01  1.17248155090901100D+00  3.01767425517542000D-01  2.95390191943310000D-01
71  2 -4.98768196410589600D-02 -1.78223054877830600D+00 -1.00098757087920400D+00  2.08776233160107200D-01  2.11733949894504000D-02
71  3  1.04787665526058200D-01 -1.25961060515507300D-01 -4.16848976437559200D-02 -4.52403280473714500D-03 -2.81835266442485100D-02
71  4 -7.04846593477080200D-02 -1.28231389515630000D-01 -1.17307498390725800D+00 -3.10971364180951000D-01  2.89662807550807000D-01
71  5 -1.52794073938261100D-02  1.81336212409836900D+00 -9.66524527397403600D-01  1.03967026314691700D-02 -1.90194637188806700D-02
71  6 -1.06089928316831800D-01  1.25109392035713300D-01 -3.64640584411442100D-02  1.31902783714451300D-02  3.23257496511693100D-02
71  7  7.05857740386298400D-02  1.28396099920201700D-01  1.17288027515698800D+00 -3.11000360200755200D-01  2.89596813522685700D-01
71  8 -1.62385222893506500D-02  1.81306142586354100D+00 -9.66227162194103300D-01  1.12075193832525400D-02  1.90333806499573000D-02
71  9  1.06095904974430400D-01 -1.25129285624387500D-01  3.64397921380406100D-02 -1.34269769252825200D-02 -3.25704746526626100D-02
71 10 -7.06449216647420700D-02 -1.28532407633991900D-01 -1.17258855491189700D+00  3.01826657831082600D-01  2.95595983928578100D-01
71 11 -4.90044343084848900D-02 -1.78226851568849200D+00 -1.00096925719980400D+00  2.08113512331468100D-01 -2.11476366454422000D-02
71 12 -1.04868376633425700D-01  1.26016013278867600D-01  4.16900381865996900D-02  4.77023872628927000D-03  2.79677653589924200D-02
71 13  2.09345471272451900D-01  4.69819459378391400D-01 -3.75743276050811200D+00  5.60088325819538900D-03 -3.60450075150022600D-01
71 14  4.05593844124451700D-02 -7.46067126977936700D-03  4.92315158580409600D-01 -5.56582928128681000D-02  3.96064626164376300D-02
71 15 -2.74552375483581000D-02 -1.21512250680792600D-02  8.77092798656318600D-04 -3.31229403629399900D-03  2.04969123554293200D-03
71 16 -2.09279042204849800D-01 -4.69638083626569200D-01  3.75694400187068900D+00  5.62336764669999900D-03 -3.60583445844633800D-01
71 17  3.97427397182087600D-02 -7.27842959055674800D-03  4.93280587561898000D-01 -5.41663965937648300D-02 -3.95783600434786100D-02
71 18  2.74426135738781300D-02  1.21357464696001400D-02 -8.85991877972653200D-04  3.31418040080590400D-03 -1.85749811348911200D-03
71 19  1.34865594184958800D-02 -2.71169214124894600D-02 -4.27680211347400600D-01 -1.01047503300984700D+00  7.48915589930899900D-04
71 20 -4.97492149587494300D-02  5.32392050464681200D-03  8.91870670308661500D-03 -5.70144364771010800D-01  6.26401998688696500D-02
71 21  8.33965887775709900D-03 -5.33249177110452900D-01  5.88677367639677300D-02 -8.11315894895158300D-04  1.00514472039687600D-02
71 22 -9.24013130907484800D-03 -2.57911455110685300D-04 -5.12579157199165300D-04 -2.46581489005884200D-03  1.46537026678130800D-02
71 23 -1.72239218459382900D-01  1.57585515791569500D-01  4.37985163514582400D-03  8.68762403470682700D-03  4.23385821733654500D-02
71 24 -1.35032549565946300D-02  2.70888033818414400D-02  4.27941466154179300D-01  1.01092186509976200D+00  7.76864840493629000D-04
71 25 -4.96671892083676900D-02  5.74744771481950500D-03  8.98076129878197700D-03 -5.70044007019421000D-01  6.44153267770992300D-02
71 26  8.37386744185103700D-03 -5.33354411709290900D-01  5.99823469196613300D-02  8.07039424155734400D-04 -1.00236197323176500D-02
71 27  9.21658030816173600D-03  2.60142362120758200D-04  5.09969331781010900D-04  2.57301508880924900D-03 -1.47015968567296800D-02
71 28  1.72077469650778800D-01 -1.57375872794049100D-01 -4.45750714713393300D-03 -8.64404796513530700D-03 -4.38604884422436300D-02
71 29  1.01524288192873000D-01  8.64127657860935400D-01  7.87741713330933800D-02 -3.71526478829607500D-02 -1.05220608229012100D-04
71 30 -1.01464279737874900D-01 -8.64415317639046700D-01 -7.76184223631700600D-02 -3.86419788302164900D-02  8.56124706696620300D-03
71 31  1.01405744541172800D-01  8.64567040004590700D-01 -7.76121201520822700D-02 -3.86607619270553300D-02  8.48768189805440900D-03
71 32 -1.01478158012425800D-01 -8.64514321275061700D-01  7.87854280868074100D-02 -3.71451531738097700D-02 -3.99607125962577300D-05
72  1 -2.85603810753467300D-01 -6.42607894182773100D-01  1.14390567048332700D+00 -8.87612299701970600D-02 -1.67099428055734500D-01
72  2  2.36359742787819500D-02  5.22541191499219600D-01  4.83310337985071200D-01 -8.22180413731411100D-02 -4.19808683611495100D-03
72  3 -2.62375086276748700D-02  3.04355954637901600D-02  6.85461625236671300D-02 -5.52855060427794600D-03  3.64319374647624600D-03
72  4 -2.85667567855269100D-01 -6.42699285206888000D-01  1.14447059170353000D+00 -9.40024695628518800D-02  1.65694503322854400D-01
72  5 -1.34629488200390500D-02  5.36791936011402300D-01 -4.74987307888921400D-01  2.46100619445823500D-02 -3.98393412341132000D-04
72  6 -2.86159285405842600D-02  2.90143219529253800D-02 -6.71741056980699100D-02  9.48842791867357500D-03  1.13430419935048800D-02
72  7 -2.85691492287703900D-01 -6.42753867937175300D-01  1.14420808045194600D+00  9.38456702471795500D-02 -1.65544619228972600D-01
72  8  1.36067619049035700D-02 -5.35857950454833000D-01  4.75136648705337200D-01 -2.42451238214086300D-02 -4.71593648323404500D-04
72  9 -2.86204902892436500D-02  2.90920839375673800D-02 -6.71239484103127700D-02  9.45632107113452200D-03  1.12609813066684900D-02
72 10 -2.85669471225300900D-01 -6.42724403587934300D-01  1.14472752694279300D+00  8.87415078356863200D-02  1.67172467849843800D-01
72 11 -2.34763119607717400D-02 -5.22152582415082900D-01 -4.83126193039531700D-01  8.25955143533827500D-02 -4.18007427051546300D-03
72 12 -2.62728053702171500D-02  3.04528796407324000D-02  6.85105496754500200D-02 -5.54168067220478800D-03  3.71217436837658300D-03
72 13 -1.32165053490804100D-01 -2.81887880935029800D-01  1.37827603309530400D+00 -8.09304953253644200D-04  4.64505711632417600D-02
72 14 -5.22829874115277300D-03  3.87061835983990600D-03 -1.45462204632394100D-01  1.57723378058142700D-02 -7.71452007606999600D-02
72 15  2.16828413220911100D-02  5.54623594386092700D-02 -8.89678704307317500D-04  8.41880246443188300D-03  4.67086306121199300D-03
72 16 -1.32080723595533500D-01 -2.81711501166880100D-01  1.37782823729784400D+00  7.08847925760145300D-04 -4.65109662648838000D-02
72 17  5.12669299445660200D-03 -2.99719604757448600D-03  1.45454086754881000D-01 -1.65119400108809900D-02 -7.71215258431425100D-02
72 18  2.16106827790082300D-02  5.55108430641344900D-02 -8.60071540248607700D-04  8.38569964431807300D-03  4.42026151582881500D-03
72 19 -1.37229224144031600D-02 -4.96100790215782300D-02 -2.52831803483459200D-02 -8.21634696335949500D-01  7.93178219441200100D-04
72 20 -5.24453291012129700D-02  5.78166055897181000D-03  2.79060050333522800D-03 -1.73393293512531200D-01  1.90885915217606300D-02
72 21  8.29667003611549500D-03 -5.32602688221477600D-01  5.87042288004512900D-02 -4.98518405058943300D-03  4.10153194662832900D-03
72 22  8.83652103960436500D-04 -1.20567872863454000D-04  3.78462673365938100D-04 -4.11608651884770600D-04  3.60467966962289700D-01
72 23 -2.56856547297842600D-01 -1.03611419664447400D-01  7.95235151385626500D-03 -2.97879355116708100D-02  1.92147089040114700D-02
72 24 -1.37114879750047600D-02 -4.95751372969823500D-02 -2.53072788456090300D-02 -8.21952724467480900D-01 -8.63928188147270400D-04
72 25  5.24171261029528200D-02 -5.91000488612224000D-03 -2.86813150960506000D-03  1.73380959224504300D-01 -1.95483876810490800D-02
72 26 -8.46555925572614300D-03  5.32646369876730800D-01 -6.00165930960365500D-02 -4.98285149165724000D-03  4.09880493119056100D-03
72 27  8.84046560466440400D-04 -1.25786303840029700D-04  3.76422762759620600D-04 -4.15241814417794000D-04  3.60395099689992900D-01
72 28 -2.56831710215686100D-01 -1.03563389474307200D-01  8.06537433722626100D-03 -2.96869048553762300D-02  1.97646579178526800D-02
72 29 -1.29701620816658200D-01 -6.41759220844412900D-01 -7.99087202712557100D-02  4.23185394684842500D-02 -4.15290969115061100D-04
72 30 -1.29651475065037700D-01 -6.42010006393541900D-01 -7.85784617079305500D-02 -4.38443988771890200D-02  9.18379758455790800D-03
72 31 -1.29770782057343800D-01 -6.42084348080201200D-01  7.85674225537596900D-02  4.38591034270131200D-02 -9.12969679087921400D-03
72 32 -1.29838110766867600D-01 -6.42450415402164300D-01  7.99837406082764400D-02 -4.23153105016174400D-02  4.66220223644617700D-04
73  1  1.20865236149499800D-06 -4.51858347858116200D-04  9.61248972528019300D-04 -7.34390152154591200D-03 -1.07116375362483700D-02
73  2 -1.23701227583131900D-01  3.82688345895070600D-02  2.41945217729241500D-02  4.59825433186934400D-01  6.84519748500319600D-03
73  3 -1.14825036855509400D-02  4.63730620054793600D-03  6.37419256503115900D-03  8.39738824494111100D-02 -6.53223304086895100D-02
73  4  6.99615628011960700D-05  6.04919864363278200D-04 -2.13375058342816600D-03  7.29152092493874000D-03  1.70003761208913300D-02
73  5  1.23027685314596200D-01 -3.73122211458262100D-02 -7.83143308925465500D-02 -4.53755325534299900D-01 -6.68760959624407600D-03
73  6 -1.42417682401722400D-02  2.09293778364169300D-02 -1.22400820712473500D-02 -8.11793608222988200D-02 -6.54533266410929300D-02
73  7 -4.92117200255341700D-05  3.42347255696531600D-04 -7.59610168062183100D-04  6.06626570873981500D-03  1.07001504005905200D-02
73  8  1.23752990512112800D-01 -1.20299918715086000D-02 -2.39578893585248900D-02 -4.61194491468210300D-01  8.57724405148944900D-03
73  9  1.18030891253702500D-02 -2.03803331768598300D-02  1.33507482384222100D-02  8.09956481466376600D-02  6.58225152105627900D-02
73 10 -1.28735487284590600D-04 -7.32131123590021900D-04  2.42834856746711700D-03 -5.88396039677895800D-03 -1.69528058265454600D-02
73 11 -1.23034766282630100D-01  1.12352804402811600D-02  7.79828938130096000D-02  4.55186951935288200D-01 -8.78133706661010500D-03
73 12  1.39366758825846000D-02 -5.15533881597478200D-03 -5.40720729798578500D-03 -8.39320363890996800D-02  6.48341237936452400D-02
73 13  4.73389182406452700D-06  1.00174065077556800D-05  7.56862353909342900D-05 -1.90496035504320500D-03 -3.68184199229246100D-05
73 14  1.25219961474058700D-04  3.43858896656675900D-02  3.56055225464275200D-04 -1.97421826790647100D-03 -1.67900375122169400D-02
73 15 -3.41450448425498400D-04  1.71314879606424300D-02 -2.08175131811968300D-02 -1.79457457015647000D-01 -5.88144006275410700D-04
73 16  8.82477972464002800D-07 -1.55420361646710600D-07 -9.57313309228275900D-05  1.81790079831876000D-03  2.33546976829498100D-05
73 17 -5.28907671871485800D-05 -3.29417212293165200D-02 -4.00065261337217100D-04  1.69673880565111900D-03  1.68061717393572400D-02
73 18  3.31933213748182900D-04 -1.71381049531055800D-02  1.98206330709396000D-02  1.79503055364743800D-01  6.67399404575681900D-04
73 19 -1.17446177329335900D-06 -4.47703532907507100D-06 -5.39213131879594400D-06 -4.76515146916937300D-05  1.19528732557841100D-04
73 20 -2.32915742314164400D-07 -6.82809170806257200D-06  2.78457619346263400D-03  2.45118413314029600D-05 -1.38380200469892200D-04
73 21  2.12900909690370700D-04 -2.10615579441857000D-05  4.20481949288160200D-05 -1.33085264255596200D-03 -2.63171658626855000D-05
73 22  1.35716980841859900D-03 -1.56751552971821300D-03 -1.42052838573233200D-02 -5.22734594730429000D-05  5.54890582273757400D-02
73 23  1.13813543246933700D-03 -5.66271936598451200D-02  6.82592270119856700D-02  5.92530839649682100D-01  2.04951482843261700D-03
73 24 -4.54404446637013100D-07 -1.95313061926831800D-06 -1.63104226174368900D-05 -2.80770258110745000D-05 -1.44704315616855600D-04
73 25 -3.35265347394210000D-06  6.69034904977020300D-06 -2.94095571529013500D-03 -2.46841104986541900D-05  1.65461307455173500D-04
73 26 -3.29263627356389900D-04  1.89011032317817100D-05  2.92002718580966000D-05  1.32857606425381400D-03  2.64720690602111600D-05
73 27 -1.35504813331405800D-03  1.64401627361035100D-03  1.42031557278536300D-02  4.77650473950372100D-05 -5.54789594912554300D-02
73 28 -1.11533350860436100D-03  5.65942929998598200D-02 -6.57300073970581000D-02 -5.92943048428471200D-01 -2.16755830822398900D-03
73 29 -6.50895743954340500D-04 -1.46669947924395000D-03 -3.73392377750255300D-03 -7.66504107696664300D-03 -6.46199358508166800D-02
73 30  5.73240627766531000D-04  1.07177954938337300D-03  3.69313224998733700D-03  6.85267243550335200D-03  6.47015760669015600D-02
73 31  6.18594401787898500D-04  1.36469952014302200D-03  3.23204418638712100D-03  7.66105454407401100D-03  6.46440254388639300D-02
73 32 -5.60901625020442200D-04 -1.17184988954836700D-03 -3.27075808201788300D-03 -6.85444268970473700D-03 -6.47261621578467800D-02
74  1 -3.09318183770516700D-02 -3.88690630474334600D-03  3.37899973841047400D-01  9.87766599276624200D-02 -3.96275260921737200D-01
74  2  3.85667297096033200D-02 -3.16525494059970500D+00  5.06514234800381800D+00 -3.99530773165974100D-01  1.31493208944901200D-01
74  3 -1.58601524335629000D-01  2.71083153907251800D-02 -5.76643708890084600D-02  8.29635197252145900D-04  2.69650717307282600D-02
74  4  3.21775394460378400D-02  6.59415796022378300D-03 -3.46779296507687400D-01 -8.64306659895098800D-02 -3.97967787565362600D-01
74  5  4.99670941807878100D-02  3.00742324243871500D+00  5.12723616707237200D+00 -7.36947441502002800D-01 -1.28090730140777500D-01
74  6  1.56676302902878900D-01 -2.85855727621034400D-02 -6.69333452784217100D-02  1.29916808440306500D-02 -2.11712822526486800D-02
74  7  3.08998790387789600D-02  3.82392757640933200D-03 -3.33481398125354900D-01  8.65899952698895600D-02  3.97785142854725900D-01
74  8 -4.87301690503726100D-02 -3.00601218337863600D+00 -5.12556536461010600D+00  7.38887737486350100D-01 -1.27911097441612600D-01
74  9  1.56529244732872300D-01 -2.86181472912584000D-02 -6.65799374523835400D-02  1.42455663738365100D-02 -1.99985322738332500D-02
74 10 -3.23857362406899500D-02 -7.08083654711393800D-03  3.47369429008251200D-01 -9.91331080739344000D-02  3.96107477181749000D-01
74 11 -3.97677017552270800D-02  3.16933470229833300D+00 -5.07118157225460700D+00  3.97861994497537000D-01  1.31318656054301000D-01
74 12 -1.58761095872976300D-01  2.74424398186753100D-02 -5.78388648480090100D-02 -4.37475462943313400D-04  2.81618505359888900D-02
74 13  8.77321195805165400D-05  2.22176861016762400D-04 -5.01014792425361200D-04  2.63078420936062800D-01  2.57413609074138300D-03
74 14 -1.44609322563346300D-02 -7.03216506645283400D+00 -6.73484648206690900D-02  3.86453152641902700D-01 -1.68884118788597600D-03
74 15  9.85128621819483500D-04  7.03712566066612200D-04  5.73218759259464500D-02 -7.78495979360857200D-03 -3.23581232175380700D-03
74 16 -1.29619433113496700D-04 -2.91890437739535400D-04 -3.39862553426479000D-03 -2.64097209261787500D-01 -2.49594601568716100D-03
74 17  1.45166889770856500D-02  7.04428641175867600D+00  6.81023009566554700D-02 -3.87269177492250500D-01 -1.53496026190635500D-03
74 18  9.19650578930715500D-04  6.15309682974165800D-04  5.80777203311450000D-02 -5.06531552110274000D-03 -3.21938885583605700D-03
74 19 -2.87346603159653600D-07  6.40135255427286100D-05  5.43160225340594200D-04 -1.64691879940149700D-04 -7.41413438695214700D-02
74 20 -7.12155785651876500D-04  4.07676613963835800D-03 -6.28185526848059400D-01 -5.71810637430585600D-03  3.44960329744994300D-02
74 21 -1.62698263604804700D-01 -1.86762272145660100D-03  8.98109929958232900D-03 -1.84515347279907700D-04  1.11779205212395200D-04
74 22  7.27361420710831300D-05  6.36662547886503400D-03 -7.83547475147062300D-04 -3.58667801499569300D-04  1.25972472148795700D-02
74 23 -7.56342507133450500D-03 -5.03382214354543800D-03 -4.49924874606277000D-01  5.29645391027931500D-02  2.52659833691718100D-02
74 24 -1.55766595716669400D-05 -8.10846171587097400D-05 -2.32508632054998900D-04  9.12445976762419600D-05  7.35805705872852600D-02
74 25  7.43297816810118800D-04 -4.04714941983979200D-03  6.27198187395754100D-01  6.20458637208734800D-03 -3.44901954549851900D-02
74 26  1.61375121555957700D-01  1.40007496582817700D-03 -8.84928478679392100D-03 -1.68409804632578900D-04  1.05247010784272000D-04
74 27  6.31627938469082300D-05  6.37698621958537700D-03 -6.16673040006083100D-04 -3.55841865926770500D-04  1.21283642823312600D-02
74 28 -7.46692522334148000D-03 -4.66143905898979000D-03 -4.49279211058871800D-01  4.61945306536346600D-02  2.51097595849485800D-02
74 29  6.01207921765308800D-04  1.68219593701650200D-01  3.28050185147245300D-02  3.20456958304580600D-02 -5.73028225744767000D-03
74 30 -4.79846145182621100D-04 -1.69978789710832800D-01 -3.41239151987054200D-02  3.13825325663821300D-02 -1.33079504316486200D-03
74 31 -7.66678165146070800D-04 -1.68880338836921100D-01  3.39300635006436100D-02 -3.14064173355517800D-02  2.06445519545936600D-03
74 32  3.69453887281270800D-04  1.69985360885298100D-01 -3.31769919998691200D-02 -3.20318437485630700D-02  5.03386995391502200D-03
75  1 -3.33072817656340600D-01 -7.26739978449018200D-01  2.93209163230469700D+00  3.17244533424670800D-02 -2.72893312161392400D-02
75  2  1.37952339606369500D-03 -7.96278048659353300D-01  8.59206965335683400D-01 -5.45002595611615200D-02  1.10652544935581400D-02
75  3 -9.76429674681160700D-02  8.65777129745584500D-02 -3.57692995321699400D-02  8.91053260606633100D-03  2.63684193596754500D-02
75  4 -3.33002362953648400D-01 -7.26784979999035800D-01  2.93068491279894200D+00  3.02365907949243600D-02  2.64327541614623300D-02
75  5 -4.56440177696555100D-03 -7.54831026567576700D-01 -8.52465625398960600D-01  1.35558433577123000D-01  8.42155024842193900D-03
75  6 -9.58195094184115200D-02  8.73979591699893100D-02  4.05028158052341900D-02  4.61286231362559600D-04  2.16841459030013600D-02
75  7  3.33026850444752500D-01  7.26570489913887700D-01 -2.93252722800032300D+00  3.07028420185627600D-02  2.80438948843146400D-02
75  8 -4.82560716166580100D-03 -7.68108926449165500D-01 -8.73530361149599000D-01  1.40359994515399100D-01 -8.96480499334881400D-03
75  9  9.63860286315738800D-02 -8.74212236382243100D-02 -4.08662224253389800D-02 -4.12656287726464000D-04 -2.20839109626240600D-02
75 10  3.32917280063412000D-01  7.26646238133474800D-01 -2.93054190451080300D+00  3.12608013614185700D-02 -2.56561095953796400D-02
75 11  1.15060328630746600D-03 -7.82696748099531000D-01  8.38741610639702100D-01 -5.11086023028494200D-02 -1.04940819190231600D-02
75 12  9.70315385685955000D-02 -8.65374566495706000D-02  3.56142003726505900D-02 -8.93617767575378600D-03 -2.59293054502663200D-02
75 13 -7.84729035597141300D-05 -1.63027676873557900D-04 -6.78360369565488800D-04  2.69637168776057800D-01  2.60807826133311200D-03
75 14 -1.48196461128360700D-02 -3.14125603980429100D+00 -3.06141107674087300D-02  1.72718740410007700D-01 -3.08622316053596900D-03
75 15  1.82231244161182200D-03  1.26391071892612200D-03  1.11336352346152200D-01 -1.24296814687603400D-02 -6.22987281570532100D-03
75 16  2.51752077893779500D-06  1.11558382829392500D-05  2.21313122348066600D-03  2.68507552061016300D-01  2.47159877639606800D-03
75 17 -1.47351743318081500D-02 -3.11174366789787800D+00 -3.00777340333747600D-02  1.71014495342484700D-01  3.05891271681178900D-03
75 18 -1.80535090287216300D-03 -1.25356181394006100D-03 -1.11089401972854500D-01  1.22428335678004900D-02  6.21263977372987100D-03
75 19 -4.76139912581234700D-07 -4.93674676502301200D-05 -3.85401925859082900D-04 -2.00801570785405500D-04  1.33371441078188500D-01
75 20  1.26784201178387600D-03 -7.32408962112193000D-03  2.10497262109220000D-01  1.69523450601688400D-03 -1.15290550260439600D-02
75 21  2.90372931233423500D-01  2.79760646015586200D-03 -1.59580723607861200D-02  5.50913326457472300D-05 -3.58768902245672000D-05
75 22 -1.92144424228326700D-05 -2.07859708372996700D-03  2.08320301677732400D-04  1.16625286704966000D-04 -8.38982514527174400D-03
75 23  5.23969860300154500D-03  3.15012654226642000D-03  3.14181623499585800D-01 -3.33993019551553300D-02 -1.76036655262011000D-02
75 24 -2.78190640125336100D-06  1.87159666413005800D-05  3.12396298500888200D-04 -9.25847048800945700D-05  1.33675048640754100D-01
75 25  1.29671345371674900D-03 -7.35045089794192100D-03  2.13056584183373200D-01  1.91915733676498300D-03 -1.16969034777736000D-02
75 26  2.90990684317192700D-01  2.93343219912028600D-03 -1.60087441780227000D-02 -5.99087052542478100D-05  4.00079179773361500D-05
75 27  1.99007872774356400D-05  2.10081183332273800D-03 -2.48905064249229900D-04 -1.19543417179761300D-04  8.68248245239016200D-03
75 28 -5.28653385518325200D-03 -3.39594859720690900D-03 -3.15760726303121000D-01  3.60620480466889000D-02  1.77286563312066800D-02
75 29 -6.96432160254637100D-02  2.99202038125246500D-01  6.93650896138682800D-02 -2.36502441536398900D-02 -1.16241162204017700D-03
75 30 -6.96755384384693700D-02  2.98457935789853500D-01  6.84360868557012000D-02  2.50921884006930800D-02 -6.56476712888153900D-03
75 31  6.97337393017064700D-02 -2.99072507549560900D-01  6.85982890799304200D-02  2.49928265857219900D-02 -6.42087365505562800D-03
75 32  6.95661754808933300D-02 -2.99028214885900600D-01  6.92766003240055800D-02 -2.37983484601407200D-02 -1.01635871838333200D-03
76  1 -1.41488277622437200D-04 -2.63815120417395900D-04  3.78236311815037700D-03 -7.05563382997476800D-03 -1.42127787390461200D-02
76  2 -1.24769766628134300D-01  9.32469320024737600D-03  1.97401695405604400D-02  1.94143412510725300D-01 -1.81743269747676800D-02
76  3 -2.16578667710187400D-02  3.98321937457863500D-02 -2.83374708564489300D-02 -1.98013602997890800D-01 -1.07812029942411100D-01
76  4 -2.57441152935204400D-04 -6.21320990385955700D-04 -3.73180207202845000D-04 -6.80619355350353600D-03 -1.42360972825711100D-02
76  5 -1.24629688549018300D-01  8.24672260865849000D-03  2.14293200666329400D-02  1.93611724332339400D-01 -1.87256650052054700D-02
76  6  2.06217018953859000D-02 -1.89603689018017000D-03 -1.71392606592386300D-02 -2.02680009939704000D-01  1.06400128794833800D-01
76  7 -1.51221220769928900D-04 -2.82735087689967600D-04  3.87527734621966700D-03 -6.40914501279210900D-03 -1.42356449464982900D-02
76  8 -1.24797932996299400D-01  1.17727618347490100D-02  1.96517416560655100D-02  1.93962806118792300D-01  1.93405762033427600D-02
76  9 -2.09186399481597800D-02  1.57806374481710900D-03  1.70407836522301800D-02  2.02693371920772400D-01 -1.06397785640642200D-01
76 10 -2.75328193943296300D-04 -6.55501035682394100D-04  1.27860971094132300D-04 -6.57251334165996400D-03 -1.42713083384821800D-02
76 11 -1.24734449173623700D-01  1.25238461802908800D-02  2.11161538147527800D-02  1.93600635642838100D-01  1.87760859538031200D-02
76 12  2.13879258377003700D-02 -4.01640117915033800D-02  2.84429403760838500D-02  1.97999007136226400D-01  1.07742706301540600D-01
76 13  6.93427190007924100D-04  1.59771165282977800D-03 -2.10788839652011300D-03  2.05822831446508300D-02  4.35729278929731800D-02
76 14  3.81961080140472900D-01 -2.80760141249761100D-02 -5.19298421492464100D-02 -5.18436619780598600D-01  3.62475079439569200D-04
76 15 -3.25951440511479300D-02  3.22326689717084500D-02 -8.66232517311648100D-03  3.59250551273990500D-03 -1.64048231920143300D-01
76 16  8.43181014494264000D-05  1.94029963550451100D-04 -2.18911750782493700D-03  2.05699171325729100D-02  4.21695773912154100D-02
76 17  3.82024946133506500D-01 -2.74213515933279100D-02 -6.02562427874582400D-02 -5.17324527666450700D-01 -1.96217509731485200D-04
76 18  3.17815656687250200D-02 -3.15853481589932100D-02  8.66908378748299700D-03 -3.53743010309849600D-03  1.64192253496164600D-01
76 19 -3.80141967882116500D-05 -1.78449362354531500D-04 -7.04566313282126600D-04 -1.21361047779711400D-03  3.46035268974262100D-03
76 20  6.96071730975328100D-03  6.44594418436562900D-02  4.83782677486303900D-03  9.86171198864738500D-03  9.08097614214235700D-02
76 21  4.23571731399160500D-03  8.34567839710917800D-03  7.90692754910266600D-02 -2.04405621341920800D-05  3.04750062321265600D-03
76 22 -3.02706006107865500D-03  8.27949915108449100D-04 -3.42953802189462200D-04  1.56365530940141700D-02 -1.66844797103407800D-04
76 23 -7.28943926474104500D-02  7.30612374445138400D-02 -1.98779093926884100D-02  8.32746042054568000D-03 -3.75525459925183900D-01
76 24 -6.44006700793085100D-05 -4.77290943026750600D-04 -2.95138012120709400D-03 -9.50529009181034000D-04  3.47329400958191900D-03
76 25  7.49315686300138600D-03  6.44387487051379000D-02  4.88722553904872400D-03  1.16251107391838100D-02  9.06233561037900200D-02
76 26  4.27010329364598200D-03  8.49372596940918400D-03  7.90192566227766200D-02  2.23866339553963100D-05 -3.13841404366981900D-03
76 27  3.11602740971402900D-03 -8.22304137817158800D-04  3.46656687135903300D-04 -1.56106526420184800D-02 -4.13881244298636100D-04
76 28  7.51841771801161600D-02 -7.47702959358175400D-02  1.97827706313378600D-02 -8.31139426379353700D-03  3.75143012908329100D-01
76 29  7.13955970104478700D-04  3.31878577290223500D-05 -4.58874059525492900D-03 -8.92630959344982400D-03 -7.95545991188843500D-02
76 30  8.57553614314296200D-04  2.80248128433368400D-04 -4.50642923419304800D-03 -9.03264094043472600D-03 -7.95524709227656400D-02
76 31  6.78456296025595800D-04 -3.03263738871277200D-05 -3.98674564097070200D-03 -8.91805502427098200D-03 -7.95574458939371900D-02
76 32  9.46777729436312500D-04  4.30002961614265500D-04 -4.07539972954496500D-03 -9.02431756253267900D-03 -7.95544225096939700D-02
77  1 -4.56349171076286300D-02 -1.41120888128468200D-01 -1.65295920889567800D+00  9.30390358344667100D-02  1.84363606535611900D-01
77  2 -2.61937796305129400D-02 -5.25371956275866400D-01  1.16146809159490800D+00 -1.02094367180950100D-01 -8.27687201548797500D-02
77  3  3.10597242559164200D-02  5.17089958989654100D-02  4.99319038767559400D-02  2.01915622179499500D-03 -9.24766903171365800D-05
77  4  4.58981240465514900D-02  1.41690888896948800D-01  1.65066527231800400D+00 -9.88080360610073300D-02  1.82452344135125900D-01
77  5 -1.50037783339190300D-02  4.88850579199647100D-01  1.17211275105513500D+00 -1.57606304549346500D-01  7.99627539929324600D-02
77  6 -2.92834262536465500D-02 -5.06793277392859800D-02  5.22191305304310600D-02 -1.38295479049497400D-02 -5.54622487579676600D-03
77  7 -4.57870216998675200D-02 -1.41519652998675000D-01 -1.65207202304022400D+00 -9.88293640972655200D-02  1.82866305561739400D-01
77  8 -1.57021913735500700D-02  4.86348750322181900D-01  1.16701398046330300D+00 -1.57229779200393900D-01 -7.99915586631681100D-02
77  9  2.94957953291694200D-02  5.04957633339990000D-02 -5.21638492418406400D-02  1.48201559634715400D-02  5.61608590884885100D-03
77 10  4.56986823177549600D-02  1.41327398830632100D-01  1.65324157285085500D+00  9.30169884865396400D-02  1.84690070596219700D-01
77 11 -2.56128819618677600D-02 -5.22343121609855200D-01  1.15741888551295600D+00 -1.01441603504297200D-01  8.28203235633236500D-02
77 12 -3.11975402758305400D-02 -5.16227832874921900D-02 -5.00936613467865800D-02 -2.97080377878887300D-03  2.38231099914969900D-04
77 13 -2.30740325000651900D-01 -5.32124129154871200D-01 -4.83154362848456400D-01  1.30308673398007600D-04  9.97929006810708700D-04
77 14  1.42909744199077900D-03  2.41980631492783100D-02 -1.69109840818394500D+00  1.88294760234548400D-01 -4.19381579806916700D-02
77 15 -1.07468269188694600D-01  1.49406427169386500D-01  2.53051507475135400D-03  1.18577285872548200D-02  3.33243560155059400D-02
77 16  2.30764800660063700D-01  5.32204970864243200D-01  4.83654825260074300D-01 -1.85077138262285000D-04  6.69704160865503600D-04
77 17 -7.05884168382080500D-04  3.08496378590474400D-02 -1.69169837293623600D+00  1.87463187110506700D-01  4.20038386814516000D-02
77 18  1.07420756253905100D-01 -1.49424594935356800D-01 -2.49460955338715300D-03 -1.18702401816639800D-02 -3.35911717775094600D-02
77 19 -1.29574895705980800D-02 -1.34648249402731400D-01 -9.91806870585728600D-01  2.72004910020272800D-02 -1.70479598987673100D-04
77 20  4.30751483963409200D-03 -7.10497486019058200D-04  7.57907795619724600D-03 -5.02700071624508900D-01  5.49246218171610100D-02
77 21 -5.36288994686728500D-03  3.31993813339539300D-01 -3.65647159053125300D-02 -1.91351427135741400D-03 -1.12637396580289600D-02
77 22  1.31772539293863100D-02  2.82258439619646800D-04  9.29420421387789300D-04  3.14573713340797500D-03  3.78916161689610100D-01
77 23  3.34835411911552700D-02 -4.12399702880764400D-01  4.12746021157126400D-04 -4.97961199589823500D-02 -5.73731863646308500D-02
77 24  1.29558060733160600D-02  1.34600493643491200D-01  9.91230747442303400D-01 -2.71468645525553600D-02 -4.30676750080766000D-05
77 25  4.33150424256214900D-03 -1.20461778134623100D-04  8.20671474386249500D-03 -5.02174698254283500D-01  5.72832405686645600D-02
77 26 -5.23508181998607400D-03  3.31671963224239800D-01 -3.72508371971217200D-02  1.91510052894216600D-03  1.12302914029516500D-02
77 27 -1.31453919318944400D-02 -2.81723251858070700D-04 -9.27013592481491400D-04 -3.28549347647491600D-03 -3.78921748962056700D-01
77 28 -3.25675608940093800D-02  4.11489309856066200D-01 -6.31626003818597600D-04  4.97264271120748500D-02  6.11630964522608800D-02
77 29  8.57512002449240500D-02  1.55300238588096900D-01  3.61355860605261000D-02  3.37744978177257900D-02 -6.02967307937386300D-03
77 30 -8.56412478618699700D-02 -1.55263285352710500D-01 -3.72189395865789100D-02  3.31087391124602700D-02 -1.64799549582882700D-03
77 31  8.57742305896943300D-02  1.55297510747395200D-01 -3.72217932868951100D-02  3.30295702912096400D-02 -1.98028419399268600D-03
77 32 -8.56360890793676100D-02 -1.54875834502004100D-01  3.61089355879950900D-02  3.38182229046945600D-02 -5.66816013932946100D-03
78  1 -9.46991882733631600D-02 -1.93993068450342300D-01  1.19630821562758100D+00 -7.74091296219209800D-02 -1.39367569988069300D-01
78  2  2.00921028230943100D-02  3.93627835799777400D-02  9.02322979841716400D-01 -1.03774064292488400D-01 -4.21975755816394800D-02
78  3 -7.44059804556963500D-02  1.16603556037336300D-01 -6.05096419080316300D-02  1.69915227234866500D-02  2.91880222914887600D-02
78  4 -9.46502582105639700D-02 -1.93873327668594300D-01  1.19535292751215100D+00 -8.18888837948762000D-02  1.37932085643853800D-01
78  5 -1.09635688830781100D-02  7.00505401863978100D-02 -9.01183577038796900D-01  9.74661421502316000D-02 -4.56700856728928700D-02
78  6 -7.25810940908232500D-02  1.18251179763716000D-01  6.40066258739874500D-02  3.15528505051345900D-03  2.09593082834846700D-02
78  7 -9.46721075073622100D-02 -1.93930274994337500D-01  1.19592918211573400D+00  8.18790738454507300D-02 -1.37894750483538200D-01
78  8  1.13316167743712500D-02 -6.80089598008179200D-02  9.01470168373424100D-01 -9.79122789463825700D-02 -4.56362153645516300D-02
78  9 -7.23373284873417300D-02  1.17973543851893300D-01  6.39842497481514100D-02  3.07335655669971700D-03  2.22083473350073600D-02
78 10 -9.46577750035143000D-02 -1.93922464005866900D-01  1.19551471886562200D+00  7.74884014386321400D-02  1.39469987858200800D-01
78 11 -1.97564404335197200D-02 -4.15901443624175900D-02 -9.02318731304908500D-01  1.03689849277112800D-01 -4.22517251525368800D-02
78 12 -7.46348378800434200D-02  1.16886563032580500D-01 -6.06958303527583200D-02  1.69866088813592100D-02  2.79500767076443900D-02
78 13  9.02353464563603600D-02  1.85353679235293100D-01 -2.38893378846168400D+00  5.00418208244570200D-03 -3.15685763377288200D-01
78 14  3.58934010327725900D-02  1.24493411211989600D-02 -7.94634272870587700D-01  8.86316515402158200D-02 -8.37349572639289900D-02
78 15 -6.90311489409364100D-02  1.52766106204865100D-01  1.47046567967202400D-03  1.47627481535115800D-02  2.93641878703823000D-02
78 16  9.02760305750951200D-02  1.85475499021674400D-01 -2.38637899654731100D+00 -4.88788590132051400D-03  3.16051769035339500D-01
78 17 -3.42390936056899900D-02 -1.27052564066169500D-02  7.95204016675760600D-01 -8.86912333098480700D-02 -8.36756461178619100D-02
78 18 -6.90223979571079800D-02  1.52698044074969200D-01  1.45921622573357000D-03  1.47553577354308900D-02  2.90604526929125300D-02
78 19  1.10288531854660900D-02  1.28208364362701100D-01  9.42951990346438100D-01  2.18372613760643000D-01  2.94911481682769200D-04
78 20 -1.84035847568598400D-02  2.14894996816294500D-03 -1.04856912147719300D-02  6.69669908276642200D-01 -7.32488011229131100D-02
78 21  2.21278072073358200D-03 -1.42598081484914700D-01  1.55818887093157400D-02  1.26187008250895800D-02 -6.00143314190661500D-03
78 22 -6.61726768318200400D-03  2.02537435544581100D-04 -1.22459330463526600D-03 -1.01124005499719600D-04 -5.48420037834482900D-01
78 23  1.70614018535767500D-01  3.77806019298714800D-01 -6.59004184134910100D-03  5.87476409157406400D-02  2.66319727096830300D-02
78 24  1.10341864295186700D-02  1.28224223127353900D-01  9.42929864409338600D-01  2.18186795200793300D-01 -2.79204063483581600D-04
78 25  1.83787500414528100D-02 -1.95553646364309100D-03  1.05812249994666800D-02 -6.69368157190937700D-01  7.58692006159267400D-02
78 26 -2.24368688586278500D-03  1.42548641401838000D-01 -1.60748978896223800D-02  1.26185069619274600D-02 -5.99169846474357300D-03
78 27 -6.62680849718373200D-03  2.01330659649461800D-04 -1.22446525367230000D-03 -9.10047197553909700D-05 -5.48606684426371900D-01
78 28  1.71204542285605800D-01  3.77402142140766700D-01 -6.47238095944811800D-03  5.86819401025478600D-02  2.85383649159998900D-02
78 29 -1.77600726624758500D-01 -2.75741041893714600D-01 -1.78335158092203600D-02  5.04697290312270700D-02 -4.36775958409038000D-03
78 30 -1.77953996787758800D-01 -2.76246950772619800D-01 -1.62153029020413400D-02 -5.06588806066276200D-02  6.89174359313801400D-03
78 31 -1.77585673715217200D-01 -2.75693931255958800D-01  1.62685114168523300D-02  5.07854140619048800D-02 -6.21425155006588800D-03
78 32 -1.77941655994867900D-01 -2.76276760819287500D-01  1.78235530027965500D-02 -5.03394827411094800D-02  5.02977628836668200D-03
79  1  9.56722919174966100D-04  2.15966958646073100D-03 -1.51586800187804600D-02  9.40537568393198300D-03  1.85844330962537000D-02
79  2  1.69033544789392700D-01 -3.19936970985360400D-02 -3.58374804425565400D-02 -4.27486224580667200D-01  1.01366505862918000D-02
79  3  1.08968364672322200D-02 -2.10334870535239100D-02  1.50326537952067600D-02  1.02349757382878900D-01  5.84782196651127100D-02
79  4 -8.19165356505026700D-04 -1.88471293470137100D-03  1.33873620804859800D-02 -9.26470223621420800D-03 -1.94395340371542300D-02
79  5 -1.68430825037736400D-01  3.16567895406157000D-02  6.10981071600741700D-02  4.24114529876201000D-01 -1.02204049477313500D-02
79  6  1.20260596371892800D-02 -1.80565468945775100D-03 -8.42796326801852400D-03 -1.03887757290256900D-01  5.73566590276105700D-02
79  7  9.51845622729300300D-04  2.15512791404393400D-03 -1.48102464148911500D-02  8.82749761949097600D-03  1.85213220161380400D-02
79  8  1.68558570136618000D-01 -1.43607848981602600D-02 -3.54389223779319500D-02 -4.27906673926812800D-01 -9.15456952957238400D-03
79  9  1.04756736335940300D-02 -1.32110410402142700D-03 -8.74927876479396700D-03 -1.03833562429334000D-01  5.76324671818728900D-02
79 10 -8.23746931049446600D-04 -1.88849896568979700D-03  1.37469863389392300D-02 -8.87061305173836500D-03 -1.94980353418892500D-02
79 11 -1.69011927517968800D-01  1.38369146347216300D-02  6.07919714542397100D-02  4.25789728732794200D-01  9.10884928712059500D-03
79 12  1.24439656284046200D-02 -2.15528149155253200D-02  1.46258361341410300D-02  1.02519168705257700D-01  5.82433108872799100D-02
79 13  2.17622745761781000D-04  4.81141437845252300D-04 -1.65012233074972200D-02 -1.67674374719116300D-02 -3.47586024794650000D-02
79 14 -3.11125613385280700D-01  1.00863699982986700D-02  1.90149427731906500D-02  1.83250437381518000D-01 -7.50236403779094700D-04
79 15  3.27354265791753900D-02 -3.19851901753962300D-02  8.62163586089477800D-03 -3.74920039083713900D-03  1.63833698138643700D-01
79 16 -3.35215902124054400D-04 -7.27002000753693000D-04  1.91464134591326300D-02  1.67709343637343500D-02  3.48334230096108800D-02
79 17  3.11284014767438000D-01 -9.62274923459185300D-03 -2.24698057993445700D-02 -1.83132953295391200D-01  3.26629373335288700D-04
79 18  3.18887890563985700D-02 -3.22154184297339200D-02  8.64083797534023800D-03 -3.82415855744456000D-03  1.63981679941490500D-01
79 19 -2.12744571670063700D-05 -2.87334491188591100D-04 -3.48204425165732400D-03  1.80397373089850700D-04 -1.38406779436585700D-03
79 20 -2.56357475877991400D-03 -2.54978446224567400D-02  7.74795779888876000D-03  1.45634828887551300D-02  1.44055991372672900D-01
79 21 -9.26732272135179600D-03 -1.89780651173352700D-02 -1.71655519042373600D-01 -5.20917195729079000D-05  1.80735639357761500D-03
79 22 -1.75526467400499600D-03  4.99575279693113500D-04 -2.11657910649402800D-04  9.46156532553047200D-03  4.54856424272914200D-03
79 23 -1.21878201952533300D-01  1.17329637709804300D-01 -3.26115336834798600D-02  1.36326960751568900D-02 -6.19177144798467500D-01
79 24  1.14500676663683000D-05  1.79086629813617300D-04  2.71194080657426600D-03 -2.96448534521850700D-04  1.35960904359891000D-03
79 25  3.12910103278850600D-03  2.54146443166289200D-02 -7.75736620771462100D-03 -1.71472068510906200D-02 -1.43670273505575500D-01
79 26  9.23365567650066700D-03  1.94345661730727000D-02  1.71632300355412900D-01  1.00499593520411800D-05  1.91883731894682700D-03
79 27 -1.92888727829913800D-03  4.94067097814968400D-04 -2.26369951786422400D-04  9.41745810655988100D-03 -2.13947213807493600D-03
79 28 -1.22018799506712900D-01  1.24158271644787800D-01 -3.25832718801579900D-02  1.44659203749329400D-02 -6.18150379084468700D-01
79 29  1.03773019872327700D-03  1.79933767125953600D-03  1.29836309384055800D-03  2.33150023789773700D-03  1.85046347533864700D-02
79 30 -9.20638924447906800D-04 -1.65450555924056200D-03 -1.32168456576483100D-03 -1.85524676706696400D-03 -1.91266602177653000D-02
79 31  1.08951555313459400D-03  1.87176531018394300D-03  7.15873149096655100D-04  2.38141536995348200D-03  1.90643031260103400D-02
79 32 -8.60948607803208000D-04 -1.55888353852816300D-03 -7.24887999885758100D-04 -1.78507267793855200D-03 -1.86108907740052500D-02
80  1  2.52486500704277000D-04  2.11530996670630100D-05 -2.97999478659877100D-02  1.11733551259725300D-02  1.58749451160247300D-02
80  2  1.41516742927605100D-01 -1.39797486008142300D-02 -3.48892791638386700D-02 -1.64390710816140400D-01  3.03841329446995000D-02
80  3  7.14087105252803200D-03 -3.75250039972275000D-02  3.89783031077786900D-02  3.23701018850750500D-01  3.72756975386602900D-02
80  4  1.68421105592981500D-04 -2.01182549043882600D-04 -3.02104114434652100D-02  1.11360982400101700D-02  1.59247865123411600D-02
80  5  1.42050366120189500D-01 -1.13153460222969700D-02 -2.44416334038758400D-03 -1.69621385138031900D-01  3.04081272038679600D-02
80  6 -6.99623938035204500D-03 -2.34118878235159800D-02  3.46236859949226900D-02  3.25769238546054900D-01 -3.49430330866056600D-02
80  7 -1.50809837621566900D-04  2.41285509581392400D-04  3.02746136093525600D-02 -4.14589177757143300D-03 -1.59943560211883100D-02
80  8 -1.42426944576179400D-01  6.17642083128228600D-03  3.51523371753621000D-02  1.66250268281555000D-01  3.05138057897520000D-02
80  9 -5.99962231294356600D-03 -2.45141834768080600D-02  3.51078161170531700D-02  3.25607970307520400D-01 -3.51756272517971700D-02
80 10 -2.19983448876979100D-04  4.23124639605555100D-05  2.92279324887554900D-02 -4.17370466418210600D-03 -1.59384893352784900D-02
80 11 -1.41841374924232300D-01  4.39979887202830500D-03  2.53030988007533300D-03  1.68470186149736600D-01  3.02783725586264200D-02
80 12  8.25530173635766200D-03 -3.85336742949840500D-02  3.83131710908108500D-02  3.23692896349644300D-01  3.69348752639945600D-02
80 13  1.99149343142682400D-05  2.91669143339760900D-05 -1.46026683894123000D-03 -2.18567620372653300D-04  1.97735875276333900D-04
80 14  5.32773029132600900D-04  3.70380224104608600D-02  1.26597770345529600D-03 -2.47579411572253900D-03 -1.16143201172542600D-02
80 15 -2.40434270411562600D-04  1.18547543876660600D-02 -1.29131133272384800D-02 -1.23498337426987300D-01 -7.75706698505072900D-04
80 16 -5.24450079559822200D-05 -9.61697984437779800D-05  1.95952426425368600D-03 -2.63515533404674500D-04  1.15233416958817400D-05
80 17 -5.96303369741040700D-04  3.69192361437656300D-02  1.44765582275042900D-03 -1.73375798669257600D-03 -1.14737293118155900D-02
80 18 -3.32344442025099800D-04  1.18060737538406800D-02 -1.50301042750060100D-02 -1.23279699890702100D-01 -6.75475830975367200D-04
80 19  1.00538904542237400D-06  2.41709805893967300D-05  1.98062475499204000D-04  2.26436887037171900D-04 -1.35588803434965200D-03
80 20 -2.49301677749251900D-05  1.26242397931457300D-04 -4.99241999996263500D-03  3.91346097235020700D-05 -5.79691194655261900D-06
80 21 -2.52733215970552200D-03 -9.50782988189135300D-06  4.05210781933777400D-04 -6.80971998719371300D-04 -1.21054290190756400D-05
80 22  6.93077427738495700D-04 -5.58418747520761100D-04 -7.21284782573334300D-03 -5.72836820315786700D-05  2.64814716949722200D-02
80 23  5.38978855980607800D-04 -2.70204505509530300D-02  2.67500665261664500D-02  2.80976830912564400D-01  2.32940782545376000D-03
80 24 -3.63675310514274800D-06 -4.02627258662487000D-05 -2.65425337287218600D-04 -2.28577012324897400D-04 -1.38102746937969300D-03
80 25 -3.07667227315790300D-05  2.35547921141054300D-05 -5.00503691619090100D-03  1.73189063947859900D-04  5.21228515309854000D-04
80 26 -2.62693807549569000D-03 -8.70138821888333900D-05 -1.46698369896960900D-04 -6.66481158440556600D-04 -1.88976401620507000D-05
80 27  6.85378798602535400D-04 -1.07296381776702500D-03 -7.15788291266716400D-03 -2.45907015045795300D-05  2.60888488891442400D-02
80 28  8.93240527008721100D-04 -2.69820894161529600D-02  3.69241443796623400D-02  2.79891759885467900D-01  1.70694427842008300D-03
80 29 -5.07075000211707500D-03 -6.56431020714570600D-03 -8.51369967278888000D-03 -1.69046532906269500D-02 -1.53021981060885700D-01
80 30 -5.41733118520461600D-03 -7.06054632610518300D-03 -8.47833212253598500D-03 -1.74245278342849300D-02 -1.52890503957653100D-01
80 31  5.53517345264232900D-03  7.28288684863706900D-03  7.99959878958885300D-03  1.69277524128092200D-02  1.52996213630777900D-01
80 32  4.95763896356042100D-03  6.37188507169660900D-03  7.97627085027157800D-03  1.74782201092512100D-02  1.53019857304868400D-01
81  1  1.62963166366265500D-01  3.96148599666496500D-01 -5.47089191669539000D-01  2.10253837236310700D-02 -1.72792078107024600D-01
81  2  1.76126145629932900D-02 -2.84751699426328700D+00  1.19859907791302400D+00  1.89655977922270800D-02  1.82239302170416900D-01
81  3 -1.48129477045746600D-01 -3.41098251246673000D-02  6.36488442850248300D-02 -2.10638353915857100D-02  1.13732182958302600D-02
81  4 -1.62912985585174200D-01 -3.96041392753331400D-01  5.47156894465824600D-01 -1.55896819273050700D-02 -1.73102250965984600D-01
81  5  2.09821365567395100D-02  2.80856285885274100D+00  1.25334647194525200D+00 -2.92395940239663000D-01 -1.85475584507417500D-01
81  6  1.50074539339173400D-01  3.54010451682446700D-02  5.46468305137002600D-02  7.79577918026535000D-03 -1.83311045254868300D-02
81  7  1.62618122050205900D-01  3.95475283090517800D-01 -5.42878293255308900D-01 -1.54866295627551500D-02 -1.73083148892765500D-01
81  8  1.96500345040800800D-02  2.80834650487421900D+00  1.25124066653933100D+00 -2.91804017696747500D-01  1.85370695828977700D-01
81  9 -1.49995099678613700D-01 -3.53755961503639800D-02 -5.46808562763087200D-02 -7.30568593451622400D-03  1.78126288285577500D-02
81 10 -1.62555158588649800D-01 -3.95349460365405600D-01  5.41266648418780800D-01  2.08844671901720800D-02 -1.72666731594488300D-01
81 11  1.89714538148491400D-02 -2.84736862885414300D+00  1.19763792408527300D+00  1.86690753780288800D-02 -1.82204905044857200D-01
81 12  1.48008921840884500D-01  3.41959832039745700D-02 -6.37466512731975200D-02  2.01032277867883300D-02 -1.14961546690842300D-02
81 13  1.54684746550181800D-01  3.13091702416802700D-01 -3.93679718205307900D+00 -2.90686388740423900D-03  1.92581505255031800D-01
81 14 -2.03900426470629100D-02 -3.23327614571437100D-02  2.06541874621006000D+00 -2.33599832206828400D-01 -1.18955475505550300D-01
81 15  1.20979396149011100D-01 -2.02392064346164900D-03 -3.60830694167485200D-03  7.74086715909851300D-03 -1.68793521522450300D-02
81 16 -1.54752209497592100D-01 -3.13265981691585500D-01  3.93757714722527300D+00 -3.20677286355629100D-03  1.92218623669704300D-01
81 17 -2.24747146646804400D-02 -3.31233051221904000D-02  2.06669579789006300D+00 -2.26896457460023400D-01  1.19088650134640700D-01
81 18 -1.21406922746428900D-01  2.31827261178816500D-03  3.46336774621050500D-03 -7.45477431866076400D-03  1.50604972567438000D-02
81 19  9.40598735346371800D-03  8.01502139120020800D-02  4.68896569528950600D-01  6.32159903590184100D-01  8.42111546425032400D-04
81 20 -4.19307140179265300D-02  4.98557251274752000D-03 -6.77935986085280400D-03  4.23113467751089200D-01 -4.73606909391024500D-02
81 21  9.97405253948061800D-04 -3.67559186069587900D-02  5.26314159392811100D-03 -4.80240846258538300D-03  2.15041288435586800D-03
81 22  2.65199557822825900D-03 -8.29174680303264400D-05  4.77982306125840900D-04  4.22599448368087700D-05  3.81712351809460200D-01
81 23 -2.73299243793163600D-01 -1.08413108016295600D-01  8.89725334993763900D-03 -3.16979830618402500D-02  2.35124542579833600D-02
81 24 -9.40693018655445000D-03 -8.01654890460542600D-02 -4.68819901752499500D-01 -6.31951979456130400D-01  5.05827744515690200D-04
81 25 -4.19403311304633400D-02  4.30045455354921400D-03 -6.63725182130859300D-03  4.23129209098220700D-01 -4.68625612283878000D-02
81 26  2.15880597519273000D-04 -3.70309411665702100D-02  2.86603214616729600D-03  4.79453291024861700D-03 -2.14949383400575600D-03
81 27 -2.64503907624306200D-03  6.66395681486770700D-05 -4.68446078868395200D-04 -9.92866797619166500D-05 -3.81458889635544600D-01
81 28  2.74037420433111300D-01  1.07421469202433200D-01 -8.07256430903594700D-03  3.10091217005344400D-02 -1.85057845055526200D-02
81 29  4.03756792606806900D-01  7.11011658335804600D-01  2.81411164593566700D-03  6.55438960425962400D-02 -7.54183673368788100D-03
81 30 -4.03601536798318900D-01 -7.10973832477967400D-01 -4.83811987730000500D-03  6.55090953049863500D-02 -6.95321768938103600D-03
81 31  4.03890638971280600D-01  7.11880889512948700D-01 -4.90520103626521200D-03  6.54174068663629200D-02 -7.15218828970209500D-03
81 32 -4.03742204057483600D-01 -7.11706522402483700D-01  2.86710943069168000D-03  6.55559552891348300D-02 -7.39921389063593000D-03
82  1  1.70517996788185900D-02  9.11283195581289300D-02  2.56000538734135400D+00 -3.56784678303463600D-01  2.92414292700099700D-02
82  2  1.66642083086910000D-02  4.36030752521155200D-01  1.41166859885489700D+00 -1.83714523900338700D-01 -3.07685930374404200D-02
82  3  6.81019843267551000D-02 -3.73333912893147500D-02 -1.04524371932250800D-02  4.16413934935385600D-03 -1.37545481992918000D-02
82  4  1.66149107693191600D-02  9.02273202637019200D-02  2.56534899634459000D+00 -3.56080006255160700D-01 -3.61543368673510600D-02
82  5  2.40382891259170900D-02  4.82053265260858300D-01 -1.39988714532842000D+00  1.29346781431945600D-01 -3.14091889969934300D-02
82  6  6.88255165242907500D-02 -3.74163275272978700D-02  7.48019028957261500D-03  2.23219295308101300D-03 -1.37445003643269500D-02
82  7 -1.70001308307955000D-02 -9.10155696340981700D-02 -2.56034098468368500D+00 -3.55869597864401100D-01 -3.60778432429471500D-02
82  8  2.25110581729570100D-02  4.80110086191591300D-01 -1.40247044468371900D+00  1.33475923201649300D-01  3.18375074202050200D-02
82  9 -6.83579107777866300D-02  3.65204033575813700D-02 -6.64400657597255700D-03  4.59434336252690500D-03  1.48502219183429500D-02
82 10 -1.65369052740163900D-02 -9.00719708607762000D-02 -2.56633025369454100D+00 -3.57189554969384600D-01  2.92236993006836000D-02
82 11  1.51982607916903100D-02  4.38018043158334300D-01  1.40983026795978000D+00 -1.80264387025616800D-01  3.16174014134936500D-02
82 12 -6.85143983066978400D-02  3.68969968932061100D-02  1.11212463546776500D-02  2.67725865447577100D-03  1.26870393838966300D-02
82 13  1.56657793967993000D-05  1.89509696465467500D-05 -3.62751949730747800D-04 -4.64788611648437000D-02 -4.67863932092431200D-04
82 14  2.57656589333396000D-03 -3.29941072022791900D+00 -3.21020619619477800D-02  1.81333936756684400D-01  3.29710324826539700D-03
82 15 -2.12535065434166800D-03 -1.17175259392209500D-03 -1.26148959216620800D-01  1.21777517053799800D-02  7.04692947831801600D-03
82 16 -4.09816814088012000D-05 -6.91675395524291300D-05  1.09197772890824000D-03 -4.67230006356523600D-02 -4.80284735147850200D-04
82 17  2.60020705189403300D-03 -3.29952060518374200D+00 -3.14198711019951100D-02  1.81473476407820900D-01 -3.58493149537143400D-03
82 18  2.05209999528717800D-03  1.53283150008322100D-03  1.25679736306471500D-01 -1.57387813270318700D-02 -7.03491980825783300D-03
82 19 -2.97088488259221600D-06 -3.43990543496323800D-06  1.15498303959057800D-04  1.93033276397720600D-04  1.91835463319837300D-01
82 20  1.84810658130221000D-03 -1.06001277613426900D-02  3.80635279836485700D-01  3.75312214528127200D-03 -2.08841417824794400D-02
82 21  3.29011711890948300D-01  3.25280571116623000D-03 -1.81661561820695500D-02  6.80415355069535300D-04 -4.18041456370226100D-04
82 22 -2.62373898701248700D-04 -2.54054061508427200D-02  2.70777755178644400D-03  1.42218060243731500D-03 -1.48984393734708400D-02
82 23  9.34809199762140500D-03  5.55034737584653600D-03  5.59994202215139000D-01 -5.79064786121969700D-02 -3.14842709984577200D-02
82 24 -1.63476712382584300D-06  1.39149081989585600D-05  2.20969007902921900D-04  1.06213374907345800D-04  1.91434654689423600D-01
82 25  1.86853797392708700D-03 -1.05328505888383800D-02  3.80747398537332500D-01  3.51921056165799700D-03 -2.08849135965415900D-02
82 26  3.28194563468718900D-01  3.16113940655241000D-03 -1.80539666401889500D-02 -6.99016022306145100D-04  4.23545426400608700D-04
82 27  2.75470595905948100D-04  2.53683481467823600D-02 -2.90382020910963200D-03 -1.42219235992204700D-03  1.54828701646431500D-02
82 28 -9.29751928011503200D-03 -6.18535088452811300D-03 -5.58454211124494800D-01  6.55735195294928200D-02  3.13986001577047000D-02
82 29  4.98159564581576300D-01  6.70400480457890200D-01 -1.76837925544753000D-03 -3.15777796421078500D-02  2.35270177085009400D-03
82 30  4.98676199724451800D-01  6.71758665514202500D-01 -2.68463478426633200D-03  3.12820707707889100D-02 -4.69764142706382100D-03
82 31 -4.98239200867192900D-01 -6.70708341557844000D-01 -2.65201712949621400D-03  3.14960707081018600D-02 -2.05978146389110700D-03
82 32 -4.98485809403750700D-01 -6.71657769865201100D-01 -1.55764578978076000D-03 -3.13096233996825600D-02  4.95945755610979500D-03
83  1 -1.16748333234118500D-03 -2.27010917829844100D-03  2.43909626571071500D-02  2.78647623075698300D-03  9.23568101355456600D-03
83  2  8.36106661899357500D-02  1.66386033439664300D-03 -3.19499331429546800D-03 -4.55204161335039900D-02 -1.33642890721466700D-04
83  3  5.96746485434387100D-02 -5.95410056527172800D-02  1.60644625138954900D-02  1.06831282186640000D-03  2.99816435973207200D-01
83  4  7.09767056484071800D-04  1.56339999947779600D-03 -1.65200257703611000D-03  4.10169322294807800D-03  1.03379100523297300D-02
83  5  8.34751209072007700D-02 -4.34454867336782500D-03 -1.73233359496263200D-02 -4.36850034780034600D-02  1.67779487803351900D-03
83  6 -5.94926111885900100D-02  5.78148163105564300D-02 -1.43254148502939600D-02  1.40226367068576200D-02 -2.99856843223361000D-01
83  7  1.03335970291351600D-03  1.95728549235771400D-03 -2.29408160720101000D-02 -6.22343982434878000D-03 -9.15270684577886900D-03
83  8 -8.36065555537252500D-02  5.17374515068991000D-03  1.54646381635201900D-03  4.55407661993420100D-02  1.44666587485052200D-03
83  9 -5.95783464071906200D-02  5.81316805323400400D-02 -1.55533157014562900D-02  1.43721142831254900D-02 -3.00023401514547000D-01
83 10 -5.52356636604498500D-04 -1.20273986078152400D-03  8.28508405746864200D-06 -4.88766247878862200D-03 -1.01994568566558400D-02
83 11 -8.34885763946061900D-02  1.42673627743253600D-03  1.54759762034145600D-02  4.40819793414185200D-02 -1.38773952576103500D-04
83 12  5.94657095890656100D-02 -5.93269356364896400D-02  1.73587671524841000D-02  1.04738117951792400D-03  3.00118487734479800D-01
83 13 -1.00798390608853600D-04 -2.17534148169305700D-04  1.43395127879117400D-03  2.64865495274798500D-04 -1.43910285562710800D-05
83 14 -7.22106843308547600D-05 -1.48901676836428700D-02 -7.43981646159977700D-04  7.38121537602163400D-04  1.98913109257481000D-02
83 15  3.47245857221844800D-04 -2.02385567829697600D-02  2.41821879679003400D-02  2.12070166248914300D-01  7.67958775334132800D-04
83 16  8.08652307419927900D-05  1.75996186185343800D-04 -1.27516171484384400D-03  1.24604167717095200D-03 -2.29285067543597300D-05
83 17 -1.40261460226381800D-04 -9.93922771389256000D-03 -4.82256455731416700D-04  3.20075088186837500D-04  1.98179977048414700D-02
83 18  4.54865187180309000D-04 -2.02728628920218200D-02  2.41391295485009500D-02  2.12126214188495700D-01  7.26305580717502000D-04
83 19 -6.41858552163951200D-06 -2.50636754012725200D-05 -1.91504834805183300D-05 -1.75352384592061500D-04 -4.03887502616935000D-04
83 20  1.04346022326193800D-05  1.83842688236566500D-04  1.52719848348718900D-03 -9.28688121808827100D-05 -2.24513489977643400D-04
83 21 -1.65955181444468200D-03  1.72250505063217800D-05  3.03152629815068000D-04  2.07033008069470600D-04  3.63168629795777000D-06
83 22 -2.10664694367445500D-04  2.67440330621233600D-04  2.17994469093626100D-03  9.02902896270793800D-06 -3.53717840374200000D-02
83 23 -5.39033445903995800D-04  3.59108174833239100D-02 -4.38618882566827900D-02 -3.75481232141360600D-01 -8.34335738818132000D-04
83 24  5.52156873014348100D-06  2.75583445049685400D-05  9.23657965620334800D-05  2.26582799790799100D-04  1.24138795724546400D-03
83 25  3.41154334536984300D-05  3.04478319748487100D-05  1.03468815297926000D-03 -1.29670014715543100D-04 -1.54976888328646500D-04
83 26  1.64391830530566400D-03  3.77149568985767700D-05  1.80561359081583900D-05  1.98325084029921700D-04  7.89374550672764700D-06
83 27 -2.06218829536482600D-04  3.14383268408353900D-04  2.17530988280622200D-03  9.73550679939120500D-07 -3.48673532320961600D-02
83 28 -9.03424765430647400D-04  3.57707779975269000D-02 -4.41442339223339300D-02 -3.75448377507632300D-01 -1.41972770004422500D-03
83 29  2.46695036422310500D-03  4.14311052497853000D-03 -6.02052062923028500D-03 -1.33826991373203400D-02 -1.16621655280484900D-01
83 30  1.32181901433790300D-03  3.18954386042189200D-04 -6.34384940547524400D-03 -1.31454036715506400D-02 -1.16592159429019300D-01
83 31 -2.58284462194774300D-03 -4.39763660092850500D-03  6.54940476436666200D-03  1.33146555176947000D-02  1.16388066591446900D-01
83 32 -1.24157301263635300D-03 -1.28442151666993500D-04  6.19461058898335200D-03  1.30826546091468300D-02  1.16415701008807700D-01
84  1  2.94012000385256300D-01  5.94152776491231000D-01 -4.13426022337085600D+00  2.25279052185421600D-01 -1.13324535063453200D-01
84  2  1.42097126129272400D-03 -8.15276142401079300D-01  1.33361459851935700D+00 -1.07155364772945800D-01  1.33742254684963800D-01
84  3 -1.45183174053661500D-01  1.14409193686975600D-02 -1.35428171868892400D-04 -7.01739547372645100D-03  2.15350239113369400D-02
84  4 -2.94039692955266100D-01 -5.94296509269043400D-01  4.13017813359988900D+00 -2.21064397023638700D-01 -1.17591429992877900D-01
84  5  2.48270435611937100D-02  7.72526675129121200D-01  1.35097954098606600D+00 -1.92447537704732900D-01 -1.33458783536400800D-01
84  6  1.44924756647174500D-01 -1.14659731107752400D-02 -8.75622664489678800D-03  8.02700194879476400D-03 -2.11025332226004400D-02
84  7 -2.94123408016093600D-01 -5.94458548792485400D-01  4.13397682551109800D+00  2.21577178971065000D-01  1.17730231993111800D-01
84  8 -2.59562032328823000D-02 -7.76114478476670800D-01 -1.34965550944102000D+00  1.94679439300520000D-01 -1.33650433652403900D-01
84  9  1.45261767800059800D-01 -1.16113341476534000D-02 -8.54453712976482000D-03  8.89497056314863600D-03 -2.08881064430400700D-02
84 10  2.94121156370128000D-01  5.94527767462640900D-01 -4.13034529765859500D+00 -2.24765739353880300D-01  1.13529869310848500D-01
84 11 -3.03862545666108300D-04  8.18040575030763900D-01 -1.33658035605519000D+00  1.05030876430882100D-01  1.33805489385218200D-01
84 12 -1.45279616190471800D-01  1.14741268052545500D-02 -1.30597969930013500D-04 -7.99014329428774900D-03  2.14416607116423300D-02
84 13 -7.13310672775719300D-05 -1.31969547030686300D-04  2.08307992854747700D-03  1.50531857397912300D-01  1.32872925129981900D-03
84 14 -8.20996697211946600D-03  9.75071430227758600D-01  7.91295803489076300D-03 -5.33336887012769700D-02  1.55453519509376700D-03
84 15 -9.94053612732884800D-04 -5.60481582359469600D-04 -5.31651599148249400D-02  6.04785779886817700D-03  2.97291763086849600D-03
84 16  4.11608612879217300D-05  9.59352774939664700D-05 -1.82522107261016400D-03 -1.50444017805811200D-01 -1.53321765073078400D-03
84 17  8.32887147373421100D-03 -9.69860368823438000D-01 -1.05529778046242900D-02  5.35620821952443100D-02  1.46964153546581800D-03
84 18 -8.11976927096022800D-04 -6.57664608371951900D-04 -5.32430384672409600D-02  7.04410954447744800D-03  3.01498922061949600D-03
84 19 -1.33302524219358700D-06 -3.63893094335999900D-05 -3.26228231309393200D-04 -3.98562846443810900D-04  2.82854962645281400D-01
84 20  2.79490617164462100D-03 -1.56400156376711400D-02 -7.51370890397921300D-02 -1.02297344531641700D-03  4.25967360936729200D-03
84 21  5.56795031759950400D-01  5.37035995618111600D-03 -3.07179629932173400D-02  4.04269705049467900D-04 -2.49306637225297800D-04
84 22 -1.54963067824043700D-04 -1.47083441849920900D-02  1.62862037650336500D-03  8.23577098944639900D-04 -1.37483017775214900D-02
84 23  8.46932835014651400D-03  5.27897342737418600D-03  4.96014156334329200D-01 -5.50328955501949900D-02 -2.80403457953546900D-02
84 24  1.97562102141277800D-06  4.57418619475248700D-05  4.20413014589488800D-04  4.28893807509217700D-04 -2.83222040241633700D-01
84 25 -2.66521715681024200D-03  1.54798402905278000D-02  7.46656006849764800D-02  3.69377114137711000D-04 -3.96942463558442400D-03
84 26 -5.57446938459832100D-01 -5.34839987568256900D-03  3.05338876080348600D-02  4.00302204808053000D-04 -2.42284398137201200D-04
84 27 -1.58017806670968300D-04 -1.47456439427711700D-02  1.64322217851761800D-03  8.27610319350254200D-04 -1.35860681655111800D-02
84 28  8.16416565776330000D-03  5.42190250774760700D-03  4.96861653958490200D-01 -5.70388102572872800D-02 -2.76518930128472000D-02
84 29 -2.19342449428588800D-01 -6.96756828946252100D-01 -5.86831962358589400D-02  4.69723119118477100D-02 -2.65570976745062400D-03
84 30  2.18751140429450700D-01  6.95887916662558600D-01  5.71591683305674500D-02  4.81037223388857300D-02 -8.52599229482503200D-03
84 31  2.18922099089066400D-01  6.96094688961333800D-01 -5.71270596820704400D-02 -4.81722427960506200D-02  9.12151121678540400D-03
84 32 -2.18259623161972300D-01 -6.95132942583810500D-01  5.86711283683601600D-02 -4.70673600450966000D-02  2.24610391042017800D-03
85  1  9.46607676799086600D-04  1.87884670858525200D-03 -7.93208700511433300D-03  2.97259670304890000D-03  5.67792911679462300D-03
85  2  5.24177853496452400D-02  3.74100659797250300D-03 -5.70468138295574800D-03 -4.16240953511500700D-02  6.63220247749296500D-03
85  3  4.89928149319985200D-02 -5.56250174094914600D-02  2.20710808195546900D-02  7.64083935522469200D-02  2.44278121285482300D-01
85  4  1.27709683945585300D-03  2.57755173016617000D-03 -1.18595717238038400D-02  3.08872124597628800D-03  6.27601759214025200D-03
85  5  5.24157963233394600D-02  2.57778307686954500D-03 -6.09293710741423900D-03 -4.15830091756492600D-02  7.57549870521266300D-03
85  6 -4.74076017480240500D-02  3.98321030428114600D-02 -3.57044290240038300D-03  8.72100305627428000D-02 -2.43924777671663200D-01
85  7  1.21706898389139300D-03  2.44509991227972000D-03 -1.07275919431976900D-02  2.66933888720563900D-03  5.62735033516159900D-03
85  8  5.24626087616793500D-02 -8.21365889365138200D-03 -3.90605476806809100D-03 -4.13160658410772300D-02 -8.59445268899785600D-03
85  9  4.85325771435871300D-02 -3.99381244545892700D-02  3.65391496998369100D-03 -8.72056867199633700D-02  2.43329742389582200D-01
85 10  1.04011110147104900D-03  2.11448535146646600D-03 -7.83162634232902600D-03  2.78446935334078600D-03  6.16829154140807100D-03
85 11  5.23011383024086000D-02 -7.35314919492001100D-03 -4.93028817524696800D-03 -4.10531429993940200D-02 -7.86254387377454000D-03
85 12 -4.75046649184811600D-02  5.53672087922557900D-02 -2.21763013348256100D-02 -7.64147430033980700D-02 -2.44100020759925400D-01
85 13 -1.54535916728625700D-03 -3.30805561381623300D-03  1.65480569026361000D-02  6.49161367142837600D-03  1.48496510974590900D-02
85 14  1.22151874754063400D-01  1.25047335243890700D-02  1.26088057327613500D-02  2.23881696059299000D-01  4.55611287432841600D-04
85 15 -8.83171376440668000D-03  8.37610247697376100D-03 -2.09975513919183300D-03  1.06911530942123800D-03 -4.15037371953052900D-02
85 16 -1.39552995174538700D-03 -2.98911735479425100D-03  1.45949331269427900D-02  6.72450496636930000D-03  1.26264558930242300D-02
85 17  1.22450185524821600D-01  1.23262916568654500D-02  3.62671955742774800D-02  2.21033017426201400D-01  2.52545675800139100D-04
85 18  7.68910785920537500D-03 -7.94165353500565100D-03  2.24211796592585800D-03 -8.33994850337108100D-04  4.17439139826485300D-02
85 19  1.07403585117167800D-04  4.08650326478349200D-04  2.12365766054627300D-03  2.39772787675603200D-03 -1.16923172135055300D-02
85 20 -2.38309186209020000D-02 -2.14164850359716800D-01  1.31312325870429600D-02  2.74224273437684200D-02  2.42837748186244200D-01
85 21 -1.35939937408749800D-02 -2.72379593601343600D-02 -2.47006940754483600D-01 -3.82474576343549600D-05 -8.16272179732374000D-04
85 22  8.54519637366953700D-04 -2.36288244338715200D-04  1.00440147940628000D-04 -4.60533187813466000D-03  2.39873132993760400D-03
85 23 -9.31311215165848600D-02  9.07323901866473000D-02 -2.53005785983838900D-02  1.00818222710623200D-02 -4.73944565583128800D-01
85 24  1.08431523278251600D-04  4.38120064392629500D-04  2.40441229546826600D-03  2.77615398346987800D-03 -1.14545754064596600D-02
85 25 -2.41911690653916300D-02 -2.14109768349610000D-01  1.29564042810157900D-02  2.68152045046313400D-02  2.42841037739324500D-01
85 26 -1.31435566389166100D-02 -2.82016761109605000D-02 -2.46951752957790400D-01 -5.94988373444435400D-05  9.99878482982366000D-04
85 27 -9.40379645637836200D-04  2.39812062730434000D-04 -9.77734050761544600D-05  4.56791619147551800D-03  1.30948251855126600D-03
85 28  9.32769477885398300D-02 -9.45864303070911800D-02  2.48910469032992400D-02 -1.10174385146570700D-02  4.73507299812710400D-01
85 29 -3.05811115125723700D-04 -9.31429360738230100D-04  8.01721431522113400D-03  1.56868009927310400D-02  1.42604695425328500D-01
85 30 -2.80156264239701800D-04 -1.08064693042438600D-03  7.96822020977924400D-03  1.62663395069030900D-02  1.42507223669285900D-01
85 31 -1.88437950209473400D-04 -1.05870441887991500D-03  7.41807969173476000D-03  1.57228106262695100D-02  1.42691559791746700D-01
85 32 -1.22996882154229000D-04 -5.55571003910854200D-04  7.35376544650489000D-03  1.63322991749629300D-02  1.42689640243974700D-01
86  1 -3.81828752377919200D-03 -1.03479685582249300D-02  1.28511011489637200D+00  2.16103849931921400D-02  1.11269526664339100D-01
86  2 -1.34657853870421000D-02 -1.14649491026484600D+00 -1.75495485150947100D+00  2.57852507831811900D-01 -5.58347351832828300D-02
86  3  8.96557168004005800D-02 -3.38209816171195600D-02  1.09669835098453200D-01 -1.13112466275153100D-02 -2.23728470222936200D-02
86  4  4.04557249308746400D-03  1.08259115638468600D-02 -1.28666952207095200D+00 -2.52162393429225500D-02  1.10704802742069200D-01
86  5 -1.13333211810216900D-02  1.20255994465026800D+00 -1.73215783476577300D+00  1.30831437203833800D-01  4.95888865631123500D-02
86  6 -8.57388741972214700D-02  3.61499876341094100D-02  1.14514935417680000D-01 -1.36695452018940500D-02  9.77899270685440200D-03
86  7 -3.93536197028026200D-03 -1.05979166134825200D-02  1.28672070426090500D+00 -2.51696893353100400D-02  1.10840111756814500D-01
86  8 -1.08069369789896400D-02  1.20143123604266700D+00 -1.73384351872989900D+00  1.28867269078712800D-01 -4.97368827238230900D-02
86  9  8.59634131069690700D-02 -3.62265303831463100D-02 -1.14565988944082800D-01  1.37198346957087400D-02 -9.67437204863194400D-03
86 10  4.07033676455920700D-03  1.08410893488485900D-02 -1.28885071334275500D+00  2.15696458685907500D-02  1.11249523452136600D-01
86 11 -1.39053376222414400D-02 -1.14740065047578200D+00 -1.75578672218233800D+00  2.60229511368652400D-01  5.57825771130079200D-02
86 12 -8.96033547973472500D-02  3.38207776843386400D-02 -1.09736988087394100D-01  1.10615247737203600D-02  2.22327658678918400D-02
86 13 -2.66965217645652100D-01 -6.12560401642458500D-01  1.17082874619474500D+00 -4.83747745465094200D-03  3.07115871392914400D-01
86 14 -3.51860446325539700D-02 -1.05232966543614800D-02  6.35736702186617900D-01 -7.11775004752862200D-02 -3.89504489655159400D-02
86 15 -2.11542132251033800D-02  6.01046621906194900D-02  3.31787715439278300D-04  6.21726816927099100D-03  1.08168113865799200D-02
86 16  2.66686319049818500D-01  6.11994594748523000D-01 -1.16890367209411100D+00 -4.79572856871956300D-03  3.07209985556193900D-01
86 17 -3.33484184194485500D-02 -1.01467478638852900D-02  6.38481717611521500D-01 -7.08779677065893000D-02  3.91803158898317600D-02
86 18  2.09237810423496500D-02 -6.01040969321818800D-02 -3.05739814893474000D-04 -6.27651180728389900D-03 -1.05390745793857600D-02
86 19 -1.75786011582195600D-02 -1.89530845527580800D-03  5.45291515870638000D-01  2.15004226785028100D-01  1.87234693176663600D-03
86 20 -1.20504973512748900D-01  1.23914609223852300D-02 -6.31984936070352800D-03  4.08801826558209000D-01 -4.38809272316386300D-02
86 21 -1.68090113235193600D-04  1.31359679946496500D-02 -2.25413994421121500D-03  1.07394243127158400D-02 -9.09926142372842800D-03
86 22 -1.64016288898742100D-03  2.69724811262072500D-04 -7.97356490521564200D-04  9.34437455418081500D-04 -5.05901355770721000D-01
86 23  1.46898285344057400D-01  3.59003070426664100D-01 -5.70263146401040700D-03  5.48781742068318400D-02  2.66376905959894100D-02
86 24  1.75763370178082700D-02  1.95827184900967700D-03 -5.44285280905384100D-01 -2.13936623390991000D-01  1.93483730858349300D-03
86 25 -1.19998019668670000D-01  1.45029794224880200D-02 -6.39651936049676500D-03  4.07585546794987500D-01 -4.71934288630326300D-02
86 26 -1.72353531191254800D-04  1.32453985562008800D-02 -6.08540932921024500D-04 -1.07570383935245500D-02  9.11670633633604100D-03
86 27  1.64033205718815300D-03 -2.72535390894187700D-04  7.99727016042458800D-04 -9.86735061524414600D-04  5.06247047374534500D-01
86 28 -1.47901698723794200D-01 -3.58345348650740500D-01  5.59042326492264300D-03 -5.47556927577366900D-02 -3.02758517361361500D-02
86 29  4.53083236966246900D-01  6.47322896792318700D-01 -3.49557611081796800D-02  9.13778804921219200D-03  7.54799237622735100D-04
86 30 -4.52891989673785400D-01 -6.47484755228532200D-01  3.46648034517439500D-02  9.90669069660594400D-03 -2.82545261116213300D-03
86 31  4.52935488168211600D-01  6.47294893818251700D-01  3.46285330768217200D-02  9.78548892761756100D-03 -3.20548564158046800D-03
86 32 -4.52984620818538700D-01 -6.47654605048990000D-01 -3.49748631126200700D-02  9.20946254668817900D-03  9.39207178011034900D-04
87  1 -1.82208224384006700D-01 -3.60452113832409500D-01  1.54579488530932200D+00 -3.70440570235529700D-03  8.57212141647061600D-02
87  2 -9.11186121436716900D-03 -1.27086961689838100D+00 -4.94597802606233600D-01  1.22990892132635300D-01  9.31983435213360600D-02
87  3 -1.29400104515448300D-01  3.62017609941130100D-02  2.32481723400154000D-02 -5.45688919733456800D-03  2.11966073752746800D-02
87  4 -1.82512584356566800D-01 -3.61098241147768800D-01  1.54606935129270200D+00 -1.01284323957568200D-03 -8.57564183896747200D-02
87  5  9.88513227251983100D-03 -1.28441325401622400D+00  4.68425264203375900D-01  1.59291606921809100D-02  9.42019267213468600D-02
87  6 -1.30363834318852000D-01  3.61619075975054100D-02 -1.57223643935780100D-02 -1.27244942672143000D-03  2.19887655760105200D-02
87  7 -1.82352879221314700D-01 -3.60749400243941000D-01  1.54591038987347400D+00  1.01629873016808000D-03  8.57836940224766700D-02
87  8 -9.48095268902595000D-03  1.28597207406295500D+00 -4.69773061223858300D-01 -1.73229795514519700D-02  9.41412766318579100D-02
87  9 -1.30071712603777200D-01  3.59304359719192200D-02 -1.57935811371812600D-02 -2.15222130319249500D-03  2.33689754013663500D-02
87 10 -1.82419936697116500D-01 -3.60922317645653700D-01  1.54607575324854200D+00  3.67934246037913100D-03 -8.56992779539540600D-02
87 11  9.71932943198094800D-03  1.26947996851412400D+00  4.93575359101651800D-01 -1.24762938987807900D-01  9.30503846161557200D-02
87 12 -1.29691086230653000D-01  3.66407016144974900D-02  2.29275205535099000D-02 -6.53725177136047500D-03  1.98363799112770100D-02
87 13  2.45460496688285200D-01  5.15475341651017300D-01 -1.39183923156861600D+00  1.56477341937347000D-03 -1.03562052416369900D-01
87 14  1.18562127523394400D-02 -5.70603015041196200D-02  3.61989341637957700D+00 -4.06761336024302000D-01 -1.85919055432902200D-01
87 15  3.00875753070863700D-01 -1.14956697637959500D-01 -8.43230275636010200D-03  4.97680272193177500D-03 -5.49507661083753300D-02
87 16  2.45618411106443600D-01  5.15845709362784700D-01 -1.39116808991900800D+00 -1.52107333838303700D-03  1.04009007935713900D-01
87 17 -1.12817323666384800D-02  5.65563548322360700D-02 -3.62041277470601000D+00  4.00303600751659200D-01 -1.85993397895235300D-01
87 18  3.01348158949514100D-01 -1.15354761054279200D-01 -8.33479720386433800D-03  5.09627452590096000D-03 -5.33847959481429200D-02
87 19 -1.16791605915441600D-02 -1.33705542676206600D-01 -1.42666955246304600D+00 -1.22073527728924300D+00 -5.22796459751554400D-03
87 20  3.29495679326195200D-01 -3.75464955318200900D-02  1.77624405226748600D-02 -1.11971719190084800D+00  1.24250685240817800D-01
87 21  3.09891095377775700D-04 -2.37969229571522500D-02  1.46980211924193700D-03  1.57769582571172200D-02 -3.17893051428717500D-02
87 22  1.60123468857540100D-02  8.69912387129199400D-04 -4.32620210157540900D-05  6.13552070333202800D-03 -1.35354186706170900D-01
87 23  2.42816536712754600D-01 -1.07462350006584700D-01 -6.85039424177530400D-03  2.11625316288817900D-03 -4.61606032908180200D-02
87 24 -1.16786311481013400D-02 -1.33748905823148600D-01 -1.42659598813554800D+00 -1.22045242984983200D+00  5.18571943054977200D-03
87 25 -3.29543909509776500D-01  3.60087959295240200D-02 -1.77323108620160100D-02  1.11959701193906200D+00 -1.25405183933102000D-01
87 26 -3.67607298601856700D-04  2.34725969971528600D-02 -3.71467285720474800D-03  1.57551990233161900D-02 -3.17196469885986100D-02
87 27  1.59644479652829700D-02  8.76516948600878700D-04 -5.02789651070075300D-05  6.30713387448593600D-03 -1.34844839484205600D-01
87 28  2.42761584044035200D-01 -1.07916744559829600D-01 -6.78643549495084600D-03  2.27681837327439700D-03 -4.51853291222744200D-02
87 29  1.07395667663319700D-01  4.38929313707460000D-01 -2.45675742945016700D-02  5.37932629721251700D-02 -4.12936963900010600D-03
87 30  1.06864064294475100D-01  4.38459614628615300D-01 -2.28120822158561500D-02 -5.41082164909193300D-02  8.00514376668655600D-03
87 31  1.07366455227264500D-01  4.39063860739645300D-01  2.29335992667243900D-02  5.42664302135028500D-02 -6.61643993000243900D-03
87 32  1.06684988572967900D-01  4.38247227805551900D-01  2.45944304001162200D-02 -5.37130688539467600D-02  5.30156039882663300D-03
88  1  1.15763622078629300D-01  2.29047417135545700D-01 -2.53177254053181100D+00  7.12065294876678700D-02  1.53708600818559500D-01
88  2 -2.12156115999201800D-02  2.45597636886386600D-01 -1.48281848368555800D+00  1.54457681145751400D-01 -8.42160059094197900D-03
88  3  4.51658530220516200D-02 -3.67442524311099000D-02  1.43910897330941600D-01 -1.88816422755599500D-02 -1.77086231193533700D-02
88  4  1.15716967151187700D-01  2.28960535161409200D-01 -2.53018552837476100D+00  7.59909680767587000D-02 -1.52315608466203500D-01
88  5  1.30047308597509500D-02  1.98185035447368600D-01  1.48719703310655200D+00 -1.76712349498701700D-01 -4.87622736058281500D-04
88  6  3.99723569896086800D-02 -3.94847342535504000D-02 -1.46233883893814600D-01  1.33821244447732300D-02 -3.39087847945554600D-03
88  7 -1.15836558990507000D-01 -2.29221610429546000D-01  2.53203622047228200D+00  7.60802654124238000D-02 -1.52256965808716300D-01
88  8  1.31161337934169100D-02  1.98058333280970100D-01  1.48646313891963100D+00 -1.78836357758073600D-01  2.85229105629624400D-04
88  9 -4.03089008844218500D-02  4.00236717787920500D-02  1.45966716014921900D-01 -1.47528030003514700D-02  1.46988582934979600D-03
88 10 -1.15676167972797700D-01 -2.28881705110219900D-01  2.53044426169417200D+00  7.11783912965062300D-02  1.53821979643743300D-01
88 11 -2.10960671262949100D-02  2.45667756507016800D-01 -1.48393448328092400D+00  1.52501348702265600D-01  8.30142013060318100D-03
88 12 -4.48286465450910900D-02  3.65272264144862700D-02 -1.43992447801512500D-01  1.74509131535842900D-02  1.96381947604100000D-02
88 13 -2.68055522583285800D-05 -5.85909336307758200D-05  1.15960154738404700D-03 -3.24155941030907300D-01 -3.14428589833572100D-03
88 14  1.78262873680925400D-02  2.60515740557491000D+00  2.52205284746059300D-02 -1.43165328382260900D-01 -9.62512524872976300D-07
88 15  1.18525703842337200D-04 -1.17563191319516200D-04  5.24884632061653900D-03  6.68365330797650900D-04 -2.89305501399559700D-04
88 16  6.44367175433988700D-06  1.28427727493571000D-05 -1.73080941765580800D-03 -3.24234932871470100D-01 -3.09956473111293500D-03
88 17  1.78173982524153800D-02  2.60503035733507400D+00  2.49692492759091200D-02 -1.43218535756867100D-01  2.22020709346361500D-04
88 18 -1.52459448967014800D-04 -6.95612603787980100D-05 -5.03638419288338900D-03  1.62667589339185500D-03  3.14292696607310400D-04
88 19 -3.05324910945931300D-07  1.27015098827508000D-05  1.58118812495644600D-04  1.51735696112501800D-04  1.69522734374055200D-01
88 20  1.60837380553971100D-03 -9.29833008658140100D-03 -5.33103849619605600D-01 -4.93008513264581300D-03  2.92691211582491800D-02
88 21  3.34713107146893600D-01  3.24992995264902300D-03 -1.83890116283026300D-02 -7.80921481840654200D-05  4.92456374553757800D-05
88 22  2.88465107297108900D-05  2.85572332966205000D-03 -3.01951538850074100D-04 -1.60543078269893300D-04 -1.49382396444171200D-02
88 23  9.19294812646209500D-03  5.74529151795808700D-03  5.47565473044151600D-01 -6.07893415767294800D-02 -3.07007768038910400D-02
88 24  7.57646876700189600D-06  8.72914849167490300D-06 -2.26535282762295000D-04 -1.01815751914124000D-04  1.69471848496346100D-01
88 25  1.56087119280637600D-03 -9.33795619895331500D-03 -5.33008762962811600D-01 -4.95460074389333500D-03  2.93034746690148400D-02
88 26  3.34647663331648800D-01  3.23114566013184200D-03 -1.84171618129676300D-02  8.06691926716008400D-05 -5.25409357346023400D-05
88 27 -2.81282569375854700D-05 -2.85328390049435200D-03  3.32620665624080700D-04  1.61258274538594000D-04  1.49420490276317200D-02
88 28 -9.12218322034756000D-03 -5.81986580728414100D-03 -5.47583392495698700D-01  6.01944565995591200D-02  3.07061146323285100D-02
88 29 -2.82378431178840600D-01 -2.01440497272547500D-01 -3.69166744481741100D-02  3.92651921697055900D-02 -2.34998151642955400D-03
88 30 -2.82182892215060800D-01 -2.01280170703204200D-01 -3.56552218519837700D-02 -3.99154964159019700D-02  6.37197723371678500D-03
88 31  2.82306012724471600D-01  2.01377477186909800D-01 -3.56458204689688200D-02 -3.99160252238780100D-02  6.34125902204106300D-03
88 32  2.82377773534572300D-01  2.01353844701320600D-01 -3.68546143273571800D-02  3.92294625328723600D-02 -2.37109723928079200D-03
89  1 -5.03713041518501800D-04 -1.12419237082804900D-03  4.65409191731264800D-04 -7.94859268875444700D-03 -1.75028039272661700D-02
89  2 -1.53559139487660700D-01  1.59890822709790300D-02  4.32438325006450200D-02  2.78448977418481600D-01 -2.36713158451128000D-02
89  3  4.13991031370254800D-03  1.95314055314103500D-02 -2.87039843250382900D-02 -2.57506843885387800D-01  2.38775727824519300D-02
89  4  3.23846873117252400D-04  7.54140438661454600D-04  1.06831207139300100D-03  8.03962516256365200D-03  1.70531598135094200D-02
89  5  1.53524897120932500D-01 -1.71432729355997200D-02 -1.99477475916655900D-02 -2.81009508769053700D-01  2.37415921330685600D-02
89  6  5.48369461896521800D-03 -2.92252867520336000D-02  2.94998319132525900D-02  2.56659140461158700D-01  2.57384100852461800D-02
89  7  4.01948149769883100D-04  9.26893091917976400D-04  1.72048192781544100D-04  8.58611399385481900D-03  1.74987097728199300D-02
89  8  1.53480816104014500D-01 -1.35679190091914800D-02 -4.30741736044839300D-02 -2.78549771945497100D-01 -2.43240385812295300D-02
89  9 -5.22205020056981500D-03  2.95460887817993000D-02 -3.13464269601801700D-02 -2.56343105730919000D-01 -2.56647235639750900D-02
89 10 -3.99407924978326600D-04 -8.99530188058223100D-04 -2.73447703455842100D-04 -8.53574183827713800D-03 -1.71169761851406800D-02
89 11 -1.53587669327624600D-01  1.40909721664845800D-02  2.03558729060821800D-02  2.81076847652056000D-01  2.44910417553899800D-02
89 12 -4.56500237427900300D-03 -1.99260393811110400D-02  2.69725385598323400D-02  2.57596218014927400D-01 -2.37452441399143700D-02
89 13  6.67883408782199200D-05  1.47690589398536200D-04 -2.37542255999052900D-04  2.68656013182002900D-03 -1.92310594617199200D-05
89 14 -1.72089985033097100D-04 -1.23591275924073800D-02  6.29182204941762500D-04  6.06515214016615000D-04  2.88036705683782000D-02
89 15  6.91657149207417300D-04 -2.94953277175857200D-02  3.54285306795493200D-02  3.08385592437726200D-01  1.02872349410614100D-03
89 16  2.11488380876087500D-06  2.00373425600423800D-06  2.43979561767613300D-04 -2.49200961610971400D-03 -6.42442054055836900D-05
89 17  1.02180532493264400D-04  1.17089281656317500D-02 -8.70626556699723600D-04 -3.97808723368236500D-04 -2.89728384661920500D-02
89 18 -4.46587869690949700D-04  2.94194263358830400D-02 -3.44299542906202000D-02 -3.08477074188219500D-01 -1.17998867926582800D-03
89 19 -3.21875823031772300D-06 -4.80245232635389600D-05 -5.40086463911873700D-04 -4.78460568213394300D-04  8.59502767744509900D-04
89 20  1.59633760080171900D-04 -6.36120075405106200D-05 -2.31363136661390600D-03 -5.56789109818709200D-04  1.36825042081925100D-04
89 21  1.36410740582182800D-03 -5.80535213519854500D-06 -9.23687296048632900D-05 -5.78599512325111300D-04 -2.14919844547299500D-05
89 22  6.00091496779683700D-04 -7.16005353737142800D-04 -6.22624713223907700D-03 -1.72905713647204500D-05  3.45702943641234300D-02
89 23  7.94419594177948500D-04 -3.53647139583013200D-02  4.38064364049530600D-02  3.69712674516669800D-01  1.16670843160162900D-03
89 24 -7.83735907480095400D-06 -4.19620348641045100D-05 -3.06407122863926600D-04 -3.12831468662096100D-04 -1.05992793794533400D-03
89 25 -8.99497445919062700D-05  1.01235082517308600D-04  2.57755622654112200D-03  3.14323998207962000D-04 -2.25936380732121800D-04
89 26 -1.65448964568758900D-03 -6.37668566260662100D-06  1.01381219000845700D-04  5.88753547901480000D-04  1.67107675975419400D-06
89 27 -5.90424624661420400D-04  6.87217557218497600D-04  6.22999533251206400D-03  2.28945695164916400D-05 -3.47850207868835800D-02
89 28 -5.84128359746060800D-04  3.53691491466296600D-02 -3.94814683579153800D-02 -3.70212018363021600D-01 -1.44472464791727500D-03
89 29  2.07099409471107600D-03  1.93814816687009100D-03  1.01084222721863100D-02  2.11776723852477700D-02  1.85617922310175600D-01
89 30 -2.09777378631276800D-03 -1.84914199709793600D-03 -1.01031828002291900D-02 -2.05730143823253200D-02 -1.85777515452539700D-01
89 31 -2.20665839856646900D-03 -1.92282312867707400D-03 -9.88518882438939800D-03 -2.11553627357162400D-02 -1.85708448163178900D-01
89 32  2.14020383883893900D-03  2.18696975503902300D-03  9.93566441110839600D-03  2.05118044076948600D-02  1.85730871274410600D-01
90  1 -1.72650522189176700D-01 -3.81448633131543800D-01  2.00699240897757900D+00  3.47010574016342100D-02  1.14097555248589100D-01
90  2 -1.45939479986864800D-02  1.80316998166800600D-01 -9.11473012637655600D-01  9.29178778350180500D-02 -6.48208279216597000D-02
90  3  3.40394699760454300D-02  3.07813579456116600D-02  2.68318234795301900D-02  2.68932088566007800D-03 -1.70361579247219800D-03
90  4  1.72535919036145100D-01  3.81220127098691200D-01 -2.00543608980787700D+00 -3.82713586882033100D-02  1.13362249560410700D-01
90  5 -1.07392204862646500D-02 -1.52427432950972800D-01 -9.14756809718240400D-01  1.10691997387781100D-01  6.33472084226552500D-02
90  6 -3.31208134730308500D-02 -3.02263949496237800D-02  2.91306754471752000D-02 -8.84383488388631700D-03 -1.14016285594963500D-03
90  7 -1.72549203913068800D-01 -3.81248488915895400D-01  2.00645270890167300D+00 -3.81499203170093900D-02  1.13465239082061700D-01
90  8 -1.05977872214772000D-02 -1.52803438036933300D-01 -9.16169935768366800D-01  1.11397410582097000D-01 -6.33329455646075800D-02
90  9  3.32305500494916600D-02  3.01023955151157200D-02 -2.90830500469242100D-02  9.35609618286808500D-03  1.39573496539581000D-03
90 10  1.72529240477198100D-01  3.81218393660287100D-01 -2.00680291413562500D+00  3.46001414276377200D-02  1.14080632174219600D-01
90 11 -1.47725162923823100D-02  1.82038298771529000D-01 -9.12285956594018100D-01  9.24235953453661100D-02  6.48839186747476700D-02
90 12 -3.41355693625921500D-02 -3.07483493121566400D-02 -2.68181136331831800D-02 -3.18049341890390800D-03  2.01419288017426500D-03
90 13 -7.32081658181918500D-02 -1.51172177073719100D-01  1.63740828553226000D+00  2.59798838748975700D-03 -1.57142629905206700D-01
90 14  1.74432125060704400D-02 -3.03852585120329700D-02  1.85482549084961500D+00 -2.09149060033925000D-01 -2.32203520375109100D-01
90 15  3.47585769382906600D-01 -1.15382249007797700D-01 -9.76527028764035200D-03  8.03821936728756800D-03 -6.10786653633443400D-02
90 16  7.32179030097677000D-02  1.51230099974617100D-01 -1.63793634245778600D+00  2.44465866758486300D-03 -1.56987535524208800D-01
90 17  1.75987282291756500D-02 -2.90651403719287400D-02  1.85340813387495800D+00 -2.04081570088670700D-01  2.32106137757258200D-01
90 18 -3.47750236391995700D-01  1.15644098634737900D-01  9.75774986909204600D-03 -8.01380732454574900D-03  5.93950012703349100D-02
90 19 -1.58690752797973400D-02  1.56637243714331500D-02  1.13416753650930800D+00  1.07305118796542300D+00  7.24804476622138000D-03
90 20 -4.61914775568423900D-01  5.06608954231622200D-02 -1.81942369431246600D-02  1.15837635335296600D+00 -1.27162304140828700D-01
90 21 -1.64934079984774800D-03  1.06119977837385600D-01 -1.18787289446122500D-02 -1.75625070645938700D-02  4.05818275022831300D-02
90 22 -2.30193204376893100D-02 -1.10396849946908300D-03 -2.67440003427998500D-04 -8.16973328264884400D-03  1.13037792490270500D-01
90 23 -2.43438887487053400D-01  1.30401094996782900D-01  6.65713223404291500D-03  6.47761670994788400D-04  4.75721428372587600D-02
90 24  1.58651885914154200D-02 -1.57420280705816300D-02 -1.13481343907469800D+00 -1.07365170073352800D+00  7.27324847767997800D-03
90 25 -4.61981712176579600D-01  5.22787706295298100D-02 -1.82245348107643500D-02  1.15867207633366800D+00 -1.31031274126686400D-01
90 26 -1.78047812134247700D-03  1.06092482189841200D-01 -1.17928164266700400D-02  1.75710982762486400D-02 -4.05531615645906700D-02
90 27  2.29820632883425000D-02  1.10554725450907600D-03  2.63039605326616200D-04  8.40912474716304900D-03 -1.13143006897467900D-01
90 28  2.43274490977308900D-01 -1.30131484079840900D-01 -6.49130484014720900D-03 -6.33271944958309400D-04 -4.97807812963537400D-02
90 29 -2.38001527995744500D-01  1.15499025704198800D-01  3.64487589694412600D-02  4.71794644952487300D-02 -7.34953097032847100D-03
90 30  2.38140344275731400D-01 -1.15198397161859000D-01 -3.79223121247304800D-02  4.64607048323849400D-02 -3.08397332912037600D-03
90 31 -2.38031583872696900D-01  1.15670286920169100D-01 -3.79218243563296000D-02  4.64854846000402500D-02 -3.25689704298304700D-03
90 32  2.38006994632910100D-01 -1.15400654425917500D-01  3.64677799930036400D-02  4.72030667887859100D-02 -7.13245849466633000D-03
91  1 -1.96726000155198000D-01 -4.15526073942823000D-01  1.43559551904446000D+00  3.41482535547946200D-03  1.52268863975225300D-02
91  2 -1.07845642599372000D-03 -2.56162847041519900D-01  2.48503311261805100D+00 -2.68490423223744900D-01 -2.03877730922905900D-02
91  3 -1.22494478290046700D-02  3.26372209212937100D-02 -1.52033569637704300D-01  2.19997165096673300D-02  1.41568312750491200D-02
91  4  1.96620657841515000D-01  4.15307305227843600D-01 -1.43299834507244800D+00 -3.91364384747594800D-03  1.49629759341166700D-02
91  5 -2.27600157035685500D-03  1.76873261159094700D-01  2.48938616236499900D+00 -2.86015520523080300D-01  2.87799579643673300D-02
91  6  6.99655394044757100D-03 -3.57765119048156700D-02 -1.52542880782448900D-01  1.17846185277964800D-02  2.49592591417025800D-03
91  7  1.96630078811175600D-01  4.15347450688859400D-01 -1.43299961626687300D+00  3.83662846001372800D-03 -1.50950910825240500D-02
91  8  6.69154798126526000D-04 -1.77250062875366200D-01 -2.48987321112745700D+00  2.92345476594161800D-01  2.90001953550122400D-02
91  9  7.11275255966879000D-03 -3.61129479146804100D-02 -1.52254386423021300D-01  1.44696656385152400D-02  2.98709626154010500D-03
91 10 -1.96688759475425800D-01 -4.15474809721958200D-01  1.43380556212099700D+00 -3.36993446017269100D-03 -1.50093841103344700D-02
91 11  2.67004542786490700D-03  2.55922367917314300D-01 -2.48638265980624600D+00  2.62509417323249600D-01 -2.06752807135623200D-02
91 12 -1.21220098225015100D-02  3.27972905360642900D-02 -1.52346233643111100D-01  1.92034623129086400D-02  1.45749830708443600D-02
91 13  4.79281406021256000D-05  9.06038134878989900D-05 -9.60390461968174300D-04  5.10378891051565200D-01  4.88304620758683700D-03
91 14 -2.80249002973931600D-02 -3.73398139530113800D+00 -3.55138322771045500D-02  2.05220737682581300D-01 -2.14854048205985600D-03
91 15  1.19152500993077000D-03  9.57015472128215400D-04  7.12331729102071000D-02 -9.69629579240321000D-03 -3.97034866582218000D-03
91 16  2.67363961542084600D-05  3.67276571208717400D-05 -1.77690038239032500D-03 -5.10416219373704300D-01 -4.86151449753569900D-03
91 17  2.80520730026406300D-02  3.73299625281103000D+00  3.48231140717231700D-02 -2.05122560171182600D-01 -1.90185027637816500D-03
91 18  1.29104384307509200D-03  6.10806433303289400D-04  7.16194855297380300D-02 -6.09436232003636000D-03 -4.00056385526764600D-03
91 19 -1.52856839609713800D-06 -1.85839631121657400D-05 -3.40344873434078500D-04 -3.84496826295955300D-04  9.52890862479210400D-02
91 20  1.08248737184421400D-03 -5.21098011042475100D-03 -5.24654608895471200D-01 -5.36741941186687900D-03  2.88297433331791100D-02
91 21  1.58452958355783900D-01  1.49646870332160900D-03 -8.68251318197114600D-03 -4.14997494716210800D-05  1.50391490479743700D-05
91 22  2.64606004251729900D-05  1.89169387021798500D-03 -1.88901570910425700D-04 -1.02912143153512100D-04 -1.24850102859268600D-02
91 23  7.68393725339139600D-03  4.80107303253565700D-03  4.51874605380762200D-01 -5.09846649746760500D-02 -2.53628985568343500D-02
91 24 -4.17777416053079600D-06 -1.18430484770683000D-05 -1.58218696025831600D-05 -6.19880924183675900D-05 -9.52518211327816500D-02
91 25 -9.51657106395184700D-04  5.08823419222906900D-03  5.24658100182215500D-01  5.05735281247879400D-03 -2.86794614647644300D-02
91 26 -1.58462482313466700D-01 -1.52964996483831200D-03  8.63528234942512700D-03 -5.11119754805452800D-05  2.90255981094582000D-05
91 27  2.20863773699980800D-05  1.88853177146635500D-03 -2.30255426163032100D-04 -1.05629505266202700D-04 -1.22622957048854200D-02
91 28  7.56661447051556300D-03  4.69568123436985000D-03  4.51979999900602300D-01 -4.90798017792702700D-02 -2.52692776937016200D-02
91 29  4.38175619803315600D-01  4.84233298743494400D-01 -1.54774350846494000D-02 -1.79454845692625900D-04 -6.33494172811796100D-05
91 30 -4.38071344575966700D-01 -4.84153199622202800D-01  1.54518901381178700D-02  3.02465252568323600D-04  4.99474179978157600D-05
91 31 -4.38138575234018600D-01 -4.84295122885302200D-01 -1.53504843741319900D-02 -1.00014878848286700D-04  1.82598243397967200D-03
91 32  4.38159698919054700D-01  4.84441797646195900D-01  1.54023058280161000D-02 -2.87801117020168300D-05 -1.74408979961823700D-03
92  1 -7.23395618214563500D-04 -1.49341929577615000D-03  5.69979243474882300D-03 -4.83022511799590200D-03 -9.43772571331882000D-03
92  2 -9.02258693609065700D-02 -5.79719639820246600D-03 -2.00663551054001300D-03 -2.15160233151923500D-03  1.79171978802467200D-02
92  3 -4.51072341970641500D-02  2.71900363168174400D-02  8.84380513364478400D-03  1.91620840811835200D-01 -2.27662840887800800D-01
92  4 -8.59634130482454300D-04 -1.77499782225312600D-03  7.15445337883181500D-03 -4.79948368343332900D-03 -1.08709412032441800D-02
92  5 -9.04382434375125300D-02 -6.70375119148746000D-03  8.98685319288898800D-04 -8.38581849297129000D-03  1.78327068833374600D-02
92  6  4.43492021861252600D-02 -6.21819090694628200D-02  3.39986784949816300D-02  1.88122564109579700D-01  2.26195887877903300D-01
92  7 -8.04332180512661200D-04 -1.66325560799738900D-03  6.37777298425736300D-03 -4.95202312775724200D-03 -9.45641761131797900D-03
92  8 -9.02720586786733300D-02  6.02811644918008700D-03 -1.87648363073700900D-03 -2.66593335251435100D-03 -1.70165479752782100D-02
92  9 -4.58120186921658300D-02  6.28285666674440700D-02 -3.29266376775946100D-02 -1.81482634791443800D-01 -2.28997714685160900D-01
92 10 -7.78993913196505500D-04 -1.60481041038563200D-03  6.50078901326925800D-03 -4.89346219853864900D-03 -1.08834011633481000D-02
92 11 -9.04350928450501400D-02  5.28075988316308900D-03  9.88791372123481300D-04 -9.12801386940334000D-03 -1.83050051806794400D-02
92 12  4.36227236893108500D-02 -2.53177185086315000D-02 -1.01806823002493100D-02 -1.98038811563441800D-01  2.24884166270914100D-01
92 13  1.98684408528045000D-03  4.09215469243379100D-03 -2.29166196436968300D-02  4.91819435989869100D-03  9.68165643924947400D-03
92 14  9.17133317233226900D-02  9.86369833279190400D-03  2.65678572040857500D-02  1.80766246690415400D-01  1.02034087751096700D-03
92 15  1.51710930140639800D-02 -1.61914338915751300D-02  4.44311678359978400D-03 -1.92042240476554700D-03  8.41944388346995100D-02
92 16  1.98660704809714900D-03  4.09143614388442600D-03 -2.36727199195151100D-02  5.10498436443361500D-03  1.13045481164378300D-02
92 17  9.42677771636983200D-02  9.97335199916319000D-03  1.47676943101582500D-02  1.87179127427000100D-01  1.25290735099507900D-03
92 18 -1.89274354748573400D-02  1.76745281238623500D-02 -4.68425863571339800D-03  1.91810342626895900D-03 -8.88053290184897100D-02
92 19 -1.23160157943396800D-04 -1.24940651394024000D-04  2.94033476547756800D-03  2.67451976404537700D-03 -2.88343457613576200D-02
92 20 -6.14450588602020900D-02 -5.35296108119728900D-01  2.96929980389214300D-02  6.72878479283489400D-02  5.51962991035459000D-01
92 21 -1.45063103448208400D-02 -2.98645419489468700D-02 -2.68921172270828000D-01 -5.78792475445641700D-05  1.61035562804838000D-03
92 22 -1.55247638050384600D-03  4.11232678518217800D-04 -1.70864331753224400D-04  7.79447008985184200D-03 -1.99380374687454300D-04
92 23 -2.72444969333793000D-02  2.74438773080667100D-02 -7.37877817744550700D-03  3.11235147445687500D-03 -1.38452885533055300D-01
92 24 -1.42913309887846500D-04 -1.98083509617738200D-04  2.79357910189551500D-03  2.41962476097381000D-03 -2.76444285016679800D-02
92 25 -5.62411133058688000D-02 -5.12845429448224100D-01  2.85368921748780100D-02  5.43023671734552300D-02  5.28734120035884000D-01
92 26 -1.38907555266679800D-02 -2.92448010627385700D-02 -2.58085899149860200D-01 -3.63830890498532400D-05 -1.45799482479029500D-03
92 27  1.49437791384024000D-03 -4.12281425957824000D-04  1.72694184247022800D-04 -7.80828264507672400D-03 -5.74987442062466900D-04
92 28  2.60170927102025000D-02 -2.54421052681400400D-02  6.92739932139041700D-03 -2.80962127884889900D-03  1.32484469802591300D-01
92 29  1.52946875699273600D-03  1.45474067412561600D-03 -2.86562038101034800D-03 -5.15479658399284500D-03 -4.67447110312303500D-02
92 30  1.46263424966152900D-03  1.34911313500175200D-03 -2.59614729412808900D-03 -4.82486167067343100D-03 -4.20090410805981000D-02
92 31  1.49323423329357700D-03  1.37399514037875200D-03 -2.17732134842838200D-03 -5.15871468684765100D-03 -4.67036322157805100D-02
92 32  1.50343041685275300D-03  1.42412316538888700D-03 -1.93300394835430700D-03 -4.84642616188881500D-03 -4.20434367535480700D-02
93  1 -1.56583865173948600D-04 -2.67852976384068000D-04  2.60649254028204200D-03  5.10221593827113400D-04  7.89394465452312400D-04
93  2  1.06330779282632800D-02  7.54176455369897100D-03  1.93067802758747700D-02  1.57096270682715300D-01 -1.59704301417887200D-02
93  3 -1.52133655555251500D-02  3.11837956973142300D-02 -2.40745478192469800D-02 -1.74737434774839600D-01 -7.53722644722831700D-02
93  4  1.45690095146963200D-04  2.43381073676702700D-04 -2.78469858610516700D-03 -2.94405781475619200D-04 -1.21647591341335100D-03
93  5 -7.11384489143260900D-03 -7.60888005927644300D-03 -1.58529962050520000D-02 -1.57264231205277400D-01  1.55967196300835200D-02
93  6 -1.59811404432742300D-02  3.84420813190873100D-04  1.45500543339454600D-02  1.71037074503389700D-01 -8.28019259916897600D-02
93  7 -4.80803194417185100D-05 -3.49656884657436400D-05  2.07285517135390500D-03  7.09326984769164500D-04  7.82911938130530200D-04
93  8  1.05990925779348100D-02  8.89796092432666900D-03  1.87931043134266000D-02  1.57151281209161700D-01  1.70272735335958100D-02
93  9 -1.45429750261257600D-02 -2.48429850747028500D-03  1.61785534359561000D-02  1.77959958541713300D-01 -7.42340992180277300D-02
93 10  5.01021755738455100D-05  4.70163940555030500D-05 -1.73389270974600600D-03 -4.55012170197394800D-04 -1.21323575714507200D-03
93 11 -7.10434274709261000D-03 -8.97627911079364400D-03 -1.67532665691380700D-02 -1.57175715327254400D-01 -1.61172498622179900D-02
93 12 -1.65967347427484800D-02  3.27139846049666400D-02 -2.34336502650227000D-02 -1.67356107782812200D-01 -8.39387684717339400D-02
93 13  8.46165348513358600D-04  1.81805295361530900D-03 -4.63699049271802600D-03 -3.86666531034318700D-03 -8.36980654966483800D-03
93 14 -7.31762742372598400D-02 -7.81514237878432900D-03 -1.21485539920398300D-02 -1.35652230413295100D-01  4.80638737728697700D-04
93 15 -2.68585774951013600D-02  2.63779387573726300D-02 -7.09851560977465100D-03  2.95586259528213700D-03 -1.35239647525289700D-01
93 16 -8.23652767377417400D-04 -1.77388050984793300D-03  4.18454327596575300D-03  3.66527429520725700D-03  7.67847767693328800D-03
93 17  6.96546967570938600D-02  7.67585876604314300D-03  1.76710415825145100D-02  1.27949758146575400D-01 -6.95068798861331600D-05
93 18 -2.58286830093008800D-02  2.58981898891869500D-02 -6.94604266424583200D-03  2.92440455549261600D-03 -1.31923498609635700D-01
93 19  2.24875167127081400D-04  6.51723967300557400D-04  2.85374517796357700D-04  1.44481692839334500D-03 -3.17623875958607500D-02
93 20 -6.49408946856152000D-02 -5.89400651726438300D-01  3.39623032693110900D-02  7.03034272384462600D-02  6.31964187494835300D-01
93 21 -1.49978799651012400D-02 -3.04351812143871600D-02 -2.78728269993770600D-01 -1.47593223934203600D-06  4.39528234934323200D-05
93 22 -4.24768912543802500D-05  1.53576510871859200D-05 -6.31840448479528000D-06  2.71260071165317200D-04  8.48326017675110400D-04
93 23 -3.05367891242320400D-02  2.96884631065573700D-02 -8.26155702801545900D-03  3.35891903183443800D-03 -1.58443709244561900D-01
93 24 -2.20216961250941200D-04 -6.28791811412408000D-04 -1.20696333407328200D-04 -1.24999366896101100D-03  3.27915998750453400D-02
93 25  6.97340796707813000D-02  6.09044294794844700D-01 -3.50986763145350900D-02 -7.41645736359072400D-02 -6.52332529345451100D-01
93 26  1.55136294327615300D-02  3.32565486448884100D-02  2.88563727529335700D-01 -1.40692567548696200D-06  1.26030736305538900D-04
93 27 -1.24623810629867500D-04  2.79858983928574300D-05 -1.34309088998224300D-05  5.67040718037068300D-04 -3.62911971114542600D-04
93 28 -3.28211939519446800D-02  3.31841059230592700D-02 -8.51460845190369300D-03  3.70018098310606500D-03 -1.63164999396214300D-01
93 29 -3.38921829136187200D-04 -4.49771567026998100D-04 -6.74074270466107700D-03 -1.37291719165433300D-02 -1.21654846505792500D-01
93 30  2.85923738258801800D-04  3.44414408129452800D-04  6.83322395044939400D-03  1.37927827744415100D-02  1.23338542328144400D-01
93 31 -3.84080533217316600D-04 -4.54791747814834800D-04 -6.35729411813701300D-03 -1.37151053696760700D-02 -1.21607214667250100D-01
93 32  4.12076673664267800D-04  4.54530530606848800D-04  6.46393488567441800D-03  1.38008409560057200D-02  1.23333390664918000D-01
94  1  1.21439274243664900D-01  2.48486151681682600D-01 -1.11588665417244600D+00  2.37546477529806400D-02 -1.49909084420960800D-01
94  2  1.48293260750063400D-02  1.25789031918592100D+00  5.35730106564846800D-01 -1.26663627974821300D-01 -4.58635676120425300D-02
94  3  1.09817442387552000D-01 -6.39538747755103000D-02  8.74123001101471000D-02 -1.03126221308035900D-02 -2.94708276567116400D-02
94  4  1.21587387477525700D-01  2.48786389264149600D-01 -1.11616460974509700D+00  1.88633619356212800D-02  1.50129533991542200D-01
94  5 -1.86204654612013200D-02  1.27637514064985200D+00 -5.11877077538015700D-01 -1.02913144229302800D-02 -4.08740156576877700D-02
94  6  1.07448514235542900D-01 -6.65744985778554800D-02 -9.30419753925678900D-02  9.63041110448622500D-03 -1.59462212572094400D-02
94  7  1.21664290705795800D-01  2.48941035069861800D-01 -1.11746294798213300D+00 -1.89776407225085500D-02 -1.50380125251794300D-01
94  8  1.71612230753841400D-02 -1.27571853079875700D+00  5.12716345606653800D-01  1.23965064891281600D-02 -4.09572809487152200D-02
94  9  1.06737923949068000D-01 -6.57806430003523300D-02 -9.33970225881476200D-02  8.08723029873013900D-03 -1.93206098389411700D-02
94 10  1.21325671693147100D-01  2.48223641940782400D-01 -1.11486196509916700D+00 -2.39109169655318200D-02  1.49752544696055800D-01
94 11 -1.62435145716579300D-02 -1.25812938138408500D+00 -5.35088934923893300D-01  1.28946860664200300D-01 -4.59824091852775500D-02
94 12  1.10458598383095800D-01 -6.44761891978183300D-02  8.74288360502192300D-02 -1.21183602559755400D-02 -2.60695649734538000D-02
94 13 -4.42244269898865000D-01 -8.94959996144510700D-01  3.97761810172691700D+00 -5.03149861362594400D-04  3.47400867288743600D-02
94 14 -3.23761126050582300D-03  2.70492796234179900D-02 -1.69727526923890900D+00  1.90733004538372000D-01 -1.91264706518282800D-01
94 15  2.62341725042754300D-01 -7.10770185244720300D-02 -7.37232937833505000D-03  8.01441336844554800D-03 -4.31580039569052500D-02
94 16 -4.42139466172444800D-01 -8.94768140854797900D-01  3.97775035923002600D+00  5.37555478486686700D-04 -3.45883138312655700D-02
94 17  4.52645345745960700D-03 -2.68559788548375200D-02  1.69740683825585100D+00 -1.87556471938215600D-01 -1.91309245620940900D-01
94 18  2.62347408610847700D-01 -7.10381629899060900D-02 -7.40234213982954700D-03  8.13001470955670800D-03 -4.35889016166140000D-02
94 19  4.28567634449312200D-02  1.15972417420611000D-01 -1.85527644890135500D-01 -2.11205188503494300D-01 -4.99323026687439900D-03
94 20  3.06050449668578900D-01 -3.59125833982316500D-02  1.12830352351863900D-02 -6.98508571437358100D-01  7.92174133947133300D-02
94 21  6.25221220530404300D-06 -3.88489518912401500D-03 -6.40540430338873800D-04  9.14332375118818300D-03 -2.20328164546370400D-02
94 22  1.28894927034481900D-02  5.93548417606641600D-04  1.95542527290304500D-04  4.53766862631159800D-03 -7.94573526818095100D-02
94 23  1.60146984711725100D-01 -8.06896320299155500D-02 -4.22587868923247900D-03  1.79892388434901200D-04 -3.17711471641705700D-02
94 24  4.28531531303922700D-02  1.15956048736457300D-01 -1.85318256427460200D-01 -2.11069041465810400D-01  4.73989978159414200D-03
94 25 -3.06386209958559100D-01  3.24490980358690000D-02 -1.10071020479510900D-02  6.98611413857784800D-01 -7.65617073686688500D-02
94 26 -1.02807647383277800D-04  3.58559848533672300D-03 -1.43493444518835100D-03  9.14168784388176000D-03 -2.20214342378374800D-02
94 27  1.28797463939544400D-02  5.94466422977365400D-04  1.93126833490160800D-04  4.57084054088954000D-03 -7.95123919103299100D-02
94 28  1.60370545406927000D-01 -8.08581534965970300D-02 -4.26854752617545000D-03  2.36337314377074700D-04 -3.11363845990670200D-02
94 29 -3.79349282096141100D-01 -3.53951021185479400D-01  7.54013062696412300D-02 -5.24988539598457200D-03 -4.40838860007256100D-03
94 30 -3.79154433965957100D-01 -3.53581172267506400D-01  7.51899737240502700D-02  6.46458633869634100D-03 -5.61040220068152100D-03
94 31 -3.78924701048002300D-01 -3.53548923409178300D-01 -7.52855508601505000D-02 -6.65056762094764200D-03  3.89920230399330100D-03
94 32 -3.79510546543221500D-01 -3.54231134719424400D-01 -7.54999834957255000D-02  5.07514418581593100D-03  2.61940787090957200D-03
95  1  3.25624401035544500D-01  6.79391230967727900D-01 -2.65002303172754500D+00 -2.45358074340752700D-01  4.12151961653632500D-02
95  2  8.52539024224532000D-03  2.97913378125138500D+00  9.52488588386301700D-01 -2.65307419797113800D-01 -1.00381382977239400D-02
95  3  2.63021024628502800D-02 -1.62639641651266600D-02 -1.19182306818669900D-01  1.33735159346919800D-02  5.26478792967472300D-04
95  4 -3.25583166981086100D-01 -6.79318134038108300D-01  2.64875544082009600D+00  2.44112030467207900D-01  4.61147122784096300D-02
95  5 -1.82447481236906500D-02 -3.00680615260508400D+00  8.93972315612033400D-01  5.94895623673267600D-02  1.64043890743505700D-02
95  6 -3.02831364455115000D-02  1.38787473711596100D-02 -1.17810907366292700D-01  1.29471857259212600D-02  1.17006729044603400D-02
95  7 -3.25646723960014200D-01 -6.79432335317169400D-01  2.65075767872344200D+00 -2.44091067825766600D-01 -4.60567530764149800D-02
95  8  1.84224594445243700D-02  3.00657818352482900D+00 -8.95525776243406300D-01 -6.36027105970076700D-02  1.63845350202008700D-02
95  9 -2.99838683762763000D-02  1.35993333560778300D-02 -1.17668493719902900D-01  1.34922522454593000D-02  1.28287291026926900D-02
95 10  3.25721525826420800D-01  6.79577866254437600D-01 -2.65232729205958000D+00  2.45386779026200400D-01 -4.12795050610757600D-02
95 11 -8.66129949393510500D-03 -2.97900736139251900D+00 -9.52644598167513700D-01  2.69813304450384000D-01 -1.00428728093212600D-02
95 12  2.64095740691538300D-02 -1.63667012598328700D-02 -1.19185314509038000D-01  1.27706862835712800D-02  1.42951666905565500D-03
95 13 -1.61151879226437100D-04 -3.25953922883059900D-04  2.20098740897547500D-03  6.81931889838596100D-03  1.87427119979052900D-05
95 14 -3.73954850550302100D-04  3.83319525586861300D-01  3.08493425409522000D-03 -2.10063172558881800D-02  7.19763495503002100D-03
95 15 -4.28503070748278100D-03 -2.91260424754851600D-03 -2.65278903173525100D-01  2.93463849350078800D-02  1.48352342275375000D-02
95 16 -1.64405836894283900D-04 -3.44760190434972800D-04  2.37737289212782500D-03 -6.74944673915495700D-03 -1.70083402237679100D-04
95 17  3.88952751949681100D-04 -3.83421443514811600D-01 -2.36737177820283100D-03  2.08535558359100500D-02  7.21602458077578600D-03
95 18 -4.32547529120615500D-03 -2.89054928957064300D-03 -2.65317339417683200D-01  2.93494136684954900D-02  1.48243038727000700D-02
95 19  1.83175420784537400D-05  4.94334100241511100D-05  2.04565590733437400D-05 -2.63250483511734600D-05  9.70658230059090300D-02
95 20  9.24126602762321000D-04 -5.35110156502783700D-03 -3.40982210283158400D-01 -3.48446763867926000D-03  1.87899862673409300D-02
95 21 -4.84402710399845500D-02 -5.23835891633597200D-04  2.67079851986410800D-03 -3.50023181645725800D-04  2.12510544286486400D-04
95 22  1.37512637357835200D-04  1.29987916953392200D-02 -1.40722073800849200D-03 -7.29157373461231700D-04  1.27644770571399300D-02
95 23 -7.87427376105258500D-03 -4.89020329608770300D-03 -4.69613222684744800D-01  5.16029992349023900D-02  2.63141981493736600D-02
95 24  1.13302433370676900D-05  3.44320492614365400D-05 -1.31051331345783400D-04 -9.60532233613104300D-05 -9.70575140622101900D-02
95 25 -1.06334960622514900D-03  5.40861168446340500D-03  3.40901518995483800D-01  3.56826581805972300D-03 -1.88412344863483600D-02
95 26  4.84475882556839900D-02  4.70142734554378700D-04 -2.63636414827831500D-03 -3.50226449120428200D-04  2.01500088573128600D-04
95 27  1.48726360547055100D-04  1.29984699478656800D-02 -1.46689598068229200D-03 -7.23859579797889900D-04  1.27617723010257600D-02
95 28 -7.75089083597163400D-03 -5.01088146505411200D-03 -4.69453837501652100D-01  5.23039790661555300D-02  2.63168484755505400D-02
95 29  4.92058110224632600D-01  8.48829530527295700D-01 -8.44777671320037200D-02  9.25604955992363800D-02 -6.03473933130472100D-03
95 30 -4.92367184333797200D-01 -8.49250567583909300D-01  8.16274630881610200D-02  9.41980073933866700D-02 -1.47814357325809300D-02
95 31 -4.92495553081936800D-01 -8.49363349865827000D-01 -8.16368502482351000D-02 -9.41650260148794400D-02  1.51781151792201500D-02
95 32  4.92125554562992900D-01  8.48953515321228400D-01  8.44918871684238300D-02 -9.26022252925938500D-02  5.67805832397102300D-03
96  1  2.58873772015675800D-01  5.06221673565117700D-01 -1.32380921357816800D+00 -8.58305993944754000D-02 -2.96550301985985100D-02
96  2  7.64456011674084300D-03  2.29349391544869400D-01 -3.11485414632036900D-01  2.18608488093417700D-02 -2.39657286559081400D-01
96  3 -8.04079433656446100D-02  3.20065229924725400D-01 -9.62709121361131600D-02  4.70440612352585700D-02  5.71518444305817700D-02
96  4  2.59063592896336100D-01  5.06610467936591500D-01 -1.32739566468558000D+00 -8.67526409776653200D-02  2.79307890606519900D-02
96  5  1.25948215671932300D-03  2.20679404412365300D-01  3.14206803430875600D-01 -4.79950775442519700D-02 -2.45052913392294000D-01
96  6 -7.67780322780517200D-02  3.21830945670345400D-01  9.86590113899150600D-02  2.55503113130593900D-02  4.81907013123242800D-02
96  7  2.58902204352285100D-01  5.06309605775528400D-01 -1.32343476823387900D+00  8.66934172301270700D-02 -2.79973821771782500D-02
96  8 -1.81464323338947000D-03 -2.18826005191656500D-01 -3.15909406535911400D-01  4.65717827934468600D-02 -2.45247215589736800D-01
96  9 -7.71267529285799300D-02  3.22373968518316800D-01  9.83210987494598900D-02  2.37126450772997800D-02  4.61935829569561300D-02
96 10  2.59151719936862300D-01  5.06744574760420100D-01 -1.32876866471675600D+00  8.57886702233540100D-02  2.94455150452077700D-02
96 11 -8.23821968812741200D-03 -2.31581290111758700D-01  3.10345421124245100D-01 -2.32606589810843900D-02 -2.39991189455628000D-01
96 12 -8.00026231904603200D-02  3.19993812646088600D-01 -9.64229055000992200D-02  4.51765810186423200D-02  5.90829752817236200D-02
96 13 -1.20119017718504400D-01 -2.74348043870024200D-01  1.22311708688086100D+00  4.36388418220882500D-03 -2.73864323245638000D-01
96 14  3.14310449243291100D-02  8.70607041369681400D-03 -5.27655454688002300D-01  6.23996710341543800D-02 -5.39681996563454200D-02
96 15 -2.36955376882493600D-01  2.90923576538838500D-01  5.79043820527114700D-03  2.13264917562723200D-02  6.95711833572602400D-02
96 16 -1.20207550906114400D-01 -2.74525648302752900D-01  1.22768736317004100D+00 -4.17378624039942000D-03  2.73761586205456300D-01
96 17 -2.95865238116434500D-02 -8.63821060412067400D-03  5.30633464340235600D-01 -5.54676493086645000D-02 -5.40922854137322700D-02
96 18 -2.36866331551509800D-01  2.90958616965241900D-01  5.59170151675701900D-03  2.12832635466458200D-02  6.87203312254655300D-02
96 19  6.96364721564720800D-02  1.92312828348418600D-01  3.87962095921826700D-02  3.59643866391574200D-01 -4.39483210560490300D-03
96 20  2.83990391176672400D-01 -3.00195702071970700D-02 -4.09923203182479000D-04  1.10826378691018700D-02 -3.30071596199623300D-03
96 21 -2.57743089723861200D-03  1.61494087019736900D-01 -1.76192352740822100D-02  1.01486811508578600D-02 -1.42536418710483200D-02
96 22  4.10496072019042100D-03  4.10355354561625600D-04 -4.09833243281688500D-04  2.41716838471953700D-03  2.32607010284229000D-01
96 23  7.17122025279533900D-02 -3.04319212812182300D-01 -1.18272335402750100D-03 -3.36611889264648600D-02 -4.94613048885430200D-02
96 24  6.96329936181995500D-02  1.92344603979109700D-01  3.88594218828855500D-02  3.59801285349501000D-01  4.59319146609513600D-03
96 25 -2.83612170847241400D-01  3.32063455634893900D-02  4.99807150609793900D-05 -1.21932418228183800D-02 -6.66606364782501400D-04
96 26  2.55363305476662700D-03 -1.61487485365620700D-01  1.83634432122410100D-02  1.01565379072491700D-02 -1.42726662615472700D-02
96 27  4.11612835429787000D-03  4.05134053959431900D-04 -4.07273579978338200D-04  2.36203304290508800D-03  2.32391700599962700D-01
96 28  7.20573360025241500D-02 -3.04449036602487000D-01 -9.62648751802129500D-04 -3.37050977760210000D-02 -4.96663294612280200D-02
96 29  4.26386526617659800D-01  1.74282629304125000D-02 -5.32448714668955900D-02 -3.08980215593882700D-02  6.24854518893803500D-03
96 30  4.26203929221987200D-01  1.68667951399842800D-02 -5.40816601281000400D-02  2.98865255031249000D-02 -4.73266207760039100D-04
96 31  4.26203017549481700D-01  1.73037574639954500D-02  5.41518463646862000D-02 -2.98609613097338100D-02  3.46065818097966500D-04
96 32  4.26200585922756200D-01  1.70757113217228700D-02  5.31130337897482900D-02  3.08539126623106800D-02 -6.34627554111751200D-03
97  1 -8.00127788763479700D-04 -1.54956839815261800D-03  5.08910812108182400D-03 -5.05765429594665500D-04 -1.93993327435825500D-03
97  2 -1.87862112724980600D-02 -2.07267357679345700D-02 -3.79914735162194600D-02 -3.38149452487951300D-01  3.06771674250685000D-02
97  3 -3.35605761309745800D-02  2.88340870590601800D-03  2.74464584556838400D-02  3.21284911206754400D-01 -1.71592352787444700D-01
97  4 -6.97479254560140200D-04 -1.34595683359641500D-03  3.50285005676264900D-03 -5.33637087768203000D-04 -2.24104875383574200D-03
97  5 -1.87728890817001600D-02 -1.97582561936099200D-02 -3.84622221253066000D-02 -3.38116773970325100D-01  3.02159493165561400D-02
97  6  3.44146797352338500D-02 -6.46306290517900500D-02  4.44870885822930900D-02  3.13821854572262700D-01  1.73632432683848000D-01
97  7 -8.07562840872430900D-04 -1.56345568071953800D-03  5.22208824712826400D-03 -1.51504350480189500D-03 -1.96436222494760700D-03
97  8 -1.87497850825236900D-02 -1.58220209878449600D-02 -3.81214113357667800D-02 -3.38381173866490400D-01 -2.87577644003997800D-02
97  9 -3.47654335190903500D-02  6.35231979194901800D-02 -4.56589728088174600D-02 -3.13880321206138800D-01 -1.73678878316899000D-01
97 10 -6.78517281167796100D-04 -1.30793229061600400D-03  3.32027564501127500D-03 -1.48535813385941500D-03 -2.25533105074720300D-03
97 11 -1.86782031730706900D-02 -1.65758898681576900D-02 -3.86193414621667100D-02 -3.38319733723649400D-01 -2.92891683710547500D-02
97 12  3.32534352314041600D-02 -3.96426686034932600D-03 -2.62677015391012100D-02 -3.21559465880117200D-01  1.71438980319863400D-01
97 13  4.98477248970929800D-04  1.07892475725912100D-03 -6.80702050821017800D-03  1.54347775154253400D-02  3.35330424534608700D-02
97 14  2.86664765634506000D-01  5.27960054794815800D-02  1.15115389375115000D-01  9.82384102484048600D-01 -1.11422066828191700D-04
97 15  2.42913925502766300D-02 -2.41799704834484200D-02  6.15858478204468900D-03 -2.70578234762805000D-03  1.17051230635008300D-01
97 16  4.66641571996453800D-04  1.01958985659478600D-03 -5.27822978333678600D-03  1.54842895990936700D-02  3.09120667305937100D-02
97 17  2.87035096214124200D-01  5.31096469034339800D-02  1.06299905097290000D-01  9.83500901776520300D-01  2.51907556484946600D-04
97 18 -2.19232478297720100D-02  2.16713402732871700D-02 -6.21914414781555300D-03  2.60783458621070500D-03 -1.17770111528803200D-01
97 19 -1.68558851401704200D-04 -4.85791200939527600D-04 -5.03841374216333800D-04 -1.26158987224868000D-03  2.27798940933617700D-02
97 20  4.57992722477431300D-02  4.22425191615312400D-01 -4.93752667995363000D-02 -1.01426924244933600D-01 -9.15862237762225200D-01
97 21  8.88219040499782400D-04  1.28886283001390600D-03  1.61677112938615200D-02 -4.85904625545245100D-05  3.37116466359981100D-03
97 22 -3.32257420104513500D-03  9.06681767436276000D-04 -3.73630433585338300D-04  1.71685712085390900D-02  5.31306002931614900D-05
97 23 -1.02089920909151800D-01  1.02036790308858700D-01 -2.77189045154520200D-02  1.15823962430972500D-02 -5.24804176454412900D-01
97 24 -1.66802845772081100D-04 -4.81943337204184000D-04 -5.19165768660082100D-04 -1.20193695368026600D-03  2.27193381983616100D-02
97 25  4.90749714896739600D-02  4.22030511097278200D-01 -4.92883515294088500D-02 -1.04356638070819800D-01 -9.15328363282687100D-01
97 26  8.52585576065196400D-04  2.31753449258967400D-03  1.60893948387670500D-02  1.51160851179805500D-06 -3.38576307234395500D-03
97 27  3.38425146383267000D-03 -9.05150868642224100D-04  3.81433583471449000D-04 -1.71552274475806800D-02 -1.49908035945367700D-03
97 28  1.04531211044284900D-01 -1.03032130684831300D-01  2.76447523732837000D-02 -1.14961637859434900D-02  5.24182950567234000D-01
97 29 -1.16554250431085000D-03  9.22469202520353500D-04  5.57578654872903500D-03  1.11923546045342400D-02  1.01038146202879200D-01
97 30 -1.23417264003851300D-03  7.45815273415554200D-04  5.59123614443738400D-03  1.15339903141220100D-02  1.00941558878160200D-01
97 31 -1.16963659957253800D-03  9.57844872062223300D-04  5.31541467111911300D-03  1.11759962609633200D-02  1.01064749150052400D-01
97 32 -1.24130349178120800D-03  6.92906267709159800D-04  5.28354351893513900D-03  1.15099842582780700D-02  1.01034774363494200D-01
98  1  4.06628826107473500D-04  7.48132962041626700D-04 -1.06550901678605000D-02 -8.68834058712241400D-04 -1.73409259704718800D-03
98  2 -1.60639165114465100D-02  5.29500010170515000D-02  1.01848918783390900D-01  8.69599563363618100D-01 -2.58582055050373500D-02
98  3 -3.55280543755517700D-03  2.94110109425923500D-02 -3.25533359654573900D-02 -2.80169476876849500D-01 -1.64167003130915000D-02
98  4 -5.18254603580093800D-04 -9.66013546043157100D-04  1.14826645738149000D-02  9.28235843715253600D-04  1.92033416181630500D-03
98  5  1.60308697647637300D-02 -5.35266462671610700D-02 -9.40052651484493500D-02 -8.70312717389968100D-01  2.61771861335837600D-02
98  6 -2.64950601904793300D-03 -2.35276801145360600D-02  3.09490457666149300D-02  2.80773560606543000D-01 -1.43881250039008100D-02
98  7  4.38555507509735300D-04  8.14347660904165800D-04 -1.08058113873434500D-02 -8.01551891622330500D-04 -1.63385846129693600D-03
98  8 -1.59889025312112100D-02  4.06715377138068200D-02  1.01431406386867800D-01  8.70697307723334900D-01  2.64582730315534000D-02
98  9 -2.44155693143146500D-03 -2.40167161001218700D-02  3.08789379509272100D-02  2.80852133457626400D-01 -1.46868679428295600D-02
98 10 -4.65036415523372700D-04 -8.57090903299564200D-04  1.11888626992099900D-02  8.61983906070462000D-04  1.81711742229006900D-03
98 11  1.59844501065943400D-02 -4.04851752935831500D-02 -9.37440957702248000D-02 -8.71630738304904700D-01 -2.65373337633219000D-02
98 12 -3.64411401753892700D-03  3.01814477808607800D-02 -3.25619501591553100D-02 -2.80110509714485600D-01 -1.65573791266455000D-02
98 13  1.44928576737445500D-04  3.98676897104164500D-04  1.08680001461782900D-02 -1.16378451000824300D-02 -2.33446462916328800D-02
98 14 -2.14576976406313700D-01 -6.90353806695896700D-02 -1.51963109536619800D-01 -1.28402525962225700D+00  2.92911036474803600D-04
98 15 -3.24307827887828400D-02  3.21378717523080900D-02 -8.67843295012271600D-03  3.78358493133487400D-03 -1.64339254757489500D-01
98 16  5.22362810395947400D-06 -9.53046028547181900D-05 -1.19767930421785300D-02  1.14812313555364400D-02  2.48164505438340100D-02
98 17  2.14483989570372800D-01  6.95336050502813700D-02  1.35941122999837000D-01  1.28589564305768400D+00  2.09781621949803000D-04
98 18 -3.22887748032693200D-02  3.20789931813195000D-02 -8.66789841970046400D-03  3.54781880854068700D-03 -1.64445762179214700D-01
98 19  5.52485990678006300D-05  2.22113076082716000D-04 -5.96157529259764400D-05 -9.68241099488409600D-04  2.06318861260486000D-02
98 20  4.26688006874292500D-02  3.81215842375118200D-01 -5.06350758329557500D-02 -1.02806310006830300D-01 -9.36136804554114500D-01
98 21  1.17576261527090000D-03  2.22881057115827200D-03  2.21386685925508200D-02  3.29772315590274900D-05  2.35034223240204400D-03
98 22 -2.38331946396104500D-03  6.63616009739093200D-04 -2.76760473109328500D-04  1.25794575151303600D-02  1.38138582899468900D-04
98 23 -9.97469066366356300D-02  9.96087680537361300D-02 -2.74766986558792200D-02  1.14257653392638700D-02 -5.19097061971307300D-01
98 24 -7.90015163950121300D-05 -2.89045346809146600D-04  1.50418674553165700D-05  7.73990804759461900D-04 -2.04613742522498600D-02
98 25 -4.28787088385165900D-02 -3.81178748542547200D-01  5.02474897605816600D-02  1.07345358080206700D-01  9.35453690781830600D-01
98 26 -1.21617781730041700D-03 -2.67566406569585800D-03 -2.21280599940810600D-02 -7.26449013486322100D-05  2.59910313936622100D-03
98 27 -2.52645823801716600D-03  6.62089448184637100D-04 -2.74744465720759400D-04  1.25291206103792700D-02  1.38818383995362300D-03
98 28 -1.04529774814589000D-01  1.03141590974635300D-01 -2.72645636981427600D-02  1.14266406770466800D-02 -5.17872899250979500D-01
98 29 -7.26486940631489900D-04 -1.90858991999717400D-03 -1.53996915507036000D-02 -3.22527708263494500D-02 -2.86692477522612100D-01
98 30  8.39383094690374500D-04  2.03370157367458300D-03  1.54239581276356100D-02  3.21066059819876600D-02  2.86675465099042500D-01
98 31 -8.68669195061861400D-04 -1.91228394883936900D-03 -1.54597511837150900D-02 -3.22677604722811300D-02 -2.86469936106165100D-01
98 32  6.91941408872178100D-04  2.01962306696915400D-03  1.54949993300804300D-02  3.21007342031679500D-02  2.86436468989513500D-01
99  1  9.69897264017990900D-03  1.27885689280893600D-02 -3.31899963580122400D-01  9.82076197073905900D-02 -2.03301128195267600D-01
99  2  1.78267258764224800D-02 -5.98422689268706000D-02  3.27438535774813700D-01 -3.33803404449164600D-02  3.17535582052805600D-01
99  3 -2.08227569866378200D-01 -1.09308012186427200D-01 -1.52479118213549200D-01 -9.12484206193115600D-03  2.10400054995818100D-02
99  4  9.68993081509148500D-03  1.27285033279425500D-02 -3.33156306123554600D-01  9.19281700661355600D-02  2.05300699207156400D-01
99  5 -2.78552788949681000D-02 -4.92136771572571200D-02 -3.29998333478463500D-01  3.99039869336982200D-02  3.08945284424202700D-01
99  6 -2.02871431705002600D-01 -1.06073852719200300D-01  1.65473353611898000D-01 -4.43763580815624600D-02  3.42147095538066700D-03
99  7 -9.74968445128426700D-03 -1.28446327392941800D-02  3.33599606588062000D-01  9.18417555584688200D-02  2.05161046126552000D-01
99  8 -2.82686173601082600D-02 -4.90915932928316400D-02 -3.29216745180421800D-01  3.90519090409618900D-02 -3.08909384962802800D-01
99  9  2.02947261520277600D-01  1.05962123442525200D-01 -1.65308646184484400D-01  4.45515068106758700D-02 -3.22639701432677800D-03
99 10 -9.71558735415590700D-03 -1.28152152496371900D-02  3.31651335775166000D-01  9.81020973011227900D-02 -2.03274218390337100D-01
99 11  1.73750934292700700D-02 -6.03325201893620300D-02  3.27631549828463000D-01 -3.33429034595344000D-02 -3.17550806106169700D-01
99 12  2.08232396864390100D-01  1.09318409241778900D-01  1.52563115351513800D-01  9.60127706236268300D-03 -2.12534661563513400D-02
99 13 -1.33387564205109700D-05 -2.22836442830660100D-05 -3.91207164289026500D-04 -3.41777372711471400D-01 -3.32157983209976200D-03
99 14  1.88428817979570100D-02  1.25770541114447200D+00  1.23493658171424200D-02 -6.88540913312351400D-02  2.64068107222793400D-03
99 15 -1.69923120373352300D-03 -9.41449868494503700D-04 -1.00111498217612600D-01  1.03263724038857000D-02  5.66045862182571000D-03
99 16 -3.29060597709718500D-05 -9.34292439373619000D-05  7.13700179197883400D-04 -3.41761768335969800D-01 -3.36622179080555500D-03
99 17  1.87439662661251400D-02  1.25677130341444300D+00  1.27107528589937600D-02 -6.94440766689452400D-02 -2.68406382817575900D-03
99 18  1.78920393030943500D-03  8.94859897866385100D-04  9.98782999044592500D-02 -1.15249550429803000D-02 -5.60116722893946700D-03
99 19 -6.43038626875862000D-06 -1.39348039035958400D-05  6.04215868366106500D-05 -1.65708491914693800D-04  4.04423922794802300D-01
99 20  3.94854863023196900D-03 -2.23207469631583700D-02 -8.22892760374381700D-01 -8.14966541564912100D-03  4.54717274311835500D-02
99 21 -8.24737918478827000D-02 -8.65748104957373000D-04  4.53770646339451500D-03  3.09091524510333000D-04 -1.94425776941500800D-04
99 22 -1.14665747567983400D-04 -1.11314205437589900D-02  1.20363057614237400D-03  6.21579690150502600D-04  5.90755329899810300D-03
99 23 -3.71052756322187500D-03 -2.19702573577538500D-03 -2.20063624366145600D-01  2.41906160342923100D-02  1.24805032084039100D-02
99 24 -2.33791216240260100D-07  3.03489930251591800D-06  1.99355211057496800D-05  1.86622180071761000D-05  4.04421425353483900D-01
99 25  3.86338992512848300D-03 -2.21392500260556300D-02 -8.22946921691487200D-01 -7.97158538612595600D-03  4.50184669288362100D-02
99 26 -8.24519282163734400D-02 -8.16135958077982700D-04  4.53768059518044300D-03 -3.04903811172831000D-04  1.82552167292235400D-04
99 27  1.22351643880657400D-04  1.11172273913218600D-02 -1.26106760782801200D-03 -6.26484840352375100D-04 -5.98821273559501900D-03
99 28  3.71265501671785500D-03  2.27555771887715800D-03  2.20014236096706900D-01 -2.44242158124274800D-02 -1.22155323543654400D-02
99 29  1.02907141468023100D-01 -2.70620059534053800D-02  7.67188086517592000D-02  1.10378395000774300D-01 -1.60574435312771000D-02
99 30  1.02786360383229700D-01 -2.72637974211793100D-02  8.01440173717663100D-02 -1.08828626334047300D-01  8.02973615891657300D-03
99 31 -1.02842482560959500D-01  2.72140840417090200D-02  8.01119646509788200D-02 -1.08854709909930800D-01  7.57445688318220800D-03
99 32 -1.03014662969382700D-01  2.69879832939833700D-02  7.66890369681411900D-02  1.10384348411282300D-01 -1.67945600249077300D-02
 0  1  4.00460881866596700D-04  7.59942599829974000D-04 -8.54040228339742100D-03 -9.26637570721480400D-03 -2.03552349016949900D-02
 0  2 -1.77493896395366600D-01 -2.16793232924517000D-02 -5.17078569605699200D-02 -4.74670009611769800D-01  8.42048275061387100D-03
 0  3  5.91463490962893200D-02 -6.75668318469036100D-02  2.58029674635956700D-02  8.45473600755363800D-02  3.00984886600017200D-01
 0  4 -3.89765169930303400D-04 -7.43901717429728400D-04  8.23317482172289600D-03  9.36494352138749600D-03  1.96539519717695900D-02
 0  5  1.77584415379546100D-01  2.15709765585565300D-02  5.45778156361705600D-02  4.74304595826560300D-01 -9.10426094211382200D-03
 0  6  5.91873743966688800D-02 -5.00831134545550100D-02  5.32447247014486000D-03 -9.76907619781418900D-02  3.00236271448215900D-01
 0  7 -3.74052288758564700D-04 -7.13121830026113300D-04  7.57174708168422700D-03  9.83720398109485900D-03  2.03776015289388500D-02
 0  8  1.77500299527647800D-01  2.89426117235458900D-02  5.20074670337788700D-02  4.73726866743083200D-01  8.64843236613734900D-03
 0  9 -5.87864469696827500D-02  5.01380146035457200D-02 -5.97964238918292400D-03  9.75343032016256100D-02 -3.00308039739587600D-01
 0 10  3.28920394527237600D-04  6.24576910570095900D-04 -7.37513919318903600D-03 -9.81402822462187900D-03 -1.96633339049941600D-02
 0 11 -1.77575060902018300D-01 -2.90661751106575700D-02 -5.42783471358614200D-02 -4.73517118009925200D-01 -7.93296870156214200D-03
 0 12 -5.95137440667903700D-02  6.74467127683526500D-02 -2.63857697888813700D-02 -8.43892844455105300D-02 -3.00931707865711700D-01
 0 13 -3.69246204217078700D-05 -6.99006675657270700D-05  5.66011318184314500D-04  1.03657929688870500D-04  4.58486222917087800D-05
 0 14  1.62939986657414000D-04  6.47246544172573800D-03 -1.22001484685411300D-04  2.54616258729599300D-04  4.32503365586034300D-02
 0 15  9.42760020387264500D-04 -4.41930965789906200D-02  5.26676618533311700D-02  4.62053186167555600D-01  1.78838902839161800D-03
 0 16  4.90409435251133300D-07  3.15579498819226400D-06 -3.04497598151699900D-04 -3.91451242265504000D-04  7.30924366934299300D-06
 0 17  6.43501269790110000D-05 -5.68071505205767100D-03 -2.69170997985339000D-04  2.03996583019324100D-04 -4.32702778939265100D-02
 0 18 -8.83753457477035000D-04  4.41540313514036100D-02 -5.18661803862728700D-02 -4.62288363299548300D-01 -1.80494086528262500D-03
 0 19 -7.75133037523807500D-07 -1.77495165242246400D-06 -2.91654618473608300D-05 -2.42381301761375400D-05 -1.11674413943435700D-03
 0 20 -2.67630533612319900D-05  3.19267104869697100D-05  2.63373006433950100D-03  4.87667627820833700D-05 -1.59573062227933200D-04
 0 21  2.40758682568075100D-04 -1.06451181805801700D-05 -3.44284533652566900D-05 -7.99265430884504500D-04 -1.69473554571682800D-05
 0 22  8.16212786341584400D-04 -9.60730666814969700D-04 -8.54603080162881300D-03 -2.76946607944911800D-05  1.22661359770881300D-02
 0 23  2.56887730090386800D-04 -1.25230237071785600D-02  1.55599150102238400D-02  1.31342388638286200D-01  3.33877926195914800D-04
 0 24  2.38218567874958000D-06  4.75420649804060900D-06 -1.85418710152944700D-05 -4.64253262541386000D-06  1.33902578639887300D-03
 0 25  3.96263617476789300D-05  8.79949913740472200D-05 -3.09878516476524900D-03 -4.65679339042077800D-05 -3.36823315893169600D-04
 0 26 -3.02466234738877400D-04  4.79181816287769500D-06  3.82805111303393500D-06  7.98229069175591200D-04  1.42249112730777000D-05
 0 27 -8.12453980448649800D-04  9.80721158783090800D-04  8.53596773834555200D-03  1.72358299934165700D-05 -1.23215901336904300D-02
 0 28 -1.67603990383345800D-04  1.24891941240737600D-02 -1.40627493381067200D-02 -1.31434225986314200D-01 -1.27996692878727300D-04
 0 29  3.04537844340287000D-04  5.55547856066168800D-04 -1.73352464280912500D-02 -3.56555043584455000D-02 -3.17918909957385300D-01
 0 30 -3.42384796201650000D-04 -5.89002784573442300D-04  1.74282500665154800D-02  3.56546665760953300D-02  3.17629315840915200D-01
 0 31 -3.71228901362432900D-04 -6.71006063387728600D-04  1.68874156279823600D-02  3.56507098289121500D-02  3.17925652756870300D-01
 0 32  3.61756380744058400D-04  7.21900398003933000D-04 -1.68537970984032300D-02 -3.57151803418153900D-02 -3.18074297960719500D-01
 1  1 -1.21507554846346100D-01 -2.43332134128600900D-01  5.74995347558584700D-01  6.42551234111530000D-02 -3.73964491264381900D-02
 1  2  6.81278069946942600D-04 -3.43680795518546400D-01  4.00060227336777000D-01 -2.70801657351229500D-02  6.61775315956036300D-02
 1  3  5.47700056744942600D-02 -1.20947537270097900D-01 -3.31463179719306700D-01  2.58432141419404600D-02 -5.47496111820224200D-03
 1  4 -1.21680756548287700D-01 -2.43744625693732300D-01  5.75680255990927200D-01  6.32286169936577100D-02  3.85628862160187400D-02
 1  5 -7.83434623250064300D-03 -3.31410691590434500D-01 -4.07622296882186600D-01  6.28973549356981900D-02  4.83096515448415600D-02
 1  6  6.59816764849258200D-02 -1.14291328029767700D-01  3.28952985519379300D-01 -4.72525101257046000D-02 -4.13235235129036100D-02
 1  7 -1.21596276281863800D-01 -2.43579162891305100D-01  5.72252791490968000D-01 -6.33133584916312200D-02 -3.87033455182292000D-02
 1  8  7.68937337227665400D-03  3.29695666287104200D-01  4.06936772325619400D-01 -6.41292134881793100D-02  4.83691421054736800D-02
 1  9  6.57671934203945300D-02 -1.14136335525868400D-01  3.28661491569923700D-01 -4.76261727628299500D-02 -4.25000745753723200D-02
 1 10 -1.21695428519984600D-01 -2.43743751051541000D-01  5.74345736006595300D-01 -6.44426825272744800D-02  3.74937346619858900D-02
 1 11 -8.19720193150269000D-04  3.43455374206045800D-01 -3.99161721076559400D-01  2.55705961074037400D-02  6.62531892400928500D-02
 1 12  5.50770097752912900D-02 -1.21330199015383900D-01 -3.31126311991465100D-01  2.53559426629137100D-02 -4.34423539170726700D-03
 1 13 -2.49485935357784300D-01 -5.99973268250037700D-01 -3.58760952156813300D-01 -2.08799839582488000D-03  1.20191395413171000D-01
 1 14 -1.39965975030247000D-02  1.13268053990579000D-03 -1.61438632829375200D-01  1.80093414328140800D-02  2.44264778933142200D-01
 1 15 -6.08395024055854500D-02 -1.83425276527556400D-01  2.44369473350227500D-03 -2.70615904181606800D-02 -1.77533779137469400D-02
 1 16 -2.49323758850860400D-01 -5.99677953425540300D-01 -3.60004657015908500D-01  1.74710310948754600D-03 -1.20559816877840800D-01
 1 17  1.28234571973224100D-02 -4.62270037036175800D-03  1.60899176553736600D-01 -1.78326471282439500D-02  2.44300394793187800D-01
 1 18 -6.02126948545116000D-02 -1.84087699938676400D-01  2.62309084348339100D-03 -2.71397887318447500D-02 -1.51453772676385000D-02
 1 19 -5.98118373855541800D-02 -1.15698130383599700D-01  4.40130635192754200D-01 -4.01473297868227600D-01 -3.55102044853887600D-03
 1 20  2.14807102116499200D-01 -2.36365315106043200D-02  3.19309465663782500D-03 -1.62185761557841800D-01  1.86299273839450000D-02
 1 21  2.37691629398324800D-03 -1.51567797195623100D-01  1.67230699030748700D-02  1.02935894302114300D-02 -1.12338280563185000D-02
 1 22  9.40238626107147000D-04  3.13426286385636300D-04 -6.09905910472379200D-04  1.50931533306218700D-03 -2.07562143963675600D-01
 1 23  3.66372564259588300D-02  1.70924887537716300D-01 -1.46417166988305200D-03  2.38889076734517900D-02  1.86563343974490700D-02
 1 24 -5.98001429236302600D-02 -1.15651210759975300D-01  4.40173827431211600D-01 -4.01269640193976800D-01  3.08061469618774900D-03
 1 25 -2.14830204153681400D-01  2.42515560865074700D-02 -1.77329462458531100D-03  1.62214065063882300D-01 -1.75712874601215300D-02
 1 26 -2.37980122330739900D-03  1.51424828198837000D-01 -1.70603275805865600D-02  1.03031437744706400D-02 -1.12294128969095300D-02
 1 27  9.26269122439070700D-04  3.22784234206773100D-04 -6.11846574526454500D-04  1.64132659862059000D-03 -2.07554530557366700D-01
 1 28  3.65344534690719100D-02  1.71020077088294500D-01 -2.12883330765685200D-03  2.39777953248179400D-02  1.71933528396939600D-02
 1 29  1.09054495051324300D-01 -1.16130637296221000D-02 -2.00960736254759800D-01 -4.29841857636201000D-02  1.65207270106968500D-02
 1 30  1.09234210013273500D-01 -1.10836534627592000D-02 -2.02261056712752200D-01  3.92895458635716700D-02  7.40661178213516000D-03
 1 31  1.09463661402351700D-01 -1.11724238147948800D-02  2.02518583648610100D-01 -3.91956994922729400D-02 -5.65077281301401300D-03
 1 32  1.09244028861943800D-01 -1.12539302465580100D-02  2.01224963271821500D-01  4.33681954961111700D-02 -1.47893030513551800D-02
 2  1  1.78020741795934700D-01  3.72751827343770700D-01 -6.98871891657297000D-01 -1.40447961274467800D-01  6.49692214645431200D-02
 2  2  4.49641532282787200D-06 -2.72291483344663700D-02 -2.46374656308811500D-01  2.91842403733801700D-02 -2.31959660530666600D-01
 2  3  6.09778714315660300D-03  2.25861873387510400D-01 -2.77816980883704700D-01  5.97920888193164000D-02  4.39716729815807500D-02
 2  4  1.78242555072514600D-01  3.73092099570334600D-01 -7.06050141724913600D-01 -1.38159224317091600D-01 -6.76892584179663600D-02
 2  5  1.47550637899714800D-02 -3.22283215696325000D-02  2.43556871267633000D-01 -2.56636150429526800D-02 -2.46831621080919900D-01
 2  6  1.53213272950946400D-02  2.31510293785825600D-01  2.75436995533927300D-01 -1.35845679005455300D-03  1.36939491155849300D-02
 2  7 -1.78107711314656000D-01 -3.72883834588225800D-01  7.04366503387675400D-01 -1.38061324258903400D-01 -6.75744182673751600D-02
 2  8  1.53118327904072900D-02 -3.21750494907955500D-02  2.43970557813790600D-01 -2.56769339984369200D-02  2.47117919692119700D-01
 2  9 -1.56814146681698900D-02 -2.31436505023950000D-01 -2.75564048763401100D-01  7.94626717173453100D-04 -1.28730222979838000D-02
 2 10 -1.77785733381336700D-01 -3.72189225041167800D-01  7.01254012189140300D-01 -1.40084204987753800D-01  6.51694820351279300D-02
 2 11  5.50250956342492600D-04 -2.61534714038919700D-02 -2.46077425634166500D-01  2.90881040658566300D-02  2.31919631789774400D-01
 2 12 -6.43610633345831600D-03 -2.25483525456316500D-01  2.77803874766097900D-01 -6.04664881993614700D-02 -4.47179287220547800D-02
 2 13  4.09685611524436000D-04  7.95516376932625400D-04 -3.25112349078451500D-03 -2.98469973327359800D-01 -2.76909381633612600D-03
 2 14  1.63580882668989000D-02  3.67168779592972800D-01  5.02085129827921900D-03 -2.04324758256433600D-02  4.55618017051560800D-05
 2 15 -1.96094375163056300D-04  1.50532573457475100D-04 -9.20226613313158800D-03  1.49075907757028900D-03  5.03951766262949000D-04
 2 16 -1.61797991198292500D-04 -2.86758180771681100D-04  1.29106557927927700D-03 -2.98456149236151300D-01 -2.76778571976977700D-03
 2 17  1.64779165945794900D-02  3.68977256116538800D-01  3.91583379577693600D-03 -2.01834411938519400D-02 -4.01313605840026500D-04
 2 18  1.79487325487320300D-04  2.21826280352840500D-04  9.51020877884165500D-03 -5.17952523281623100D-04 -6.95447328452260800D-04
 2 19  8.54374129884562300D-05  2.02274547742668800D-04 -3.88550331151703500D-04  1.35996780705268500D-04 -5.43484645568997800D-02
 2 20 -6.27527434297260700D-04  3.02724340202766100D-03  9.96088656065895300D-02  1.09798047261223000D-03 -5.67711992941664800D-03
 2 21  1.01112530643237200D-01  1.00484887669440700D-03 -5.57746433500928200D-03  2.07853726876022500D-04 -1.30350320286051200D-04
 2 22 -7.75034065898780900D-05 -7.21279203359992000D-03  8.31685276183188700D-04  4.14165611061884500D-04 -5.24879357203835100D-03
 2 23  3.41681940285451500D-03  1.83197416918460900D-03  1.90976427140874500D-01 -2.08127409447189900D-02 -1.09471243108125800D-02
 2 24 -9.80542927173685900D-06 -4.78831468745111400D-05 -1.02313030453459500D-04  1.06860668381281300D-05 -5.47121578732852500D-02
 2 25 -4.30385898387064900D-04  2.97737835447626000D-03  1.00401416482353200D-01  8.87850479898026100D-04 -5.42484050616226200D-03
 2 26  1.01200563860527700D-01  9.22336096947790000D-04 -5.55143466594023400D-03 -2.08225006563552300D-04  1.43257670887464100D-04
 2 27  6.49673356756686500D-05  7.20538583307650200D-03 -7.62568981410879000D-04 -4.04384118462138900D-04  5.44894143569804900D-03
 2 28 -3.38036317810875800D-03 -2.06857825758929100D-03 -1.91110633847415500D-01  2.14660755863920400D-02  1.06631084194528800D-02
 2 29 -4.47731120049560000D-01  7.15398018572636100D-02  2.41411632864051300D-01  5.89534276403525400D-02 -2.01824444317132800D-02
 2 30 -4.47856055396923100D-01  7.09692445411837200D-02  2.43131152594420900D-01 -5.43388235875371700D-02 -7.64168138640077900D-03
 2 31  4.47931432132296100D-01 -7.06123921255054800D-02  2.43154066826222600D-01 -5.42913718672583100D-02 -6.50251486514286700D-03
 2 32  4.47702506075167800D-01 -7.12845312221444800D-02  2.41368536453426300D-01  5.93110486502052000D-02 -1.91300732080021000D-02
 3  1  5.68622548195639100D-04  1.32853535932533600D-03 -5.93675300613061400D-04  6.16638656987376800D-03  1.37802846096481700D-02
 3  2  1.25586669455339000D-01  4.26217214769366000D-03  1.43446970637089700D-02  7.66433092481622200D-02  1.06638860078160500D-02
 3  3  3.54297362030253200D-02 -4.60936222108413500D-02  2.00052643007440700D-02  9.66390382603867600D-02  1.87048016701707000D-01
 3  4  1.53410352334235500D-04  5.94752333272881700D-04  9.99855103498829800D-03  6.12532031336199800D-03  1.44803108622518800D-02
 3  5  1.25251939864380800D-01 -7.76860505268633600D-04  5.31420243372743700D-03  7.74300301420558900D-02  1.09179863233228700D-02
 3  6 -3.78247831114591200D-02  2.69067967881362500D-02  2.79097822502157900D-03  1.04498508474728500D-01 -1.86135373585535200D-01
 3  7  5.29910281089134800D-04  1.34415574989598000D-03  4.72965705425832300D-03  7.49309549984257400D-03  1.37509283109029700D-02
 3  8  1.25326511691218600D-01  5.90770150279839300D-03  1.57711372381525600D-02  7.61287549957217900D-02 -8.32270708343097600D-03
 3  9  3.51445212583812500D-02 -2.68218141749501800D-02 -1.65194208027125500D-04 -1.05465416645467400D-01  1.86383452596718900D-01
 3 10  1.08542878995334500D-04  4.81689368536719800D-04  1.02385491032751400D-02  7.31470619467757200D-03  1.44007249795247100D-02
 3 11  1.25354757346734100D-01  8.86587035812597500D-03  4.45624408175170900D-03  7.72945541806067700D-02 -7.56208568893714700D-03
 3 12 -3.85122027557486300D-02  4.60742884446855200D-02 -2.25219245602098000D-02 -9.68533600019798300D-02 -1.86459782354266600D-01
 3 13  1.04024443484066200D-03  1.36655302273502700D-03 -8.75873974754774700D-03  1.10810577648581900D-02  2.57875511051138400D-02
 3 14  2.03604127053254600D-01  1.63105986328570400D-02  2.48373097353121400D-02  2.36464360340859000D-01 -1.95940417748907100D-03
 3 15  1.17318160531456000D-01 -1.15358756353966900D-01  3.09868985794929600D-02 -1.33226223758174100D-02  5.88178874115940300D-01
 3 16  1.46504415179436200D-03  2.18545630880693900D-03 -1.64511855131320100D-02  1.11354914408999100D-02  2.01148521512795200D-02
 3 17  2.03901946413649600D-01  1.31646567665426000D-02  2.46614401747174100D-02  2.36199221883841200D-01 -9.59259214832254600D-05
 3 18 -1.14431182303155600D-01  1.14527108224638900D-01 -3.11978279082418700D-02  1.29107919094728500D-02 -5.87640206460289600D-01
 3 19 -4.41082589906925600D-04 -1.09837875003385000D-03  3.02787293993809100D-03 -1.80393292675519700D-03  1.51366399458959100D-03
 3 20  3.50469987284348200D-03  2.77927399010968100D-02 -2.45338180940786700D-02 -5.14612093738526600D-02 -4.52295607954387100D-01
 3 21 -2.44391408381178500D-03 -5.53478741882660800D-03 -4.66123864317465300D-02 -1.64592675262014800D-04  4.53997681662500100D-03
 3 22 -4.37538414136287600D-03  1.18015540934581300D-03 -4.92771254113558500D-04  2.22921014053254000D-02  1.17546483637706700D-03
 3 23 -1.02387045730034200D-01  1.01211580893657300D-01 -2.74860056077782800D-02  1.14958035945520600D-02 -5.18182636293141200D-01
 3 24 -3.76866805831065200D-04 -9.48536599062375400D-04  2.90296153346966100D-03 -1.64999246837205700D-03  1.94350408997400800D-03
 3 25  2.74926476857601200D-03  2.80109844505465900D-02 -2.57033411201457500D-02 -4.97977259767127600D-02 -4.53258754372891700D-01
 3 26 -2.55106155749762300D-03 -4.94519820839637500D-03 -4.67254862292593700D-02 -1.00682483883064300D-04 -4.26156241722776800D-03
 3 27  4.36224490111094500D-03 -1.18693486647613300D-03  4.90896016706958000D-04 -2.23867502138813000D-02 -3.56080353395588800D-04
 3 28  1.01914822579191500D-01 -1.01558742225795800D-01  2.79435615893215100D-02 -1.14064274430762600D-02  5.19109978112657200D-01
 3 29 -9.67223635901271100D-04 -2.40495790393905000D-04 -2.42274458808036800D-02 -4.91392440785658300D-02 -4.25421652427998000D-01
 3 30 -7.60048371484288100D-04  6.70619478504827700D-04 -2.43249525443161000D-02 -4.65562399790674700D-02 -4.25524608366778300D-01
 3 31 -8.99223679289098100D-04 -4.52753601371417300D-04 -2.17078760614879900D-02 -4.89942268783702800D-02 -4.25366475967779800D-01
 3 32 -4.53653363423053800D-04  6.98249795054958400D-04 -2.16235626641301200D-02 -4.66409386736688900D-02 -4.24984968612789600D-01
 4  1 -8.16817215176409700D-02 -1.27668071203888400D-01  3.34921645145013200D+00 -1.17611579636681900D-02  2.96943296046264400D-02
 4  2 -2.44956082270479700D-03 -1.00942682397389700D+00  1.44432327132903000D+00 -1.09150427781738500D-01  2.30216394856960200D-01
 4  3 -1.74953434130392700D-01 -5.52629607265677300D-02 -3.80497408432729500D-02 -1.38706385742604000D-02  1.81530501285919100D-02
 4  4 -8.10518538770383500D-02 -1.26546851481316400D-01  3.33292764541206100D+00 -1.08148998194407800D-02 -3.00144964456245700D-02
 4  5  4.13404898729989100D-03 -9.56366274148169000D-01 -1.46733331079436200D+00  2.15113532465665100D-01  2.28157829928708000D-01
 4  6 -1.73964279243051900D-01 -5.41935506856563300D-02  4.87395387452884800D-02 -2.35917575317399800D-02  1.24134265228711100D-02
 4  7  8.07400321618542600D-02  1.25619239298184500D-01 -3.34259979251336200D+00 -1.15606031880340300D-02 -2.95506177945825900D-02
 4  8  3.83709755610406100D-03 -9.60641322643877600D-01 -1.47180232139060400D+00  2.18522083823299500D-01 -2.29921036122396000D-01
 4  9  1.75219857133321300D-01  5.47011789890749200D-02 -4.96014525745657400D-02  2.26670386234488100D-02 -1.33303860062135400D-02
 4 10  8.12165927702886100D-02  1.26555514284192800D-01 -3.35150146467697500D+00 -1.22939125516328500D-02  2.92318379231853800D-02
 4 11 -2.72812509085540000D-03 -1.01013859489974900D+00  1.44924417662544500D+00 -1.07109217551715000D-01 -2.32215646916433200D-01
 4 12  1.76816421884137100D-01  5.53992250322986500D-02  3.85436927333614300D-02  1.29138314409803200D-02 -1.76994650512802100D-02
 4 13  3.27664453119366200D-04  8.74149864213391000D-04 -1.22939197265333800D-03 -2.24307461533072100D-01 -3.10250329301090200D-03
 4 14  1.25871809883126000D-02 -4.64710082872843800D+00 -4.32516230725936900D-02  2.55436483089228200D-01  6.03256719479459100D-03
 4 15 -3.54739526233478200D-03 -2.48517193245782400D-03 -1.96079670649140100D-01  2.01979743931853200D-02  1.13439693120064300D-02
 4 16 -3.58000267211834400D-04 -4.93395317636048000D-04  1.10653845602847900D-02 -2.24281886902827400D-01 -1.31865060975652300D-03
 4 17  1.22674555464979900D-02 -4.64364025869830200D+00 -4.08001792736067500D-02  2.54854625818192700D-01 -4.84711166387191100D-03
 4 18  3.06573092244267800D-03  1.78138074142854900D-03  1.95977709589525200D-01 -2.30653187971620100D-02 -1.11715480150679600D-02
 4 19 -3.33399890999548200D-07  4.23919116664929000D-05  2.92834409433686300D-04  8.41207805326450200D-04 -5.05778768306606100D-01
 4 20 -4.58537434956298200D-03  2.77766994323467500D-02  1.63257161833612500D+00  1.56616302269323800D-02 -8.98304899022322100D-02
 4 21 -6.25406133393275300D-02 -3.34573146284821500D-04  3.40251314212693500D-03  2.43785472631565600D-04 -1.93779059716703000D-04
 4 22 -5.00064129170769100D-05 -8.00939024163120800D-03  8.26302311380628900D-04  4.62431669270469000D-04 -2.02008433551257200D-02
 4 23  1.25515993973567200D-02  7.64924395776482600D-03  7.44805703844618500D-01 -8.07588249670579400D-02 -4.18786747355802800D-02
 4 24 -1.09422313027859000D-04 -2.27777255808132300D-04  3.45778892210891700D-04  7.00998935412984100D-04 -5.06125894666405000D-01
 4 25 -5.05080429617845500D-03  2.78588172030289900D-02  1.63337582312505200D+00  1.51746046957085200D-02 -9.00265975577729200D-02
 4 26 -6.24958683432677800D-02 -8.99015878646807300D-04  3.43372008670727800D-03 -1.94744243274151600D-04  8.39686300296241900D-05
 4 27  1.10775613245243100D-04  7.99404302890493500D-03 -9.48494797880471500D-04 -4.57989899322519900D-04  2.05721205682385000D-02
 4 28 -1.23458866531941200D-02 -8.22623391504440400D-03 -7.44701085141176900D-01  8.39396983672070200D-02  4.20852551889675200D-02
 4 29  3.11667513799370800D-01 -1.21390080390739000D-01  5.31258149335706900D-02  1.62667620243987000D-01 -2.22211505182208900D-02
 4 30  3.11357512692646400D-01 -1.22554754811954700D-01  5.82253617111702700D-02 -1.61602548090275000D-01  1.39945184841785400D-02
 4 31 -3.10201149119620700D-01  1.22485689136683500D-01  5.75612039868420200D-02 -1.60037942547462700D-01  1.54964564738229500D-02
 4 32 -3.10726762814716200D-01  1.20779205654918400D-01  5.23725581487869300D-02  1.61509214020026400D-01 -2.02470874633157800D-02
 5  1  1.01779833937473400D-01  2.53456802644599200D-01  1.01223118557704500D+00 -1.36293641635856700D-01 -8.69924605169998000D-02
 5  2  1.63477493417576800D-02 -4.91209906543227700D-01  8.13635242807350700D-01 -6.53009916058455600D-02  3.48976745593395600D-01
 5  3 -3.30764717844773100D-01 -1.82120277486217700D-02 -7.80629636920263900D-02 -1.43289501313936500D-02  4.43241480140463800D-02
 5  4  1.03273884402407300D-01  2.56269640909034100D-01  9.81343070757543700D-01 -1.39206355216055700D-01  8.40143787018220900D-02
 5  5 -2.59324087739495500D-03 -4.51366386244655300D-01 -8.33526120237080400D-01  1.17874578285133100D-01  3.44671581075816900D-01
 5  6 -3.27812562544896400D-01 -1.68590185309207600D-02  9.77807720643521800D-02 -3.37376365468994400D-02  3.61497509251443900D-02
 5  7  1.02232851860022500D-01  2.54157848999701900D-01  9.95010882470955000D-01  1.38861220704216900D-01 -8.44473205071348500D-02
 5  8  1.24498047960384000D-03  4.60978792674944600D-01  8.16169365338724600D-01 -1.16877695273282900D-01  3.43136054830350600D-01
 5  9 -3.27106618331527400D-01 -1.60294364988232200D-02  9.73633119726626700D-02 -3.26885002466918700D-02  3.44650793577611200D-02
 5 10  1.03920256394691800D-01  2.57396659803466400D-01  9.65397184001873200D-01  1.36588635004046400D-01  8.67479311684632300D-02
 5 11 -1.77797860980155800D-02  4.72289838971821300D-01 -8.17182732184777500D-01  6.62596265687312600D-02  3.48110342388721900D-01
 5 12 -3.29758995848551400D-01 -1.83513465401699800D-02 -7.82813602088253000D-02 -1.34193020518053800D-02  4.59690789915040500D-02
 5 13  6.98702427379284300D-02  5.80499599544763100D-02 -1.75948419217030400D+00 -6.45299483438372000D-03  3.71117633954535700D-01
 5 14 -4.30251336349042600D-02 -1.81729904235991000D-02  4.09926529515701500D-01 -4.86369034352273100D-02 -3.37824232808919700D-01
 5 15  1.19769661504731300D-01  2.18054571304189000D-01 -5.08104930944933200D-03  3.53531175409234900D-02  1.02465648838565700D-02
 5 16  6.78755034723634200D-02  5.41641292543325300D-02 -1.73190864866659600D+00  5.39585602179525500D-03 -3.71401074293869900D-01
 5 17  4.01366581090429600D-02 -5.26806691399446800D-03 -3.98833137114821500D-01  4.19864269891634300D-02 -3.38215853744155700D-01
 5 18  1.21081347490528800D-01  2.17134506253626500D-01 -3.81655639855478600D-03  3.51208401898522500D-02  1.51958129484039800D-02
 5 19  2.36070732085300600D-02  3.63206197464101500D-02 -1.32091629937303900D-01 -2.65633491163885700D-01  5.35987414472573000D-04
 5 20 -1.09581125126595500D-01  1.14927999751985800D-02  5.67801884018987400D-03 -1.06892490652186200D-01  1.43248372816323500D-02
 5 21  1.18634766015363700D-03 -8.79120481229153200D-02  9.71763747519665900D-03 -1.51722095206210400D-02  2.52118435804279600D-02
 5 22 -1.00396340598070000D-02 -7.21020534822741500D-04  3.71727262902195000D-04 -4.56528255990671900D-03  1.02764116559841300D-02
 5 23 -6.03747604500985000D-02  5.00983487941142100D-02  3.44340643094287200D-03  2.18817207957749600D-03  1.65979393916228100D-02
 5 24  2.32446531883811900D-02  3.54232297005876400D-02 -1.31234892438731300D-01 -2.66169154134068200D-01 -3.04477618984654200D-03
 5 25  1.09520948901416800D-01 -1.29708655305921200D-02  2.63739001600502600D-03  1.06595161211169300D-01 -8.69380712358771300D-03
 5 26 -1.55115889008814400D-03  8.78735726843579100D-02 -9.78275930466668100D-03 -1.51809165448719900D-02  2.52615193202697100D-02
 5 27 -1.00806027753975000D-02 -6.79978754110416200D-04  3.67224378867015900D-04 -4.57347334877556200D-03  1.06482815271408000D-02
 5 28 -6.21482668981894300D-02  5.14999853710484700D-02 -4.43687914221535400D-04  2.70480672997421200D-03  1.17759861981558300D-02
 5 29 -2.12440552975019500D-01  8.05720291702601100D-02 -1.21522081719232200D-01 -2.81795164033728600D-01  4.03757515619259400D-02
 5 30 -2.13564217537124800D-01  7.68238492634701500D-02 -1.30109714518489800D-01  2.80494755913401300D-01 -2.27488942741010500D-02
 5 31 -2.14226844936103200D-01  8.12899346863645000D-02  1.30595843759965400D-01 -2.80098878862234600D-01  2.66466564573990200D-02
 5 32 -2.15365851491548700D-01  7.75344086993489700D-02  1.21484525196000300D-01  2.83643514478468400D-01 -3.67017663146855000D-02
 6  1  4.65716592758904000D-01  8.91056000963911700D-01 -8.59364320653349800D+00 -9.75898928610261000D-02  2.91234119393481900D-02
 6  2  1.64842233988289900D-02  3.83107173184814900D+00  3.06742723985968800D+00 -5.09980568856601600D-01  9.46248923422752400D-02
 6  3 -4.17909533417308900D-02 -5.28339390005424700D-02 -1.09380867812862100D-01  2.43614172909806700D-02  6.84018080624585700D-03
 6  4 -4.65117911033795600D-01 -8.89665356854076900D-01  8.59799313585179800D+00  9.61628330421995900D-02  2.81250274414491100D-02
 6  5 -2.29363295472963000D-02 -3.92788239855222300D+00  2.97952052122728700D+00 -1.64034916535822300D-01 -8.73465629659765800D-02
 6  6  3.73520483271546400D-02  4.99945146388207000D-02 -1.16321449149254000D-01  9.49138349952906100D-04  9.61626137029908200D-03
 6  7  4.67884137872720500D-01  8.89192269205252800D-01 -8.87537619713532400D+00  9.00480476362747200D-02  3.95437882530008700D-02
 6  8  5.18731845874649500D-03 -4.03459380568232400D+00  3.01197529512286900D+00 -7.99067358538284700D-02  1.01743448073098000D-01
 6  9 -5.39498354651030000D-02 -4.77936126079940000D-02  1.14094000559130600D-01 -4.30461098872928800D-02 -4.22537122157807400D-03
 6 10 -4.67561743971372200D-01 -8.88434596983794500D-01  8.87717543327533900D+00 -9.08330196106653800D-02  3.49730728487573700D-02
 6 11 -1.36811194096840300D-02  3.93980663312523700D+00  3.07759116437706700D+00 -5.99287833556127900D-01 -1.06826423313240200D-01
 6 12  5.74975541342308300D-02  4.93288691790110000D-02  1.15097654799199900D-01  1.79952068121735900D-02 -4.84947475321331900D-03
 6 13 -6.30937949217341900D-01 -1.23616957253059500D+00  7.78059349591598100D+00  3.13031487868542900D-03 -4.45378141491110600D-02
 6 14  6.23811438788290600D-02 -7.57196309299221200D-02 -3.43823795653263700D+00  4.57057095981448400D-01 -8.90521122813542500D-02
 6 15  1.04135277944543500D-01 -1.50831656631905400D-02  1.23161545944001700D-02  2.82971315498459000D-03  1.29759886141608700D-01
 6 16  6.31203676855184600D-01  1.23646000153950800D+00 -7.78636502462591500D+00 -1.92664886073822100D-03 -5.82525078787576000D-02
 6 17 -5.10887272666509400D-02  1.80434669850645000D-01 -3.45207254394758200D+00  3.11377821356300500D-01  8.71834877949276700D-02
 6 18 -4.89362538906817600D-02 -3.82472339042446500D-02  1.74498608376113800D-02 -1.01342602876300400D-02  1.47137789863870900D-01
 6 19 -1.14501132040429000D-01 -2.86528298964283600D-01  2.34696279787915200D-01 -1.47413498582169600D-01  1.91178243738494600D-02
 6 20 -7.41590888041213900D-02 -2.06184876565592300D-04 -4.57154582459937600D-02  2.87120018403815500D-01  8.54025897255038800D-02
 6 21 -4.21496662342320700D-03  1.03469691985972100D-02  1.19102790491429300D-02 -8.06246679972039800D-03  1.93758732237835500D-02
 6 22 -1.13134064240593300D-02 -1.41696693286050300D-03 -3.90414751649313700D-05 -1.14200491637704300D-02  1.11695016887018900D-01
 6 23 -2.26323743694691400D-01  1.14628726807675300D-01 -1.31605861333133900D-03  3.55430880465565300D-05  1.77731866466805800D-01
 6 24  1.14602357193131700D-01  2.86704066358896200D-01 -2.35134379011793200D-01  1.46767539595223500D-01 -1.73278655661633600D-02
 6 25 -7.24036554788676800D-02  1.66561288737410300D-02  3.88948791460607600D-02  2.62554630761645600D-01 -1.46527200462006800D-01
 6 26  3.95552831002608500D-03  7.78236702932454600D-03 -1.38875094015331500D-02  8.06640688205023500D-03 -2.20973265189595000D-02
 6 27  1.40309196369096300D-02 -2.71078177537917800D-04  4.64257852392214000D-04 -2.68124086377522400D-03 -1.11303653104771900D-01
 6 28  2.75360161365140800D-01 -1.64056508260368700D-01 -1.61031331422746000D-02 -2.32353383020767000D-03  7.55624725082896000D-02
 6 29 -2.99957826492914900D-01 -1.06552719420668200D+00  5.50906637623676700D-02 -2.11886912947121600D-01 -4.48699267710347300D-02
 6 30  2.99162664497648700D-01  1.06578357855447400D+00 -4.88324362869468500D-02 -1.97515039217907300D-01  9.14157919868632100D-02
 6 31 -2.91070817561098100D-01 -1.04801247582211600D+00 -5.34807935236613400D-02 -2.03926744484461300D-01 -4.03681333654192900D-02
 6 32  2.90318438799140600D-01  1.04810621824320500D+00  6.03034479414422300D-02 -1.86935182003017900D-01  8.37880213250939700D-02
 7  1  4.82396573478429100D-02  3.37470776933569300D-03 -4.42748533464121900D+00  1.14017817172684200D-01  1.30396845004709500D-01
 7  2 -1.84288224591814300D-02  1.78686350645050300D+00  4.24237249375779800D-01 -1.36849285184777600D-01  2.59703890533899100D-01
 7  3 -2.41057996369086100D-01 -1.86458941648126100D-02 -1.91645037403865100D-02 -1.21985634376069200D-02  3.04208160925137900D-02
 7  4 -4.81868425178717000D-02 -3.20835476565609300D-03  4.42810594486939600D+00 -1.18147351888030600D-01  1.27674973900899000D-01
 7  5 -1.04331776488115300D-02 -1.80017245733626900D+00  3.87350789531304700D-01  4.64437157000106400D-02 -2.58120996497252500D-01
 7  6  2.40064194827250700D-01  1.80568016700014100D-02 -3.37455799801809100D-02  1.80008155015471200D-02 -2.69959824158899800D-02
 7  7 -2.02979676504661300D-02  4.99137160104203800D-02  3.90178919985472400D+00  1.23629647040362400D-01 -1.25674335519518700D-01
 7  8  8.74109700615202700D-03  1.56010058328577500D+00 -2.07674201786408900D-01 -5.78536401037642700D-02 -2.52265161719077600D-01
 7  9  2.37327580759419100D-01  1.49375809596615700D-02 -2.69557581009795900D-02  1.70768804679656000D-02 -2.78883283568554800D-02
 7 10  2.00105678647815300D-02 -5.04739457312707600D-02 -3.90254246875496900D+00 -1.19669479386315300D-01 -1.28380337041274500D-01
 7 11  1.94861975228340000D-02 -1.55286046514856900D+00 -2.37317698802044800D-01  1.07367003554144000D-01  2.53689903742845600D-01
 7 12 -2.37923827279225000D-01 -1.57660764636203600D-02 -1.23717794822148700D-02 -1.26935983811689100D-02  2.97943943518481700D-02
 7 13 -1.90431518340312100D-02 -3.73293524856465300D-02  2.34339230437000600D-01  1.51756895729167000D-02 -4.82357804487183100D-04
 7 14  6.37540442271671400D-03  3.94112839356609800D+00 -6.47163468078392800D-02 -1.97116653440175000D-01  3.34555120862162100D-03
 7 15  2.01114357736719200D-03 -5.35669478598821800D-03 -2.23825196675872600D-01  2.37112037826906200D-02  2.94650585491762600D-02
 7 16  1.88191204060597500D-02  3.68502626229011500D-02 -2.33490859281248000D-01 -1.53897474961757600D-02 -2.44696936582008400D-03
 7 17 -6.20086934195923800D-03 -3.93953800052731000D+00 -1.42719699332794200D-01  2.20133425936783500D-01  8.80600588292897700D-03
 7 18 -2.63918410359693500D-03 -6.16682177933331300D-03 -2.23214192631971300D-01  2.52473973840432800D-02  3.04885588523930300D-02
 7 19 -3.44315946659805500D-03 -8.60263983330244800D-03  7.06509281222402600D-03 -4.52395693983393200D-03 -5.57524683233416900D-01
 7 20 -7.69337180675228700D-03  3.00185556738026700D-02  1.45112612284210400D+00  2.40010747203439000D-02 -6.63792829885844800D-02
 7 21  1.43062049137461300D-01  1.79220954395770200D-03 -6.27441236347656000D-03 -6.17437792587051000D-04  6.74216119936747800D-04
 7 22 -5.67783273512846600D-05  1.40986820089791200D-02 -1.45910558697495800D-03 -1.84000684303487400D-03 -9.33556943712985000D-03
 7 23  3.47914100710329400D-03  5.85642843002706000D-03  4.61754035809947300D-01 -5.05845708936361700D-02 -8.34119262525303200D-03
 7 24  3.43434380019476100D-03  8.58901741876060500D-03 -7.11284208634947100D-03  4.18136027404825100D-03  5.57292857478273600D-01
 7 25  3.28629247752242700D-03 -2.95226456433311600D-02 -1.45040546470288200D+00 -7.20865401117673200D-03  6.48173038335944500D-02
 7 26 -1.42993689903288200D-01 -1.17485572271385600D-03  6.24600013738119900D-03 -1.54782381968117400D-04 -5.62231656213563700D-04
 7 27  7.17014038182118500D-04  1.41175613832018200D-02 -1.62495121451853400D-03 -1.55993620832271800D-03 -1.60435547877070300D-02
 7 28  1.83169346889721400D-02 -2.27337990126509400D-03  4.60634025523974600D-01 -5.19064510049618700D-02 -1.17659396503066700D-02
 7 29  1.23743109723352000D-01  2.35500751063446900D-01 -3.16802590676565000D-02  1.33132570933225500D-01 -2.04905550770115400D-02
 7 30 -1.23839127910833300D-01 -2.35268822078718800D-01  2.76165662759797300D-02  1.35219884915520800D-01 -9.08298881560637300D-03
 7 31 -1.41683478043544800D-01 -2.99156793097288000D-01 -3.05443311215789600D-02 -1.47674417180689000D-01  9.22165583248212000D-03
 7 32  1.41706034133026000D-01  2.99177935221551900D-01  3.54972677701278000D-02 -1.44692798439682600D-01  2.36259110627950600D-02
 8  1 -8.91282464260556000D-02 -1.68359796228488200D-01  1.72958464578930000D+00  1.95963720437591600D-02  9.86766840247885800D-04
 8  2  7.72978562492099300D-02 -7.48608536700938500D-01 -5.68425013273892100D-01  3.09977299905375600D-01 -1.37969016907805800D-02
 8  3  1.35549338224362300D-02  2.41967868344128400D-04  3.46125870006882700D-02  1.09225321169718000D-01 -2.27194307118897900D-03
 8  4  8.92079892950807500D-02  1.68539776021949400D-01 -1.73033284658913600D+00 -1.94931863510180000D-02 -1.66445099126667800D-02
 8  5 -7.57164809647897900D-02  7.67094307927752500D-01 -5.98945874393601700D-01 -1.79973491297615800D-01  1.26524114482812300D-02
 8  6 -1.32308548573506100D-02  5.78443409069619700D-04  1.07340439722126000D-02 -1.14175183023851700D-01 -1.97275824285786200D-03
 8  7 -8.79551327975728600D-02 -1.69233430830431200D-01  1.58457165318938000D+00 -1.52959693118144500D-02  5.13237450238960900D-03
 8  8  7.87620947004377100D-02  7.29958611593856200D-01 -5.42503442332642800D-01  2.27549266608037900D-01 -2.39462771581750100D-02
 8  9  3.89837906516121700D-03  2.00478980930135700D-02 -3.45122747395248100D-02 -1.05510441134492000D-01  6.10419531499785700D-04
 8 10  8.79954816036665500D-02  1.69358838132926200D-01 -1.58261109588892600D+00  1.54760758086647500D-02 -1.17949844038023400D-02
 8 11 -7.81591146765553000D-02 -7.11386585217231600D-01 -6.02946008587478600D-01 -9.99133782885792500D-02  2.55220461384848900D-02
 8 12 -5.28683258489109700D-03 -2.02352135535942400D-02 -9.32489403937841600D-03  1.10641570695360900D-01  1.66301376499420800D-04
 8 13  1.22840786888887700D-01  2.40694334377612500D-01 -1.46923172045457800D+00  1.55044562963594900D-02  4.63485745348585500D-02
 8 14  2.94305189858295300D-01 -6.09870705204674200D-02  6.82921103620141800D-01  2.58054443163647800D-01  1.47641256556879900D-02
 8 15  1.30341863477975400D-01 -1.45105989133663300D-01  4.25851526009806100D-02 -1.74537188061185300D-02  7.23867829634476500D-01
 8 16 -1.22766131562672700D-01 -2.40585105705389500D-01  1.46832532820449100D+00 -1.58641267360875500D-02 -2.04383779643042900D-02
 8 17 -2.97518689082805200D-01  4.27951215786106600D-02  6.10799794110992100D-01 -4.02797898467185700D-01 -1.73660208966807300D-02
 8 18  1.54933888465412700D-01 -1.37567867568732200D-01  4.16926342501458100D-02 -1.49553493576852200D-02  7.22476729103111700D-01
 8 19  2.25056413001129800D-02  5.64269183903355200D-02 -4.75134950856065100D-02  2.74451318873311200D-02  7.83856200294414200D-03
 8 20  1.02280288471402500D-02 -3.72556020590390900D-02  6.35291758649162700D-03  1.55008368790528600D-02  5.92813014826003200D-01
 8 21  1.09875396550562500D-03  5.39574421528752700D-03  6.65635576912054800D-02  1.82067438078116700D-03 -1.16415449629189300D-02
 8 22  9.82087058213697500D-03 -2.14393932561875200D-03  9.06860566730258800D-04 -3.72114100931700500D-02 -2.45501490358425500D-02
 8 23  1.79344334126478600D-01 -1.54794185090636400D-01  2.49022780477605500D-02 -1.37271589443377400D-02  6.46580875036392400D-01
 8 24 -2.24829409141762800D-02 -5.63956957845956500D-02  4.73011479135927900D-02 -2.76262162502100600D-02 -8.03288031760857900D-03
 8 25  1.80571380279774700D-02  3.41568875391821500D-02 -5.58899738507054600D-03 -1.15311109604316700D-01 -5.81040581151108700D-01
 8 26 -9.89885373706726800D-04 -9.34693857574610400D-03 -6.60319272497291300D-02 -1.70619709175207300D-03 -3.33668479559665600D-03
 8 27  5.04288188734849100D-03 -2.37200744848109100D-03  8.42378248567077000D-04 -3.88910698830939500D-02  2.30776235943917900D-02
 8 28  7.85891835742162200D-02 -1.01666807168608100D-01  2.80415995953135300D-02 -1.35254876585969800D-02  6.65913769738889900D-01
 8 29  5.22069794650653900D-02  1.94558959429082500D-01 -2.79531366632576600D-02 -1.74456804838771300D-03 -3.42457449818655700D-01
 8 30 -5.25653514259290000D-02 -1.94481851828072600D-01  2.68000730077910800D-02  7.49176423040978400D-02  3.34884646378593700D-01
 8 31  5.70786929827967800D-02  2.03975944923589500D-01 -8.68694733878119100D-03  3.49419993809759700D-03 -3.44086474386949400D-01
 8 32 -5.70763719643984900D-02 -2.03995766409824100D-01  7.48367736807564100D-03  7.95415424829231700D-02  3.35191634760975000D-01
 9  1 -2.65028380704101800D-01 -4.93564684529021500D-01  5.90109203397430800D+00  1.39107246112925900D-01 -2.17084947490252500D-01
 9  2  1.79566120839679800D-02 -4.06095458359919400D+00 -1.63052769964013600D+00  4.02750593469473200D-01 -2.23114576014559900D-02
 9  3  9.01592646222640100D-02 -6.78478070208082400D-02 -5.60832404206772900D-02  3.85269998651111700D-03 -2.02185243206204000D-02
 9  4  2.64841676799756800D-01  4.93215744849177000D-01 -5.89993766828458500D+00 -1.32295943987898800D-01 -2.20081849385213300D-01
 9  5  3.07136596596962400D-02  4.10942951884914200D+00 -1.55072380766112800D+00 -4.82727574346982100D-02  2.53187368816936600D-02
 9  6 -9.28631966364008600D-02  6.75444597547081900D-02 -5.14917578777708100D-02  7.08034446648923700D-03  2.15514259444344900D-02
 9  7 -2.65093653641358000D-01 -4.93673922873681700D-01  5.90239082952935700D+00 -1.32147393978779200D-01 -2.19662026138337200D-01
 9  8  3.29908912124368100D-02  4.11040110290574300D+00 -1.55279426850374100D+00 -4.60872133979027300D-02 -2.53792888569592000D-02
 9  9  9.20495523187719600D-02 -6.66702634618124600D-02  5.08445697741150800D-02 -9.90425363007621500D-03 -2.60544256072587000D-02
 9 10  2.64706982874389300D-01  4.92925782068264200D-01 -5.90122064267941400D+00  1.38998256969874200D-01 -2.17551945273331200D-01
 9 11  1.59135405825824400D-02 -4.05936223355496500D+00 -1.63054015114129800D+00  4.01102776399501400D-01  2.26856235098973100D-02
 9 12 -9.10545113449233400D-02  6.83688878350255500D-02  5.59787950638379700D-02 -2.85431794954412700D-03  1.52777301288508900D-02
 9 13 -2.87043517953916100D-01 -5.83173855478573100D-01 -6.68038112764981600D+00  1.07016844135323500D-02 -6.71890026396112600D-01
 9 14  7.71276348492155300D-02 -6.08204917208895500D-02  3.83951240739061400D+00 -4.32460382086792700D-01  2.76447621627488000D-01
 9 15 -2.39705517993602400D-01 -3.67421036338842100D-02  7.34784611064936500D-03 -2.06024164955406700D-02  2.91071931415511800D-02
 9 16  2.86780742271418400D-01  5.82677902875741400D-01  6.67855587735369500D+00  1.04919980422363600D-02 -6.72009644552037400D-01
 9 17  7.26682771233172500D-02 -5.90240027803226600D-02  3.83786057244587700D+00 -4.23541285671763000D-01 -2.76498998657890400D-01
 9 18  2.40783362044975300D-01  3.57156366129141100D-02 -7.14870488988038000D-03  1.97356994619720600D-02 -2.36717219014958300D-02
 9 19 -6.94183679531548800D-02 -2.16426192149816600D-01  2.80759472949699000D-01  2.11146342093781900D-01  1.42453881590525300D-03
 9 20 -8.38383995883722600D-02  9.67643539523008500D-03  1.38924831484355300D-02 -8.99593788914426300D-01  9.99634758315010900D-02
 9 21 -5.95828684023574800D-04  4.06252939985854400D-02 -3.92804740701595100D-03 -4.87980076110351900D-02  6.45827695478139300D-02
 9 22 -1.57847619367807900D-02 -1.84673628091134400D-03  2.19864590226214400D-03 -1.05632610776227500D-02  5.14706468880745000D-01
 9 23 -8.51170714531637000D-01  3.36464245650890700D-01  2.37264677405886700D-02 -1.27094341079202600D-02  1.54138408483386400D-01
 9 24  6.95017860910309000D-02  2.16618037059045800D-01 -2.81921792696422900D-01 -2.11364905950083100D-01  1.32783232267005800D-03
 9 25 -8.36126045970835000D-02  8.92744063182473300D-03  1.40538907268065500D-02 -8.99966527954019300D-01  1.00601282806302300D-01
 9 26 -6.84483330358326300D-04  4.06315639157968900D-02 -5.12352678171721100D-03  4.88197758418027800D-02 -6.46665236582824700D-02
 9 27  1.58467478164796600D-02  1.82142930037712100D-03 -2.20569100034782000D-03  1.03240650178203600D-02 -5.14929576882667300D-01
 9 28  8.51669992477453800D-01 -3.36740415594785100D-01 -2.36072691416697200D-02  1.29832040843756700D-02 -1.55020381688302400D-01
 9 29  4.44067732986103100D-01  1.03106398602120200D+00 -2.27613950918826500D-01 -8.92195265273804100D-02  1.97060220248204200D-02
 9 30 -4.44163668222363700D-01 -1.03063763091551700D+00  2.30437257228882400D-01 -8.45476903180631100D-02 -1.63945321361072400D-03
 9 31  4.44268019809457000D-01  1.03142596374836200D+00  2.30236369250688900D-01 -8.47184326669242500D-02 -4.21348518762986000D-03
 9 32 -4.43992229709981100D-01 -1.03078716226829600D+00 -2.27427300598527800D-01 -8.87872362787707500D-02  2.47359122808339100D-02
10  1 -1.14295662886936700D-03 -2.06504502844743200D-03  2.16730413232540800D-02  2.05663201168869000D-03  4.22897197350514800D-03
10  2  3.63336988762323700D-02 -8.20999454831420300D-03  5.12903185725791300D-03  4.35492345597223000D-02  3.72994420552719900D-02
10  3  1.24451602777604000D-02 -4.97446023330320700D-02  4.78251231311596200D-02  3.97841278150869300D-01  5.99614320232892800D-02
10  4  2.68880265642669800D-05  1.44957812672121500D-04 -1.23014591023538400D-03  1.57378987714072000D-03  3.34556359733632500D-03
10  5  3.66993056630485100D-02  6.10669051196020600D-03 -1.85417632255042000D-03  4.40180137483141600D-02  3.76683995870633000D-02
10  6 -1.08287117763756300D-02 -2.68396878106874300D-02  4.25682499853610000D-02  4.00511904659447400D-01 -5.67521940666489000D-02
10  7  4.02760355389031000D-05 -1.32986233690358300D-05  5.55884420424719800D-04 -2.33564392137154600D-03 -4.83959886807775300D-03
10  8 -3.62438905381096300D-02  9.71868438662300800D-04 -1.16723224810054700D-02 -4.27439498119104600D-02  3.72761061847262300D-02
10  9 -1.05659047433541000D-02 -2.67102014413721500D-02  4.17097409215134900D-02  4.00575238651282100D-01 -5.66118305806036000D-02
10 10  1.09014353200306500D-03  1.96374084689316800D-03 -2.10384652839920500D-02 -1.87479951751561800D-03 -3.91954287546487800D-03
10 11 -3.62717097394446600D-02 -1.23864014592230100D-02 -4.59834591350624400D-03 -4.25474513930048100D-02  3.72368867031344800D-02
10 12  1.21012748423094000D-02 -4.93381615454435700D-02  4.86946290161257900D-02  3.97679704225624300D-01  5.97502333133660300D-02
10 13 -4.07141909426298000D-05 -1.08090578173596100D-04 -1.17891307630845200D-02 -1.02549720909322600D-03 -7.48522940560033900D-04
10 14  2.03780014361593100D-04 -1.38958086215255900D-02  5.96724276894514100D-03  2.81598840603171500D-04  3.47408605862137600D-02
10 15  4.28272308193500100D-04 -3.51691328944071700D-02  4.17625575762201100D-02  3.66539350274079100D-01  1.59449673712715300D-03
10 16  2.99230118104050000D-05  8.52975096238814700D-05  1.18388573804428600D-02 -1.00122912335807900D-03 -7.47973915981631000D-04
10 17  3.42701601597135100D-04 -1.33394772258997000D-02  5.96559659312661200D-03  2.68276153801402100D-04  3.38746964222059900D-02
10 18  9.09924456482048700D-04 -3.47846208786877500D-02  4.12111397904506600D-02  3.66577746191228700D-01  6.78288137080021600D-04
10 19 -7.18596003302396100D-06 -7.54983571376246000D-05  6.74352472442752900D-05  3.57374053111528200D-04 -1.19192498024086000D-03
10 20 -1.07646883312499200D-04  4.78209778390354000D-05  4.32932768502161300D-03 -1.17254930234774900D-03 -4.91679710011507100D-04
10 21 -5.14339785261483900D-05  4.78889631328099000D-05 -7.27692385031275500D-05  6.75285189787831700D-04  8.67695293035522900D-05
10 22 -7.62054719091599100D-04  7.97512084582083100D-04  7.78020893071043800D-03  6.29871910979851900D-05 -1.16938087670204000D-02
10 23 -1.16628520386276700D-03  1.28600939708830800D-02 -1.26883957188565900D-02 -1.30743582925275500D-01 -9.06960037775989800D-04
10 24  1.23049940086286600D-05  8.62585690275515500D-05 -1.05108270355934300D-04 -3.58774057097470100D-04 -1.22883685013374300D-03
10 25 -9.19272752132353700D-05  1.12380159926735300D-04  4.44560381302848600D-03 -1.15513666282183400D-03 -3.83295784825811000D-04
10 26 -4.77300683224849400D-05  5.69141251657902000D-05 -1.04005196295117000D-05  7.79461101096166300D-04 -5.02391556854293800D-05
10 27 -7.29221945410729100D-04  9.59758586909391200D-04  7.75750448519076100D-03  2.76776225248808400D-05 -1.27359190111641900D-02
10 28  6.35994449063250700D-04  1.20999245621009500D-02 -1.68670983989441000D-02 -1.30260023644200600D-01 -2.20707037198504400D-04
10 29  1.28093280094884500D-03  1.32082052779257900D-03  2.68616441338073800D-02  5.55964381315356700D-02  4.92279917367658100D-01
10 30 -4.49533229702510600D-05 -2.10945551914974500D-03  2.74908215489515300D-02  5.49871614351419100D-02  4.92140727236339600D-01
10 31  4.87784713442076500D-05  2.20444093780877900D-03 -2.55398320781989400D-02 -5.56298654866070400D-02 -4.92488718500354100D-01
10 32 -1.26566231184646200D-03 -1.41461687459037000D-03 -2.62585675031936000D-02 -5.50661244361236900D-02 -4.92829986864100300D-01
11  1 -2.82033744711733600D-01 -5.72963239795858300D-01  2.01616061642382200D+00  9.91772154571825500D-02 -6.75225767822623300D-02
11  2  4.10358571679099000D-03 -1.44189346118025400D+00 -1.26562621788333800D-01  9.29713488298598300D-02  1.40560463957518400D-01
11  3  1.12195669918007800D-01 -2.52756133875527000D-01  1.42463141929405000D-01 -3.87050743868567300D-02 -6.42342234637475200D-02
11  4  2.81588505555472300D-01  5.72137100467834800D-01 -2.01283230223861100D+00 -9.69089934512223100D-02 -7.00741152922113700D-02
11  5  1.10882767394197700D-02  1.44208755711739500D+00 -9.83396289208005700D-02 -6.78137720426065100D-02 -1.48108874935546800D-01
11  6 -1.10399886177276600D-01  2.58508761112823700D-01  1.46530008378062800D-01  7.04501061050726700D-03  3.23763354312852200D-02
11  7 -2.81842690885788400D-01 -5.72652645206685500D-01  2.01333831741760000D+00 -9.68013727583570400D-02 -6.96032931177018200D-02
11  8  1.50553774376693200D-02  1.44360684760130600D+00 -1.00968880331539400D-01 -6.52776209943309900D-02  1.47869657699506300D-01
11  9  1.07438439696612700D-01 -2.55308097396119300D-01 -1.48087605429097100D-01 -1.08259824239248900D-02 -4.77431210965547300D-02
11 10  2.81595811318417300D-01  5.72082857177989600D-01 -2.01327400844001200D+00  9.86706477803477400D-02 -6.82105546483865300D-02
11 11  4.99334625431503500D-04 -1.43815644360915100D+00 -1.26634167289069700D-01  9.06957271748619100D-02 -1.40143116352632500D-01
11 12 -1.15247934090014600D-01  2.55391050442647000D-01 -1.42644972213465400D-01  4.32834775188529000D-02  4.84251391956639200D-02
11 13 -7.38628964811593300D-02 -1.50694062176092600D-01 -1.19934654168006700D+00 -7.54121102182383500D-03  4.70367258711559000D-01
11 14 -5.19034773949710400D-02 -1.61927290328015600D-02  8.83797324112422200D-01 -9.97508486489147300D-02  5.66554687762631200D-02
11 15  4.39799443355861700D-01 -4.96454912132124600D-01 -1.09942279086717300D-02 -3.37490448066146000D-02 -1.25278360268479700D-01
11 16  7.23797630266973700D-02  1.47956825775675300D-01  1.19759118115254100D+00 -7.56043019370197300D-03  4.72032282101510800D-01
11 17 -5.31769207606843100D-02 -1.25317103998335400D-02  8.77614530371015300D-01 -9.67150474265673800D-02 -5.61986138378948900D-02
11 18 -4.40679909488665400D-01  4.96878523326560900D-01  1.05464695342080300D-02  3.43530633890670700D-02  1.20249841371480000D-01
11 19  9.36571023120244500D-03  5.83391014330119900D-02  5.11505806230693600D-01  6.68152946339255000D-01 -4.04736695641521600D-03
11 20  2.67943823109544600D-01 -2.87033127868718900D-02 -5.02392092941849100D-03  2.74878667158163900D-01 -3.12953590087960200D-02
11 21 -5.25281723789585300D-03  3.31366940191526500D-01 -3.59717321045069200D-02  1.08535419547457200D-02 -2.83210072180826400D-02
11 22  1.74674652633360800D-02  7.48248917854404600D-04  3.78037448922177000D-04  5.50107151003554000D-03  1.08178957939804600D-01
11 23  1.45098148124104200D-01 -2.53277106063908800D-01 -3.71164090237224700D-03 -2.25236824479802300D-02 -5.21296354172795400D-02
11 24 -8.95563270459988500D-03 -5.73458900307941200D-02 -5.14426144215365500D-01 -6.68787879529120000D-01 -4.36088088355673000D-03
11 25  2.67982385646262100D-01 -3.10172156737088700D-02 -3.92714775859034600D-03  2.73325966513781700D-01 -2.96255180417306100D-02
11 26 -5.28259133504726400D-03  3.31441709700770000D-01 -3.78885128377682800D-02 -1.07007207805269900D-02  2.79545736640742400D-02
11 27 -1.72538528835476800D-02 -7.72923372425403000D-04 -3.44998767932414100D-04 -6.35018728789262100D-03 -1.09364736670752700D-01
11 28 -1.42684050541506200D-01  2.52048787212259000D-01  3.14254740654084300D-03  2.24486942357269200D-02  5.17599811174133000D-02
11 29 -1.20606624005433900D-01  4.61508935288537700D-01 -4.23674425141555100D-02 -2.31823245582011900D-01  2.87009617505944400D-02
11 30  1.21103758231801800D-01 -4.60494345935563700D-01  4.94713852196047800D-02 -2.30741336604933100D-01  2.25670636327455000D-02
11 31 -1.20741396933804000D-01  4.61673104811628200D-01  4.99874432654451200D-02 -2.31150883464492300D-01  2.38763549009172300D-02
11 32  1.20945619358683900D-01 -4.60429395010430400D-01 -4.21799437011882400D-02 -2.31478374370931700D-01  2.78285385442949800D-02
12  1  1.35320954018844000D-01  2.72021829725444600D-01 -7.22438199076342400D-01 -5.24380582366442200D-02 -8.29920969502539300D-02
12  2  1.16362710407532400D-02  1.12435284815229000D+00  7.79085852303144500D-01 -1.47878576544326000D-01 -5.98044032960711400D-02
12  3  2.09864837815501000D-03  5.77057549179161700D-02 -1.09146169951983500D-01  2.01258410298907400D-02  1.26575537141125200D-02
12  4  1.35973742476775100D-01  2.73416536563707100D-01 -7.22208523610248000D-01 -5.55507517090092100D-02  8.16992602608767300D-02
12  5 -6.63720468114131900D-03  1.15350618857760200D+00 -7.52925089712941400D-01  2.25667216791956000D-02 -6.61190764159423300D-02
12  6  5.89137708475794700D-03  6.02276993311841700D-02  1.08574611854163500D-01 -3.84456090458423900D-03  2.17378031091673200D-03
12  7  1.35157337279060000D-01  2.71723705847514000D-01 -7.19904582749716500D-01  5.50003480401807800D-02 -8.18852985081065200D-02
12  8  5.81478464061205500D-03 -1.14817960394643800D+00  7.56162114656722700D-01 -2.28383936073429800D-02 -6.56886318507337200D-02
12  9  5.84983112323758500D-03  5.98388007274957600D-02  1.08429980179905700D-01 -4.73412872293765500D-03  5.24348396648670500D-04
12 10  1.35838480159110100D-01  2.73135440759600100D-01 -7.22791985558103500D-01  5.28640340694032700D-02  8.26068389171955400D-02
12 11 -1.25001155111462300D-02 -1.12883104422185000D+00 -7.76505789724559700D-01  1.48301785591110600D-01 -6.00691941355413000D-02
12 12  2.25028689937329200D-03  5.78189072361680900D-02 -1.09383694174814600D-01  1.93077550955677800D-02  1.42001100104631700D-02
12 13  5.47979604258229900D-01  9.99825292489707000D-01  7.99119873319164700D-01 -1.11270843267056000D-02  7.07817097621778000D-01
12 14 -8.03306672749555500D-02  4.93608693710166800D-02 -3.09797363105098800D+00  3.48147997300969500D-01 -1.09720215378245400D-01
12 15 -2.64216327936739000D-02  1.36141848171917900D-01  1.44317324563984400D-04  1.55992929583118600D-02  1.98933903497729400D-02
12 16  5.48473131022704000D-01  1.00083778282530900D+00  8.03774892574961200D-01  1.12749095426016400D-02 -7.07041981890523500D-01
12 17  7.73519643826234800D-02 -4.77549276277383600D-02  3.09940161343478900D+00 -3.42707227859672000D-01 -1.10204822218009700D-01
12 18 -2.66760912816556100D-02  1.36880913499666200D-01  2.68523315620585700D-04  1.56879884757682500D-02  2.31752683617046400D-02
12 19 -1.84458441502228800D-01 -4.42253133938804300D-01  1.46610509472381800D+00  2.65859739338665100D-01 -2.84017426251498400D-03
12 20  1.82991112852551600D-01 -2.02781529419306200D-02  1.16132527853947300D-02 -7.50155359434335900D-01  8.41731847773551500D-02
12 21 -1.67514107682730900D-03  1.07660245342068700D-01 -1.16582591635878800D-02 -5.56109658799981200D-02  7.06779055888435400D-02
12 22 -1.50669397088450100D-02 -2.00850045020009500D-03  2.69592085067058200D-03 -1.10599760090966700D-02  4.72919695784575800D-01
12 23 -1.01420909099349000D+00  5.41289395208912900D-01  2.75903957341300000D-02  2.35160029301022200D-03  2.01515474134122000D-01
12 24 -1.84547625782373900D-01 -4.42471936776253500D-01  1.46614674152657500D+00  2.63841868456882100D-01  2.98631095227835400D-03
12 25 -1.82781472677096000D-01  2.05363143459595900D-02 -1.20743647945149800D-02  7.50816852110587100D-01 -8.32495876281401900D-02
12 26  1.66926151877592000D-03 -1.06673625974126300D-01  1.22205578298326500D-02 -5.56246765867520800D-02  7.06938414428216500D-02
12 27 -1.50691648560705100D-02 -2.02196509792120000D-03  2.69651276409672500D-03 -1.11974326958757100D-02  4.72247632500304600D-01
12 28 -1.01389133267639400D+00  5.41643700176090400D-01  2.78462593357861100D-02  2.38444592276702800D-03  2.04131078925748900D-01
12 29 -1.58198629124954400D-01 -5.11440924106845800D-01  7.12947656055765800D-02  1.42798380268190400D-01 -1.97228818079296400D-02
12 30 -1.58194067537273500D-01 -5.12717186959559300D-01  7.61280804702642700D-02 -1.42107141711092900D-01  1.20277212204817900D-02
12 31 -1.58120168625483800D-01 -5.11710672494526400D-01 -7.56656402896212200D-02  1.41136620245828500D-01 -1.15037319411851700D-02
12 32 -1.58151119861262500D-01 -5.12721827243349500D-01 -7.16251622758842500D-02 -1.43470086809240300D-01  2.02255029909848100D-02
13  1  1.83160775772643200D-03  3.41121166774765400D-03 -1.23334243216924500D-02  1.12937653639036100D-02  2.24535238039292100D-02
13  2  2.12025473366373800D-01  1.23622997194489800D-02  9.55959549641724300D-03  1.15250714073416100D-01 -1.42609142562860700D-02
13  3  6.07888395857723000D-02 -4.65279253294869800D-02  3.19098450349914300D-03 -1.35568117556528400D-01  3.12162141987599000D-01
13  4  2.07793400741495300D-03  3.88062643253492100D-03 -1.60561035147621700D-02  1.11458889054021700D-02  2.48297858250698800D-02
13  5  2.11079355037577400D-01  1.31258132439632800D-02  1.42901069002711300D-02  1.13540402444434300D-01 -1.33431083938867000D-02
13  6 -6.30039242056768000D-02  7.63470325995632800D-02 -3.23539967659694300D-02 -1.22132073714547400D-01 -3.14585593398659300D-01
13  7 -2.05011314723593400D-03 -3.83841821125694400D-03  1.55656383995318600D-02 -1.16614634692949900D-02 -2.26371101868596200D-02
13  8 -2.11404289277358200D-01  8.71018833642242800D-04 -1.03373549454285800D-02 -1.14862888667905400D-01 -9.98153595328831400D-03
13  9 -6.14992956460197000D-02  7.14808315993081400D-02 -3.01086216045121800D-02 -1.22788573044520400D-01 -3.15612470197245600D-01
13 10 -1.74192911998152600D-03 -3.22555342806062600D-03  1.20446906842165500D-02 -1.15014538229508000D-02 -2.50705430632382800D-02
13 11 -2.11734354039040300D-01 -1.19393964224394800D-03 -1.59568712265636000D-02 -1.15096728531347700D-01 -1.08579580521896900D-02
13 12  6.18957247993103700D-02 -5.10377667471206900D-02  6.30787177513330700D-04 -1.35760733619159500D-01  3.11731974244656000D-01
13 13  3.59043190777159800D-05  7.00789264630632400D-05 -3.90613420387166600D-04  2.54475410092733600D-03  2.59464823688337200D-04
13 14 -1.86846093197756900D-05  1.53681790511541100D-02  2.11666132256014300D-04 -1.03287384938751200D-03 -6.82013537385296700D-02
13 15 -1.28578791968286600D-03  6.94871416582123100D-02 -8.42290207909493100D-02 -7.29739458753240200D-01 -2.64753555345311100D-03
13 16  1.98319626242205600D-04  3.68229119690375600D-04  8.79732782332381900D-04  2.50404100916948400D-03 -4.65743284989241300D-05
13 17 -2.40391529894802200D-04  1.45962620791429000D-02  1.66298044032339000D-03 -7.12104511111013200D-04 -6.84629102983172200D-02
13 18 -1.52963031856941400D-03  6.99925406168868300D-02 -8.10117327834507400D-02 -7.30073502738415200D-01 -2.73238949439076700D-03
13 19 -5.07193230274395000D-05 -1.09616950283749200D-04  6.56634022494744900D-04  2.87160845422163700D-04  7.51890230593120100D-04
13 20  1.73610924955941600D-04  7.90273372735768100D-05 -3.65349803712684400D-03 -2.32621983548212600D-04 -5.23967896832132100D-05
13 21  2.01048175407647600D-04  1.46452605985317700D-04  4.69043590256607400D-05 -2.86520933427466700D-03 -4.79527554717438600D-05
13 22  2.91316208974646300D-03 -3.15659399435899500D-03 -3.03824295137026300D-02 -1.69995561051859900D-04  1.71834549715384100D-02
13 23  3.05261737820918500D-05 -1.72139811453198500D-02  1.91235903104587700D-02  1.81431709460785000D-01  6.28702127006369500D-04
13 24 -3.04494224270614800D-05 -8.41180305228991300D-05 -1.44047203730604500D-05 -1.52449530673459400D-04  7.61464546345774300D-04
13 25  6.86936095347849600D-05 -1.57399985836763100D-04 -3.69854115910958800D-03  1.41961848906297900D-04  4.18061580438205600D-04
13 26  2.19303717314616200D-04  7.78378236376342800D-05 -1.01196196250210300D-04 -2.83844142356475700D-03 -5.50345439250701500D-05
13 27  2.89347596748964100D-03 -3.71301475183553100D-03 -3.03135268973226100D-02 -1.36539468232848600D-04  1.69472122827559200D-02
13 28  1.68529517948091800D-04 -1.71157418007040200D-02  2.18829843984589500D-02  1.81074476257751900D-01  4.69637992608520600D-04
13 29 -6.41890097848893700D-04  1.59337129905067000D-03  1.35570737888764800D-02  2.86208720130510000D-02  2.48381577389624300D-01
13 30 -6.31082748874937500D-04  9.75192511845535000D-04  1.36606390005461000D-02  2.70745135490479300D-02  2.48632980269594100D-01
13 31  5.15226098963693500D-04 -1.26201734521511300D-03 -1.31951767101988100D-02 -2.86515282734716900D-02 -2.48431586002872900D-01
13 32  6.24432822147310900D-04 -1.76845853668441400D-03 -1.31927325341662500D-02 -2.71557935333909700D-02 -2.48319225167357200D-01
14  1 -2.38759510092982500D-01 -4.51762695934963500D-01  7.19102144196876200D-01 -4.52032446684475600D-03  2.40734859112499100D-01
14  2 -2.83124651524626100D-02 -5.78938577941411900D-01 -4.13713681478107200D-01  7.40654501846349200D-02  1.86424175407270200D-01
14  3  1.63543472542143700D-01 -3.49967647949413200D-01 -3.05013514310225500D-01 -2.87381416404972500D-03 -3.86588088047524200D-02
14  4 -2.38697842871881600D-01 -4.51646553986618700D-01  7.17397088508425900D-01  3.45905863240900900D-03 -2.40497718043909000D-01
14  5  3.00629301434018000D-02 -5.90373069470385600D-01  4.00870248259493200D-01 -9.12329689427555900D-03  1.70339295199720700D-01
14  6  1.73192724257041000D-01 -3.43532019456761600D-01  2.99007576841733400D-01 -6.41895099956106100D-02 -7.48707382150249900D-02
14  7  2.38690067432629000D-01  4.51606011546850500D-01 -7.16236947136630100D-01  3.04278228896217500D-03 -2.41342947899703600D-01
14  8  2.37026487352834200D-02 -5.89824054924015900D-01  4.01806032712639500D-01 -1.74119528180607500D-02 -1.70202043857486400D-01
14  9 -1.69468918472426000D-01  3.39670962329912900D-01 -2.97582525276437700D-01  6.79869161395026700D-02  9.32359795233983400D-02
14 10  2.38908992531639400D-01  4.51998830608362300D-01 -7.21283334334991800D-01 -4.42550038726304900D-03  2.41162341684684500D-01
14 11 -2.53254837242554100D-02 -5.80962987684256700D-01 -4.12469879425572400D-01  8.12184929781556400D-02 -1.87211914045605900D-01
14 12 -1.58975736789534300D-01  3.46187650835140200D-01  3.05524941216930200D-01 -4.32778593187175500D-03  6.17911747184815300D-02
14 13  1.33432875361050300D-04  2.62659564470662900D-04 -2.21120364363862700D-03 -4.43047757879361100D-01 -4.35995427977132700D-03
14 14  2.31282613067479200D-02 -6.97227696386010100D-01 -6.29075077477101600D-03  3.96482143816419600D-02 -7.85492662686648300D-04
14 15  7.93669504965624900D-04 -8.17684227866215800D-06  1.54422335615538300D-02 -5.52001054146793400D-03  1.83668019869696800D-03
14 16  3.56054682713653000D-04  6.79351257786647500D-04  2.24218762295214300D-03 -4.42931770417813100D-01 -4.33707179548106000D-03
14 17  2.55903201249360900D-02 -7.00656410425724400D-01 -4.23523483853946300D-03  3.68587709176919200D-02  1.04416497393487100D-04
14 18  2.31542215889041000D-04 -3.35958713282383100D-04 -1.60866073471541300D-02 -1.98772103378051200D-03  3.58314843352121500D-03
14 19 -1.21186289377527500D-04 -2.77379943952146300D-04  1.02125676416577300D-03  3.67578442935951700D-04 -9.66029852080529200D-02
14 20 -8.79920474876151100D-04  4.43885382415884500D-03  3.87344968901687200D-01  3.61040551404988100D-03 -1.86436175136396100D-02
14 21  2.47824669068303400D-02  3.13708574876473100D-04 -2.01717808120969900D-03  8.52251393092242500D-04 -4.62965589327726500D-04
14 22 -3.89285803764903800D-04 -3.26314813037836800D-02  3.37853528408687800D-03  2.15527864527919300D-03 -5.51893849139914500D-03
14 23  3.41638179608478100D-03  2.10255669531358700D-03  2.15199704668668300D-01 -2.25258719299041000D-02 -1.00598846404157500D-02
14 24 -5.72811519303541600D-05 -1.27116832674391400D-04  4.00986813609855000D-04 -8.90122510418148800D-05 -9.62744214904890500D-02
14 25 -8.57999466834578900D-04  6.14749040860659400D-03  3.86236001577186400D-01  3.40632766009881800D-03 -2.38398175619298700D-02
14 26  2.47953123641461200D-02  3.38245522798988400D-04 -7.25491425350350600D-04 -9.18320252020872300D-04  6.18459391142923100D-04
14 27  2.99860860878006100D-04  3.26133154462809700D-02 -3.84140738528224200D-03 -1.50305953298536600D-03  5.95432507821284100D-03
14 28 -3.28856146239067800D-03 -2.66576361582216500D-03 -2.14418322623838800D-01  2.49891765578562500D-02  1.39475908026230900D-02
14 29 -1.38081209109425200D-01 -1.67958576469616000D-01 -7.85239822328676100D-02 -3.39803205914635200D-01  4.33582186508592700D-02
14 30 -1.38306487038873500D-01 -1.68904203281475300D-01 -8.90500820025250000D-02  3.38165845950489000D-01 -3.25153124467469200D-02
14 31  1.38122123335870100D-01  1.68404363254848600D-01 -8.91600171292423600D-02  3.37941795892971100D-01 -3.38852225714640700D-02
14 32  1.38036152691634600D-01  1.67875352374350900D-01 -7.85522673127280300D-02 -3.39902584010039300D-01  4.15180544839382000D-02
15  1  1.59676504034545100D-03  3.65409158847279100D-03 -3.33049923437905400D-02  6.16839333349758500D-03  2.22730615282292100D-02
15  2  1.61864488217779300D-01  5.12650082478741200D-02  1.88903630860869900D-02  2.56818840275093500D-01  1.97250474189883200D-02
15  3 -1.39350149183701300D-01  1.19625101764712900D-01 -2.04715345510440500D-02  2.05982303394780000D-01 -7.18065652652284300D-01
15  4 -8.48849769724799800D-03 -1.67075520719702400D-02  5.36524070487393700D-02 -6.17389522537757000D-03 -2.10767681039231900D-02
15  5 -1.62640590341639600D-01 -6.73673287407874800D-02 -2.85967803927637800D-02 -2.55150431338778100D-01 -1.25285056538323700D-02
15  6 -1.38619810028898900D-01  1.51148315682731300D-01 -5.46992283342842400D-02 -1.74378910622530000D-01 -7.19731078346885400D-01
15  7  8.51548584624047500D-03  1.67392680340091300D-02 -5.39589390113650900D-02  1.12992314411771800D-02  1.54380160283195600D-02
15  8  1.63060751972432800D-01 -3.95533218392516000D-02  3.06144529608598100D-02  2.60724877120268300D-01 -2.08891354798574900D-02
15  9 -1.44755818802742500D-01  1.65644954282600200D-01 -6.38837733632481600D-02 -1.72139703470399900D-01 -7.16267682638259500D-01
15 10 -1.50521543936800200D-03 -3.49494976416775700D-03  3.23763854807068800D-02 -1.13955760219605600D-02 -1.40242035058889100D-02
15 11 -1.62521246665181600D-01  2.20121516739170800D-02 -3.85944504342495600D-02 -2.58474539757434300D-01  1.77637447131036700D-02
15 12 -1.42949273111178600D-01  1.25185528398075200D-01 -1.22649624129885500D-02  2.05268786839789300D-01 -7.17245332648023100D-01
15 13 -1.99453697554496700D-03 -3.17052998899908700D-03  7.29177569862939400D-02 -1.77080508164578800D-03  4.50278571294256900D-03
15 14  8.49719114609500400D-02 -1.40060013193508400D-02 -3.16626545204442200D-02 -8.79905150850073400D-02 -2.18954582961413700D-03
15 15 -4.01229437738090700D-02  4.23124896034230700D-02 -9.53287721738367400D-03  5.99203236943292700D-03 -1.88762491228283500D-01
15 16  2.26705646935396500D-03  3.71728950338608200D-03 -7.20343291683116100D-02 -1.08672889306994900D-02 -1.45952692000416400D-02
15 17 -8.31898272249443100D-02 -5.64306758281116400D-03 -9.45649029857997300D-03  9.34736653609631000D-02  3.13406774758557400D-03
15 18 -3.46125687081090200D-02  3.14785009605236600D-02 -1.02000939737673100D-02  4.96109103957254400D-03 -1.90422945371654300D-01
15 19 -1.03366799052041700D-03 -2.55596222952529500D-03  4.08050930113527900D-03 -9.20040550042734500D-03  1.75357788398319400D-03
15 20  5.48742671256505800D-03  5.84851205235425900D-02 -3.98037640945838200D-03 -2.13635891886220500D-02 -1.79381972908128000D-01
15 21  2.80576084450195300D-03  1.04528199153904900D-03  4.46627414564218800D-02 -1.03226730038541400D-04 -4.00118696174226900D-03
15 22  4.10441369178070100D-03 -1.67587113720537700D-03  5.87488834025853000D-04 -2.27196981329495500D-02 -2.13142637007032200D-03
15 23 -2.78348559084435700D-02  2.99662822785138700D-02 -3.78135856436770400D-03  2.62885554428223000D-03 -1.29592038089541200D-01
15 24  9.47427562222484700D-04  2.35177307123636300D-03 -3.29912468253917200D-03  9.40154685811357300D-03 -4.47445160664891400D-03
15 25 -7.70805622402014000D-03 -5.80878465190719600D-02  1.51042357807262200D-02  1.92525496529581800D-02  1.79286767471871900D-01
15 26 -1.95981997723793600D-03 -8.95891151453744900D-03 -4.38044241686623000D-02  1.63877892254173200D-04 -4.88183863751513800D-03
15 27  4.71796074526051300D-03 -7.03641879335742500D-04  5.11658252480625200D-04 -2.25372329111100800D-02  2.65123156092287300D-03
15 28 -2.40220726555354600D-02  2.13708410946126100D-02 -9.98090878216061200D-03  2.47989028522897800D-03 -1.31194825255427500D-01
15 29 -4.14063586253501100D-03 -1.27664081381474900D-02  9.48692033676067800D-04 -1.93275092343437400D-03 -7.62936157907001500D-03
15 30  8.38083033122284200D-05  7.62246267927128100D-03 -3.51678509803170300D-03  9.47877657671518600D-03  6.21673398768571300D-03
15 31 -2.04765711494522800D-04 -7.96180001201857300D-03 -4.32903782015012300D-03  7.90291360434574800D-03 -8.00220778077762400D-03
15 32  4.08013261732987100D-03  1.25275668114904200D-02  1.80963417032722900D-03 -1.24260611606142900D-04  7.41866880593631700D-03
16  1 -4.55920334792825800D-02 -2.88195948999212100D-02  5.01705183962576700D+00 -7.00985545110890300D-02 -2.89133113472818600D-01
16  2  3.52420773522033800D-02  5.51846056024114300D-01 -3.99654079933820700D+00  4.18843787555862900D-01 -1.55558076084111700D-01
16  3  3.17585373365063900D-01 -1.62027297280958200D-01  2.66679694246123800D-01 -3.24415182223798900D-02 -7.36893426583790900D-02
16  4  4.56982348342691400D-02  2.90801697026633900D-02 -5.01715518128782700D+00  7.88994545479086800D-02 -2.87608776051734600D-01
16  5  2.90368371803713200D-02 -4.25667046242356100D-01 -4.00571220636944900D+00  4.73211613181077200D-01  1.40681830413603600D-01
16  6 -3.06903084794770100D-01  1.66221254381166900D-01  2.84355226589487000D-01 -2.85473562268419900D-02  5.06661598546282500D-02
16  7 -4.58971702089582500D-02 -2.94505688384804300D-02  5.02108896323434000D+00  7.91367134459547400D-02 -2.87395079677693000D-01
16  8  2.70478683197005500D-02 -4.21127312461019400D-01 -4.00143534450648600D+00  4.71868719967139500D-01 -1.40056335449692000D-01
16  9  3.08213916582869200D-01 -1.68157581133177800D-01 -2.83044504549234200D-01  3.14234616830044900D-02 -4.27460931121857600D-02
16 10  4.59127014529246800D-02  2.95211105780567300D-02 -5.02085732932979700D+00 -6.98087748873976500D-02 -2.88741931469673700D-01
16 11  3.72165786493522300D-02  5.46889355106669100D-01 -3.99222159953535800D+00  4.19369233445882200D-01  1.55294253605874400D-01
16 12 -3.15890512746943700D-01  1.60596259141066200D-01 -2.66715024804831800D-01  2.92749917458845500D-02  8.14319461613800900D-02
16 13 -3.11188984940428800D-01 -4.99696822872018200D-01  2.30193273465891500D+00  5.82968342069452700D-03 -3.56025231396487900D-01
16 14  3.96735671601705100D-02 -3.48829932411648300D-02  2.49369492713666800D+00 -2.78718792899402200D-01 -4.84814516054921400D-02
16 15  2.39008049626540300D-01 -1.90526598021047300D-01 -6.17906185581262500D-03 -8.40452680175249300D-03 -5.55047479221626700D-02
16 16  3.11630633300255500D-01  5.00383732212198000D-01 -2.30295143133756500D+00  5.57459125008817400D-03 -3.56640894689510900D-01
16 17  3.97342242876612700D-02 -4.35021872078068300D-02  2.49443704147969300D+00 -2.77337055396714900D-01  4.80556992969754300D-02
16 18 -2.38804307493484100D-01  1.90748608196507600D-01  6.11273368196735700D-03  8.64319792059155400D-03  5.68219996529100200D-02
16 19 -1.59648194848394500D-01 -3.38859705279944000D-01  1.84025974896959200D+00 -1.48858149670734500D-01 -5.18558511011915200D-03
16 20  3.19802018636115900D-01 -3.57382942051469200D-02  6.23904909415853400D-03 -3.56825211053286100D-01  4.13204905601633700D-02
16 21  6.63755500830396000D-04 -4.50220360878449100D-02  4.75232978309948200D-03 -4.32339202459694600D-02  3.89813960146189000D-02
16 22  4.25252423135016500D-03 -1.15213215260262100D-03  3.06781351263631500D-03 -4.26360308199045800D-03 -6.90832452483928600D-04
16 23 -4.69926648956588800D-01  4.70617481409070700D-01  1.20428635546765400D-02  2.87799872837170100D-02  1.22629985222716700D-01
16 24  1.59582640795951900D-01  3.38673222237472300D-01 -1.83958687563839400D+00  1.49007726124126100D-01 -4.84196648926208400D-03
16 25  3.19775442733186100D-01 -3.55824132493484200D-02  4.67753540336692900D-03 -3.56607170655953300D-01  3.83608973918207100D-02
16 26  7.58651197165239200D-04 -4.50068304968036400D-02  5.29769290077316700D-03  4.31686252999434700D-02 -3.88398784438081100D-02
16 27 -4.32874685613455200D-03  1.15899436231310200D-03 -3.06412236966507600D-03  4.66369596196292600D-03  1.14579504134141900D-03
16 28  4.69037804383553000D-01 -4.70183599424894600D-01 -1.16425998566703600D-02 -2.88711011413080800D-02 -1.23382861921273800D-01
16 29 -1.41517822624289800D-01  3.69555864527381900D-01  1.81445299656231500D-01  2.95312987201201300D-01 -4.27667994904290000D-02
16 30  1.41603358071194600D-01 -3.69624861320483000D-01 -1.90387477733359200D-01  2.91252551650283400D-01 -2.26703625177486800D-02
16 31 -1.41759138967880800D-01  3.69080575183454500D-01 -1.90793806786774200D-01  2.92081994620231300D-01 -2.23371930493216100D-02
16 32  1.41793066062335100D-01 -3.69233116267371900D-01  1.81458314644744100D-01  2.95335632731507500D-01 -4.31497705957277100D-02
17  1 -6.31185084596572200D-02 -6.74235000725642600D-02  9.32853084772683600D-01 -2.87917160055838300D-01  2.59535783111393500D-01
17  2 -1.37590928250586800D-02 -9.16841967752843500D-01 -6.13424835473330600D-01  1.17807861426052400D-01  3.59982610496762700D-01
17  3 -7.90530189732155000D-02 -2.80929591523547300D-01 -3.03482536026299700D-01 -4.82861451750006600D-03 -1.00787455959436400D-02
17  4 -6.14143669714469300D-02 -6.37181936501534400D-02  9.31770512107159900D-01 -2.80181505776668300D-01 -2.61990209046908500D-01
17  5  4.43516299168379800D-02 -8.98813482833003600D-01  6.51671068834687100D-01 -2.51625592285746200D-02  3.41847967775759800D-01
17  6 -6.67982963411698600D-02 -2.75049671434589900D-01  3.07954250939209600D-01 -7.25755144423056000D-02 -4.46611732980808100D-02
17  7 -6.05375093014880700D-02 -6.21528008721768200D-02  9.14595582324596900D-01  2.79727463292165600D-01  2.61563557651721500D-01
17  8 -4.45876047695248200D-02  8.91436394527624900D-01 -6.47121806418549700D-01  2.42501004808795400D-02  3.41369968115532100D-01
17  9 -6.70809751750984200D-02 -2.74288992940433000D-01  3.07722212046213300D-01 -7.43723613476452000D-02 -4.47158094048665400D-02
17 10 -6.32056048029614000D-02 -6.75779421021840500D-02  9.44021342756618400D-01  2.88128766364523700D-01 -2.59471756933453400D-01
17 11  1.34328598391049900D-02  9.21421709534008100D-01  6.20122906983227000D-01 -1.19819354354974200D-01  3.59530423651816000D-01
17 12 -7.93890596223590800D-02 -2.80141364029457100D-01 -3.03259220339608000D-01 -6.73856336471430100D-03 -1.00152617055252800D-02
17 13 -1.53672773924314400D-01 -4.05175161121468000D-01 -1.66607735792598500D+00 -2.43176378212724300D-03  5.88953572384071200D-02
17 14 -6.51577215531968100D-03 -7.67411028118081300D-02  2.21480697762608600D+00 -2.46694294050219500D-01 -4.81292774356789500D-01
17 15 -2.37940805491522800D-02  5.05086854905943400D-01 -9.31307915064685000D-04  6.20269460785055600D-02  7.00359571132434000D-02
17 16 -1.53664953984174500D-01 -4.05090525498847800D-01 -1.67631454158641400D+00  2.06143419648769900D-03 -5.78974433690422500D-02
17 17  6.35635818537890500D-03  7.37574140740906200D-02 -2.22495234291144200D+00  2.43858907188188700D-01 -4.81864399620916700D-01
17 18 -2.37753411662682700D-02  5.05639740787184500D-01 -1.67817512591752000D-03  6.22339515113098200D-02  6.98536463916999700D-02
17 19  9.88026690754356700D-02  2.21731117910038900D-01 -8.25117040832282400D-01 -2.46141987499414300D-01  2.42697832627349800D-03
17 20 -6.39867281756609100D-02  7.25222500457813800D-03 -1.04937072635393500D-02  2.25626268519446100D-01 -2.46974329115949100D-02
17 21  1.15011653752526700D-03 -6.42514125969018300D-02  6.98400033765942400D-03 -1.20704484165728800D-02 -1.06394490644066100D-02
17 22  2.27098974809796200D-02  2.79078911941155900D-04  2.16806621398990100D-03  4.23140742058771500D-03 -1.25097088326161200D-03
17 23  2.98853737685626200D-01 -2.97602766802364600D-01 -9.96908950647778500D-03 -1.78476746528328400D-02 -7.66154979750474800D-02
17 24  9.85539009676977100D-02  2.21171854433563800D-01 -8.22389040297559800D-01 -2.45725490731940400D-01 -2.44332764013219600D-03
17 25  6.35852308083139500D-02 -6.85660417329773200D-03  1.06029668118425400D-02 -2.24040341275689100D-01  2.47426643442600900D-02
17 26 -1.16617070698080200D-03  6.41983526816008900D-02 -7.31956179822904600D-03 -1.21237533125480000D-02 -1.05111631868507200D-02
17 27  2.26349164994001500D-02  3.04465048295203100D-04  2.15670607265399600D-03  4.47991464331609400D-03 -9.09515144612878500D-04
17 28  2.97013467711739900D-01 -2.96103952567127000D-01 -9.69968234366720000D-03 -1.77801739464096700D-02 -7.87744258960336000D-02
17 29  1.45263352579222300D-01  3.26878609097280300D-01  1.41577264388535200D-01  3.27322355720458300D-01 -4.48819579554232500D-02
17 30  1.47282638155443000D-01  3.31851813711685900D-01  1.49188267728701700D-01 -3.20667241483794100D-01  2.74592639757089800D-02
17 31  1.46610031904117900D-01  3.30152017352797900D-01 -1.49057404463496700D-01  3.20265162263488400D-01 -2.84918089168154200D-02
17 32  1.45447136499059500D-01  3.29027821839532400D-01 -1.41441045374115900D-01 -3.27323579228165000D-01  4.39138709737347300D-02
18  1 -2.27137273638952700D-01 -4.72602375190894600D-01  1.42017143844766700D+00  1.99594707600038200D-02  3.18138374180723000D-01
18  2 -3.69003736940042300D-02 -4.54739982036338700D+00  5.13126140023603700D+00 -3.37094208483906000D-01  1.64162040812043700D-01
18  3 -2.21611224751807800D-01  5.74491839397609400D-02 -2.06657250622928200D-01  1.72846517113608600D-02  4.81611180094482200D-02
18  4  2.27646363029693300D-01  4.73073527577554200D-01 -1.42631967969412500D+00 -2.73286585330038600D-02  3.20099308314309000D-01
18  5 -3.43336756112445600D-02  4.39230241746479800D+00  5.21198077054599000D+00 -8.16532512597213800D-01 -1.55762551781083600D-01
18  6  2.15239833280308000D-01 -5.94772814992259300D-02 -2.22004456826300700D-01  3.05810200758982300D-02 -2.37592929254745300D-02
18  7  2.27654633418381400D-01  4.73147145199343800D-01 -1.41935939149199300D+00  2.75232073321124100D-02 -3.20369760740436100D-01
18  8  3.46443427687296400D-02 -4.39290645811121100D+00 -5.21658770689083400D+00  8.28506236972160900D-01 -1.55952675235760000D-01
18  9  2.15431296450621000D-01 -5.94786212148603800D-02 -2.22297295772851600D-01  3.11473570062953800D-02 -2.39601211675841400D-02
18 10 -2.27127105999657200D-01 -4.72653850768067400D-01  1.41311847424666200D+00 -2.02226582097126000D-02 -3.18314884898945400D-01
18 11  3.67027486853383800D-02  4.54780607817619200D+00 -5.13944882359183600D+00  3.26642881531180500D-01  1.64195967164288000D-01
18 12 -2.21909566764556200D-01  5.77135996002685500D-02 -2.06948666738762800D-01  1.65912780757765400D-02  4.79228838641508700D-02
18 13  5.42962438103322800D-04  1.62587331485381100D-03  7.62483477698517300D-03 -2.56841310099613800D-01 -3.04383913503994600D-03
18 14  1.41626474706007000D-02 -8.15638596445196400D+00 -8.73763966861944300D-02  4.49234642056865300D-01  1.74769986589970400D-03
18 15  4.67647896807785000D-04 -2.21534776270679700D-03  1.87303392499643800D-02 -2.54472510169677900D-03 -1.55037208610029400D-03
18 16  7.92572043238211100D-04  2.00643761668328100D-03  3.27471583068051100D-03  2.56783162008448900D-01  2.51809924336993900D-03
18 17 -1.41533633397747300D-02  8.15681556034622300D+00  8.98550816417996000D-02 -4.49682963154683900D-01  1.98681000435847400D-03
18 18  3.49504215952211200D-04 -2.33631422031143500D-03  1.86861226878833900D-02 -2.39522661707208600D-03 -1.26770040682616000D-03
18 19 -5.73367136215208700D-04 -1.27556504387783900D-03  4.89713216750210400D-03  9.00381612689482300D-04  2.75803549272651600D-01
18 20  3.11551890051516600D-03 -1.52026886402640100D-02 -1.37575559360566300D+00 -1.45124522521454300D-02  7.58316058746125200D-02
18 21  3.34097387690962500D-02  4.94307343515660200D-04 -1.84862295449590500D-03 -3.57013553142185900D-04  3.15078790265871900D-04
18 22  4.19347628808357000D-05  1.44932039485888800D-02 -1.61117445187077300D-03 -8.49482796372890600D-04  1.13594339588480000D-02
18 23 -8.65139677309715400D-03 -2.70803718575128500D-03 -4.18678557622950200D-01  4.57510887892289100D-02  2.39737765377777600D-02
18 24 -3.81705622908658400D-04 -8.60003425882562900D-04  2.99307716244652000D-03  1.27412907934572800D-03 -2.75669751008424800D-01
18 25 -2.81438213702533700D-03  1.51719836666316300D-02  1.37514226471999100D+00  1.40120398388355000D-02 -7.55738436847377400D-02
18 26 -3.35111629053047700D-02 -6.82575364419348900D-04  1.88444594534506500D-03 -3.08863885326863900D-04  2.65027534338018700D-04
18 27  4.38363509874568400D-05  1.44880426277069000D-02 -1.63611567555616100D-03 -8.20234142941993600D-04  1.14277320665274200D-02
18 28 -8.06208307003588600D-03 -3.36564899649152200D-03 -4.18370689839144700D-01  4.69567344059774700D-02  2.36452546206455700D-02
18 29 -1.65808811612256500D-01 -2.96372783025824900D-01  2.65319810716660800D-01  4.21597158003194300D-01 -6.24004016655662800D-02
18 30  1.64301517531339500D-01  2.93246284104268100D-01 -2.79974369392552600D-01  4.19821776080440400D-01 -3.14939247526962100D-02
18 31  1.64308391435463500D-01  2.93871564184735100D-01  2.79789331252477800D-01 -4.19203018397745900D-01  3.25912300619265700D-02
18 32 -1.65741629552199000D-01 -2.96825309359873700D-01 -2.65119005216713700D-01 -4.21456887873075900D-01  6.08648467504697900D-02
19  1  4.05282357684743900D-04  8.92207061263076800D-04 -9.58234415505574100D-04 -1.35604506180600100D-03 -1.62909654706156000D-03
19  2 -1.82961785820452300D-02 -3.81573183403746500D-03 -7.40664317715644200D-03 -7.78093455134870700D-02 -3.17669876898966000D-02
19  3 -1.78483746179102200D-02  4.96153623078069000D-02 -4.42303531578286700D-02 -3.43817407214071700D-01 -8.79174988638713000D-02
19  4  4.74710482572157000D-04  1.05127603270711400D-03 -9.18241662946091400D-04 -1.30003465108798700D-03 -2.27902076636558300D-03
19  5 -1.83893252477273600D-02 -2.44131235467109600D-03 -8.15069358733238500D-03 -7.80792127750158900D-02 -3.22939271516756900D-02
19  6  1.64354666602180300D-02  1.58584604914576400D-02 -3.41394595177973700D-02 -3.48185857765724900D-01  8.51683330128370500D-02
19  7  4.79790200313929200D-04  1.05868859181765200D-03 -1.11404195169060500D-03 -5.88224251256487400D-04 -1.78286765326587000D-03
19  8 -1.82493437086242900D-02 -6.06124859402688900D-03 -9.33842898761267500D-03 -7.74685527410968600D-02  3.28705443167774500D-02
19  9 -1.64477330350597000D-02 -1.64228112817177900D-02  3.50283999212536900D-02  3.47773756050228400D-01 -8.57446579735883400D-02
19 10  4.27446758190264400D-04  9.32795552143039100D-04 -1.06854867024520300D-03 -7.31140157571176100D-04 -2.42057583194273200D-03
19 11 -1.82776825585220000D-02 -4.50465115791417800D-03 -9.92847679214421900D-03 -7.77039626096227700D-02  3.25983310406195500D-02
19 12  1.75155704065727900D-02 -5.01139014471923500D-02  4.31337633323559300D-02  3.43874570146369900D-01  8.73250704770626600D-02
19 13  2.39995638363892500D-04  2.31755720389820600D-04 -6.71243373176838800D-04  6.94568157547702400D-03  1.51316717513774000D-02
19 14  1.29841101914165700D-01  1.72472608525892100D-02  3.61458402934970100D-02  3.44769097551662000D-01 -1.87424705845169900D-03
19 15  1.59187850971647100D-01 -1.57313603913195300D-01  4.22487458151393800D-02 -1.75765353573517100D-02  8.01118252323126400D-01
19 16  2.69770213004960200D-04  2.91734335681586200D-04 -1.19809110504662900D-03  7.05467603647899300D-03  1.41923552397322100D-02
19 17  1.29951461509144600D-01  1.97295762025857500D-02  4.16385143544391400D-02  3.44197037846253400D-01  6.69450663709714800D-04
19 18 -1.56737788172628700D-01  1.56068337508918900D-01 -4.23809265093807400D-02  1.76453957358735500D-02 -8.01704324927912700D-01
19 19 -2.57033556670462600D-04 -5.03784497256894600D-04  3.01959713955962600D-03  1.15776099295361600D-03 -2.03512151657501100D-03
19 20 -3.58047676380633200D-03 -3.84074707711500900D-02 -2.62075302196241600D-02 -5.31586887420883800D-02 -4.81963243780688700D-01
19 21 -2.03475537945065100D-03 -3.68275132799910600D-03 -3.78764135371030700D-02 -1.24000860498701600D-04  1.26915509731873300D-02
19 22 -1.25675501126886300D-02  3.45455552459926200D-03 -1.42608753081614800D-03  6.53548856973476100D-02  1.37378204957793100D-03
19 23 -1.05165255880005100D-01  1.03791473830427100D-01 -2.85402060366435300D-02  1.18411827243395500D-02 -5.38985124633402500D-01
19 24 -1.98443544749962000D-04 -3.92583487617500700D-04  2.40132368931071500D-03  9.63489442117531300D-04 -2.09383015991337300D-03
19 25 -4.88293748396900100D-03 -3.82181728746351400D-02 -2.57217748039088100D-02 -5.48930113841449400D-02 -4.81635570888193200D-01
19 26 -2.04265689293933900D-03 -4.72236580728147400D-03 -3.77641060053082700D-02  6.14038698695550600D-05 -1.30256168971722200D-02
19 27  1.29642130273025500D-02 -3.44029058225803300D-03  1.45313395426439000D-03 -6.52807053147115300D-02 -2.32473105581203100D-04
19 28  1.06999772002385800D-01 -1.06767298896804600D-01  2.83234998264383400D-02 -1.20118282809086500D-02  5.38263721882018500D-01
19 29  1.22294473598913400D-05 -6.77468462747722600D-04  1.92429796375774800D-02  4.04059182892908900D-02  3.54272476449271200D-01
19 30  1.74023279615616600D-04 -5.96888205422220100D-04  1.90979330068790000D-02  3.92463316362342800D-02  3.54077018311559100D-01
19 31  8.88673909482789600D-05 -5.84587028250291200D-04  1.90224440889543100D-02  4.02154144873757100D-02  3.54165513306616900D-01
19 32  5.28889257199611800D-05 -7.01791065433778200D-04  1.90282438120827200D-02  3.91797669609751100D-02  3.54699308645079100D-01
20  1  2.78810563235616100D-01  5.29431459129411400D-01 -6.02234018251073600D+00  3.69243313085535500D-01 -3.79814861685661400D-01
20  2  2.32269294445902900D-02  3.49750341974443700D+00  1.47988313177476200D+00 -3.54012530271557500D-01 -2.37281993069842800D-01
20  3  2.73213751166098500D-01 -3.59317580962550700D-02 -4.97760842786365600D-02  1.80837817857110000D-02 -3.83092889567757500D-02
20  4 -2.79150041003908800D-01 -5.30058411537606100D-01  6.02313159476478200D+00 -3.56893634003380400D-01 -3.86901005490834100D-01
20  5  6.21906974258801000D-02 -3.54275032547051000D+00  1.41026956560144200D+00  3.18812186965647600D-02  2.39344614744176800D-01
20  6 -2.74328108034864500D-01  3.49834932906864900D-02 -3.40506180913562700D-02 -8.91246193625789200D-03  4.19639444788774700D-02
20  7  2.79443527067432900D-01  5.30565569222714800D-01 -6.02780207106229100D+00 -3.57324052676128800D-01 -3.87010363504508500D-01
20  8  6.32150342936575700D-02 -3.54582731303232100D+00  1.41021766904740000D+00  3.33050179967782700D-02 -2.39862489050250300D-01
20  9  2.74139886697260000D-01 -3.42773976470084300D-02  3.34653332703254600D-02  8.60160849402651800D-03 -4.27408229134298200D-02
20 10 -2.78942317897364800D-01 -5.29752450121526600D-01  6.02470902541681300D+00  3.68863324496349100D-01 -3.79651909499303100D-01
20 11  2.23120722110193400D-02  3.49860334760258600D+00  1.47808901597931800D+00 -3.55232593278157400D-01  2.36789764689008900D-01
20 12 -2.73115008112427400D-01  3.63252434234192200D-02  5.00079669201521000D-02 -1.76442477234758400D-02  3.73606350719957500D-02
20 13 -2.01041789266700700D-01 -3.55554828748886400D-01  6.99877971768267600D+00 -4.00215229584398200D-03  2.38582231305594000D-01
20 14 -2.69426667550482400D-02  7.37382388036660100D-02 -4.82715144372045500D+00  5.43756398879761100D-01  5.99219465061640600D-01
20 15 -1.06040256314457500D-01 -4.93179208747183200D-01  5.48579387164415500D-03 -6.90807379098475500D-02 -5.27332711345283700D-02
20 16  2.00985739484157300D-01  3.55651129408415600D-01 -6.99619856292023700D+00 -3.83054973663948000D-03  2.39105590062313000D-01
20 17 -2.62291997081049800D-02  7.61661860696658700D-02 -4.82697675920781300D+00  5.32827812582942900D-01 -5.98646875850048900D-01
20 18  1.05621317068468600D-01  4.93025558781580900D-01 -5.47610920278200600D-03  6.90671832825694900D-02  5.03539646363866500D-02
20 19  9.93004106882553900D-02  2.11575444547311700D-01 -1.12319977204339800D+00 -4.67630048870624500D-01  3.56292656421010100D-03
20 20 -2.22345805793983400D-01  2.45684216033027700D-02 -8.97027180417922500D-03  5.49989519702038200D-01 -6.12963891719441300D-02
20 21  1.65565170753610700D-03 -1.06549057152962400D-01  1.14516687902051400D-02 -5.26012785643899300D-03 -9.34901577266351200D-03
20 22  1.46091436291047400D-02  2.13057840714309600D-04  1.23565337125367800D-03  3.11127851230772500D-03 -1.40795439338240500D-01
20 23  4.99571803704792400D-01 -3.58776364366550100D-01 -1.35312959679887100D-02 -1.27641474787730400D-02 -1.11082389527467300D-01
20 24 -9.93520391965032500D-02 -2.11671013261124100D-01  1.12353558970893500D+00  4.67876517837613100D-01  3.48654304128510200D-03
20 25 -2.22286313399678400D-01  2.50434355151429300D-02 -8.54871009631669300D-03  5.49689897397559600D-01 -6.14919158707231300D-02
20 26  1.66730206437395900D-03 -1.06568892817668300D-01  1.22632969154872500D-02  5.28830307883233500D-03  9.31607360605019900D-03
20 27 -1.46043766848827900D-02 -2.10238120866089200D-04 -1.23452925845289000D-03 -3.16842567765967200D-03  1.40590796128948300D-01
20 28 -4.99034282466365300D-01  3.58443486337416200D-01  1.35649250206325000D-02  1.27427365304525100D-02  1.13063896274859600D-01
20 29 -2.05924789306565900D-01 -9.32519439479567100D-01 -6.74758014455659100D-03  1.80026628361309100D-01 -1.96200578732621200D-02
20 30  2.06016264559072500D-01  9.32122731691873000D-01  1.12836159221769200D-03  1.80132351870062000D-01 -2.05473708545755500D-02
20 31 -2.06051556902505300D-01 -9.32354815200263000D-01  1.35792847610421900D-03  1.79614040294210000D-01 -1.98605737904541600D-02
20 32  2.05722677288641200D-01  9.31984342415276900D-01 -6.45411340006055400D-03  1.80207611588734100D-01 -2.00439734373939300D-02
21  1  2.18613841808564800D-01  3.57723024914632600D-01 -2.39418496890005600D+00  1.68973301946058600D-01 -2.12524984185146400D-01
21  2  1.45233909586900800D-02  8.35194573591596200D-01 -9.38790252500858000D-01  6.12599691009952700D-02 -1.28476352331754900D-01
21  3 -2.41993069053252900D-01  3.70469421385007000D-01  9.27453939196976700D-02  2.12901452464973900D-02  7.52536230837554900D-02
21  4  2.18808211156472200D-01  3.58146812995297700D-01 -2.39096885995021800D+00  1.61570555919165700D-01  2.14895138192612400D-01
21  5 -3.31128072542246600D-02  8.02016388656894300D-01  9.53931909425474000D-01 -1.49664994410470100D-01 -1.23412407856639000D-01
21  6 -2.45403244934373000D-01  3.68815652791012100D-01 -8.10270730783985100D-02  4.03471491779384100D-02  8.57104095929931800D-02
21  7 -2.18667615127346800D-01 -3.57767100385601200D-01  2.39065016027347700D+00  1.61960835559888700D-01  2.15206596057026200D-01
21  8 -3.26264308215123200D-02  8.02921063865953400D-01  9.54126514341283500D-01 -1.51203065637917200D-01  1.23803136869421800D-01
21  9  2.45382131192637900D-01 -3.69185268062060000D-01  8.16254568505731100D-02 -4.03512148449356700D-02 -8.52955580704737900D-02
21 10 -2.18895446657789100D-01 -3.58234027994266900D-01  2.39706803069251500D+00  1.69324005089469200D-01 -2.12768629796577000D-01
21 11  1.50181170907513100D-02  8.36337021380561900D-01 -9.37299236039604100D-01  5.94562083650719900D-02  1.28863307397679600D-01
21 12  2.41802418377894100D-01 -3.70665725775575200D-01 -9.29603829762408500D-02 -2.11172828600406800D-02 -7.60081201527078400D-02
21 13 -1.84185197182369600D-04 -3.78423824847555600D-04  3.37729726229393800D-03  1.38066899929212500D-01  1.57381156207691800D-03
21 14 -7.60405222434338900D-03  2.16046350211285000D+00  1.95106944033847100D-02 -1.18600140593270200D-01  2.21465788673703700D-02
21 15 -1.32263147124126800D-02 -8.92026415495932400D-03 -7.94287505605990700D-01  9.06750755986100200D-02  4.45157968976196100D-02
21 16 -6.42695497014501200D-05 -2.38963618008123000D-04 -5.86023999992070200D-03  1.37940564195022700D-01  1.55181909847756600D-03
21 17 -7.61705162617129600D-03  2.16070990893491600D+00  1.66525810686086900D-02 -1.18292752705910000D-01 -2.20793639697502300D-02
21 18  1.31154570558043800D-02  8.96390691394652700D-03  7.94656132458843800D-01 -8.49575481999861900D-02 -4.44239172380395800D-02
21 19  1.30755489222493600D-04  3.02623501695465100D-04 -9.48141320927097200D-04 -2.61913164645405800D-04  1.99247773403151500D-02
21 20  1.62486231923973700D-04 -1.08857280737467700D-03  1.38919806324259100D-01  1.98035321301794300D-03 -7.73145816771033600D-03
21 21  2.40363873853253700D-02  2.19624523307960800D-04 -1.31606198660497200D-03  4.32491718348826000D-04 -2.85118081977351700D-04
21 22 -1.47373636370423400D-04 -1.53913143264072300D-02  1.76909265333457500D-03  8.69021339259614000D-04 -1.27658149836278900D-02
21 23  8.38308660951730100D-03  4.38272837411303500D-03  4.63612976622923700D-01 -5.09367538196306600D-02 -2.61515275247318400D-02
21 24 -1.40251431751283700D-05 -3.59871736659606500D-05  4.07696193715158500D-05  3.49140069637968700D-05  1.97232630627293700D-02
21 25  1.58441981739733400D-04 -1.08522889619288800D-03  1.39470333340719800D-01  1.59854173255559300D-03 -7.69334085519560300D-03
21 26  2.40806264465233600D-02  2.65682442106936500D-04 -1.33246856839715600D-03 -4.14917902970957400D-04  2.60073638308255300D-04
21 27  1.54844264662098000D-04  1.54207577711065100D-02 -1.64247897124088600D-03 -8.68392764700219500D-04  1.27879884683134900D-02
21 28 -7.93228588296031000D-03 -4.85570258535317000D-03 -4.63850942266077800D-01  5.16681277760025300D-02  2.60442207180825000D-02
21 29 -2.38684311267750900D-01  5.61662943587465600D-02 -2.12837447770064700D-01 -3.04717479989588800D-01  4.58662442359517200D-02
21 30 -2.38409645295313000D-01  5.71358764594747700D-02 -2.22239933485196800D-01  3.00792596256453300D-01 -2.18120176116481700D-02
21 31  2.38581801009232200D-01 -5.64853438494158900D-02 -2.22588806839309600D-01  3.01151932856437900D-01 -2.20128053269331200D-02
21 32  2.38908664526933500D-01 -5.60067809165484600D-02 -2.12789653082400100D-01 -3.05201683377436100D-01  4.58062522529242400D-02
22  1  3.67108911530128400D-01  7.90707057941437600D-01 -3.02417873645377800D+00  1.86369984523485100D-02 -8.38872336537737100D-02
22  2  8.40108255376765600D-03  5.12589599803692100D-01  1.23847551403276500D+00 -1.66173764930355200D-01 -1.20611775685755900D-01
22  3  1.40460242812246700D-01 -1.98484671264905700D-02 -3.23719200737408100D-01  4.76564491009252000D-02 -1.06197887176647500D-04
22  4 -3.66886647735332000D-01 -7.90307422218437500D-01  3.02260232863730300D+00 -1.61181361785016900D-02 -8.41189594030511700D-02
22  5  1.03525414059260000D-02 -5.51114499305365000D-01  1.22890699717644100D+00 -1.08876202878485900D-01  1.38201629334839800D-01
22  6 -1.50326153903799700D-01  1.21245245689589900D-02 -3.16376699171220400D-01  2.30863082465401800D-02  4.15502418855851300D-02
22  7 -3.67258044296136000D-01 -7.91000434756073700D-01  3.02691404976503600D+00  1.62843715275166400D-02  8.40561575181335600D-02
22  8 -1.02891422485228100D-02  5.53004638888873200D-01 -1.22922435467584300D+00  1.07743610402222900D-01  1.39017979552884000D-01
22  9 -1.50959833603597900D-01  1.19418540507163700D-02 -3.15426591145846000D-01  3.27845329464342500D-02  3.59719463054058800D-02
22 10  3.67172212114347800D-01  7.90877227779820400D-01 -3.02555135523597700D+00 -1.86156990984984000D-02  8.34522706251973600D-02
22 11 -8.39488117652345500D-03 -5.13227366100503300D-01 -1.23943919639851200D+00  1.67438250236484900D-01 -1.21448820637394800D-01
22 12  1.39356006335173600D-01 -1.79071856977783900D-02 -3.25167807442763100D-01  3.81833655756486200D-02 -5.67226877338993400D-03
22 13 -8.00666404138203900D-06 -6.57938339729895800D-05 -1.55725462216110200D-03 -4.88340100619416700D-02 -4.97828958141010900D-04
22 14  2.68725129024640400D-03  1.22395193190034400D+00  1.22133474602893000D-02 -6.73265478114043100D-02 -1.42351507044281700D-02
22 15  8.55083533393218700D-03  5.68431537049592600D-03  5.22944874793170300D-01 -5.73735074471816200D-02 -2.92499612592717900D-02
22 16 -1.35045108646453500D-04 -2.89742234887277900D-04  1.42127878209977500D-03  4.88542160626837600D-02  4.81345602525439100D-04
22 17 -2.69011812777266700D-03 -1.22254606065324600D+00 -1.20431410982233800D-02  6.72257611279774200D-02 -1.44964924387864900D-02
22 18  8.77548394670169500D-03  5.72100849208314300D-03  5.23274538661746200D-01 -5.83134197416226100D-02 -2.93337561899450700D-02
22 19  9.03817003445487000D-05  1.96637759981196800D-04 -5.55734476882741400D-04 -2.59246656605437200D-05 -2.15071805552167800D-01
22 20 -2.09300983593809100D-03  1.18246771559025000D-02  9.32511351777538500D-01  8.99787933419151500D-03 -5.12650308626877500D-02
22 21  3.82515717454241700D-02  3.70755498524322300D-04 -2.09772126262163200D-03 -5.86384069587087700D-05  4.34731662841182700D-05
22 22  1.51652406742006800D-05  3.08671959385262800D-03 -1.93503604025182800D-04 -1.70665275316670900D-04 -1.59083076741499200D-02
22 23  9.98305470520565200D-03  5.92525296894487900D-03  5.87262551352353900D-01 -6.31718389427796000D-02 -3.29442403099108500D-02
22 24 -2.44980721966610800D-05 -3.73731831501132800D-05  3.20853003596705800D-04  1.96346346411330700D-05  2.15128443123589800D-01
22 25  1.97157204444462400D-03 -1.18139689522707800D-02 -9.32431536836600100D-01 -9.13601417819385300D-03  5.12659096250477900D-02
22 26 -3.82286442065525800D-02 -3.97492411868555000D-04  2.10629695233870900D-03 -9.72718699064095200D-05  3.76308998756054900D-05
22 27  5.96409700309492100D-05  3.04665678302129000D-03 -4.80228423827024400D-04 -1.69522206814039300D-04 -1.61977434943029000D-02
22 28  9.83614660570849100D-03  6.36159688859443000D-03  5.86625437958970900D-01 -6.66432940120068700D-02 -3.29024857381252200D-02
22 29 -1.12296695993883200D-01  3.89836567585798600D-01  3.35314396432154000D-01  2.55024634904695800D-02 -1.64737584561343300D-02
22 30  1.12409274262867400D-01 -3.89592158187730600D-01 -3.36040093956273800D-01  1.81835571842838800D-02  1.16272567423242900D-02
22 31  1.12607666732440600D-01 -3.89277129675108100D-01  3.35262013310112500D-01 -1.90716039140482700D-02 -2.03774701192775300D-02
22 32 -1.12443124490686000D-01  3.89355383073841800D-01 -3.34798512528334300D-01 -2.47966526402859800D-02  2.52694017183559300D-02
23  1  3.60083127378011800D-03  7.42794653943661100D-03 -3.70648762344722900D-02  3.48972182456692400D-03  5.70032620550375800D-03
23  2  4.98275192471774500D-02  9.21568594461925700D-03  9.63441370326624000D-03 -1.77738139743670900D-03 -4.14689301953915300D-02
23  3 -9.51307879571352100D-02  1.36599718152527000D-01 -7.82342193293887500D-02 -4.33616930141901900D-01 -4.80454055696026900D-01
23  4 -3.49296615661374900D-03 -7.22710254355111800D-03  3.62344436069426100D-02 -3.41263751206759400D-03 -5.54367038990110400D-03
23  5 -4.98175038014779900D-02 -9.35500288227679300D-03  1.00607745349438000D-02 -4.68345507354762400D-04  4.30617687716005600D-02
23  6 -9.38552827527383000D-02  5.07935139811375900D-02  2.23863535949992700D-02  4.55020349444615600D-01 -4.77455794231331800D-01
23  7 -3.62643203719737300D-03 -7.46771252097259300D-03  3.78439422638858800D-02 -1.86562099258253400D-03 -5.62058070841757300D-03
23  8 -5.00601167048039700D-02  1.00323783651835100D-02 -9.88118051788363200D-03  6.60338171962017100D-04 -4.15380469049099500D-02
23  9  9.33968151281750600D-02 -5.18587682232654500D-02 -2.75937549160265400D-02 -4.54594492821652000D-01  4.77793805469619700D-01
23 10  3.57119273732109600D-03  7.38904361063673700D-03 -3.71601843463119400D-02  1.93042302631599600D-03  5.49021382495909700D-03
23 11  5.00367851449959200D-02 -9.45224007417857400D-03 -1.02839640403265300D-02  1.49805356850206400D-03  4.03076540624623900D-02
23 12  9.55070356501810100D-02 -1.35814689712642900D-01  7.29668169570932800D-02  4.34330514955891300D-01  4.80991943915377100D-01
23 13 -2.42002254117109900D-06 -8.44979801715384000D-06 -3.47239149191440500D-04  1.54640523484017900D-04 -5.78588180641997500D-06
23 14 -7.50766910643330800D-06  2.08402005296120500D-02  6.17919458700405800D-04 -1.09480729991039600D-03 -3.87175263749125500D-03
23 15  5.61550130962991300D-05  3.81559762439475600D-03 -9.95418320489695400D-04 -4.01585119248771000D-02 -6.66207373702293900D-05
23 16 -2.81603658211675100D-05 -5.50429158475409900D-05  5.40386405889956600D-04 -1.51258026096882700D-04 -1.98482222232845800D-05
23 17  7.56249875352775200D-05 -2.02513445177675900D-02 -6.30538865906097900D-05  1.32454323485606200D-03  3.58412124232219400D-03
23 18  7.60378651787535000D-05 -3.66015910750124900D-03  8.22574660650424000D-03  3.92648926146291700D-02 -5.23230384979940100D-04
23 19  1.38395597215084900D-05  2.80351480704232400D-05 -1.12228890324630700D-04  2.56073451626150800D-05 -2.62410758462942000D-03
23 20 -4.00758341510138700D-05  1.25669218788680300D-04  1.05386615881627100D-02  3.19452773854150600D-05 -8.52948483423195500D-04
23 21  5.20330175552252300D-04  9.21431291910092500D-06 -6.76299371806829200D-05 -1.66807269115592100D-03 -2.29344936603552600D-05
23 22  1.69100718481635300D-03 -1.89852731319222800D-03 -1.78126373815756100D-02 -2.54436107407655400D-05 -4.88204129316453400D-03
23 23 -6.83032076500340600D-05  4.95034450081438800D-03  7.70505324944788700D-05 -5.13564100176722100D-02 -8.14167785750393200D-04
23 24  1.43794255624417700D-05  2.97417209250075300D-05 -1.60532717165926700D-04 -2.53809253819469900D-05  2.58402980771339100D-03
23 25  4.60647636419998700D-05 -1.63568796406222000D-04 -1.03893412707691300D-02 -1.45042436857687900D-04  4.38719260206048300D-04
23 26 -5.07400697296034300D-04 -2.73201096935984500D-06  2.25088723609461300D-05  1.66371207492431300D-03  2.93992547286109800D-05
23 27 -1.69311132965287100D-03  2.12738688445379000D-03  1.77813507012103400D-02  3.26443067108883200D-05  4.59878764609359800D-03
23 28  2.55787722550316800D-04 -4.85457536864391000D-03  1.13515276667080000D-02  5.01162736717957000D-02  2.57834924398906900D-06
23 29 -1.26373501264772900D-03  4.40919295866185600D-03 -2.28500134763089700D-02 -5.36845100503266600D-02 -4.75888273127386600D-01
23 30  1.21823522472272900D-03 -4.39464875058790200D-03  2.27830041935646100D-02  5.32744186798438800D-02  4.76219992303951000D-01
23 31  1.34142542946751300D-03 -4.26585339415812200D-03  2.84201908381012100D-02  5.38327829829107500D-02  4.75863102988816500D-01
23 32 -1.18347655755350800D-03  4.27418272335852000D-03 -2.85085626210467600D-02 -5.34031870941155400D-02 -4.75698907141661100D-01
24  1 -2.15717958624567700D-01 -3.27858877440728700D-01  3.75917235126217600D+00 -2.65925427302677000D-01 -4.31357192445901100D-01
24  2  6.28855266376705400D-02 -2.42826469099734900D+00  6.66618107160489400D-01  5.34961070432435100D-02  1.42670898317273000D-01
24  3  4.48220164476633200D-01 -5.90891062793905900D-01 -8.24848236325241800D-02 -3.67298761696693800D-02 -1.34352864372524300D-01
24  4  2.16182665144042900D-01  3.28775074438420700D-01 -3.76011259991709400D+00  2.79625132083574500D-01 -4.26208288720930400D-01
24  5  3.26909501016119300D-02  2.40720602665653900D+00  7.14103927786969300D-01 -2.07556337565112800D-01 -1.38816790992798900D-01
24  6 -4.51653923299156800D-01  5.90470714291955600D-01 -6.07377041807752400D-02  5.26288256176741700D-02  1.38432151420576700D-01
24  7  2.16084791368114500D-01  3.28616345615068800D-01 -3.75933841631397000D+00 -2.79838211216853300D-01  4.26581559047999600D-01
24  8 -3.29465949335462800D-02 -2.40702733808445700D+00 -7.14402703554332000D-01  2.12395318230293900D-01 -1.38721603209903100D-01
24  9 -4.50969279485335300D-01  5.89690882695235700D-01 -6.05668179846964000D-02  5.37129045034479400D-02  1.42462798667877300D-01
24 10 -2.15567766580101100D-01 -3.27580494046389400D-01  3.75766287961009500D+00  2.66015146459943100D-01  4.31743673432294100D-01
24 11 -6.27345463200711400D-02  2.42770217569668200D+00 -6.68097623883552600D-01 -5.81947620932240800D-02  1.42490808052430900D-01
24 12  4.49128103447653100D-01 -5.91618911500084400D-01 -8.25407434371675400D-02 -3.78766441025652100D-02 -1.30373471215810100D-01
24 13 -1.83805493620045600D-04 -2.70548910070942100D-04  3.61623020965872600D-03 -2.92890647424173400D-01 -2.33317114924895500D-03
24 14  1.60468143554590400D-02 -3.28666228096432800D+00 -3.04129054195490900D-02  1.80527965714599000D-01 -1.63064504797828900D-02
24 15  1.07550851386340900D-02  5.55136534114842000D-03  5.85485760251964000D-01 -6.46385693754295000D-02 -3.29917016279853600D-02
24 16 -2.81118602783951900D-04 -5.09291730988836500D-04  2.50390725746454000D-03  2.92794429103192300D-01  2.40292578065724000D-03
24 17 -1.60472717852175300D-02  3.28638797547529400D+00  3.17692514238292500D-02 -1.80638865369031200D-01 -1.60062206536828300D-02
24 18  1.02095542504985700D-02  5.79666640318510800D-03  5.85473899159714600D-01 -6.49694130256532600D-02 -3.29537216391411900D-02
24 19  1.83422796456416700D-04  3.61286574444443100D-04 -1.46916418511687100D-03 -9.20667143468527700D-05  6.10219750968370700D-02
24 20  4.29028670794430400D-04 -3.33633524092893300D-03 -2.16962617370868600D-01 -2.69818646887884800D-03  1.19773518139977400D-02
24 21  9.99121027915614300D-03  5.36659617206850200D-05 -5.50659429040856700D-04 -2.38457348337375400D-04  1.88182329405772100D-04
24 22  5.02750189337313700D-05  9.27752024937578500D-03 -1.13467360687308800D-03 -5.31754768763059000D-04 -6.85055948525754800D-03
24 23  4.11655986976203100D-03  2.73399961549588700D-03  2.58364174803259500D-01 -2.81359141084028400D-02 -1.44648241146594000D-02
24 24  2.89840871741261900D-04  5.50824297185645300D-04 -2.88140055710413600D-03 -5.08082937148638600D-04 -6.09342966390894400D-02
24 25 -9.63880583912008800D-05  3.29149806535626600D-03  2.16802227798457600D-01  2.99502665992334500D-03 -1.20421147914660900D-02
24 26 -1.00577998365575000D-02  1.12424985137641200D-04  5.23591565077837200D-04 -2.31815013209425200D-04  2.16021422954205900D-04
24 27  1.57935902546612800D-05  9.29102270502271300D-03 -9.41392020061645200D-04 -5.41706432007621600D-04 -6.90920502211183700D-03
24 28  4.10951354218399900D-03  2.79969147992783400D-03  2.58315647930549000D-01 -2.90577018955112200D-02 -1.44271506486481500D-02
24 29  3.90972340715581400D-02 -5.14473090076207900D-01 -1.35092548175788200D-01  2.57669306169550400D-01 -2.23297995124413300D-02
24 30 -3.91329305918347300D-02  5.14134985474329300D-01  1.26595548548799200D-01  2.59713564702781200D-01 -3.53166597572375300D-02
24 31 -3.92611132153970800D-02  5.14294888175427200D-01 -1.26300048811840500D-01 -2.59524702890492000D-01  3.66595795474873300D-02
24 32  3.92314480823227600D-02 -5.14470894778019700D-01  1.34745002216608500D-01 -2.57717717976920300D-01  2.10306997618528200D-02
25  1 -2.16257790747058400D-01 -4.13027770831320800D-01  1.31718912569024900D+00 -2.08159522246066300D-01  3.35918975432462600D-02
25  2  7.34826380370517800D-03 -6.28151820517592300D-01  4.13334163671322300D-01 -1.32799846645521000D-02  8.61821448369081600D-02
25  3  1.35151309384608100D-01 -2.21333454221515200D-01 -1.02737982605084800D-02 -1.80961340254762100D-02 -4.65277585446321100D-02
25  4 -2.15699891954269800D-01 -4.12148087828993400D-01  1.30578000101415100D+00 -2.06440423029625200D-01 -3.86339196743167200D-02
25  5  1.53893895678115900D-02 -6.09383191983569900D-01 -4.25206623822895800D-01  7.98929952113473800D-02  8.54522207765990000D-02
25  6  1.34419887822957500D-01 -2.19872108599556700D-01  3.98513677010131700D-03 -1.95404788375622800D-02 -4.69059260278285600D-02
25  7 -2.15872044345400500D-01 -4.12486707608429200D-01  1.30823625937227200D+00  2.06559881238367600D-01  3.85018311532377800D-02
25  8 -1.55505293894001900D-02  6.10168728048697700D-01  4.24394688595980300D-01 -8.12536379373735200D-02  8.54260248276716300D-02
25  9  1.34516698503160000D-01 -2.19942723330832400D-01  4.10238991100462400D-03 -1.99705724274469400D-02 -4.69000153870586200D-02
25 10 -2.16267485286962600D-01 -4.13057518373124000D-01  1.31596616382665900D+00  2.08207537035105800D-01 -3.37335734838785500D-02
25 11 -7.51138644930466800D-03  6.27944567801420500D-01 -4.14373508634591000D-01  1.20041234453842200D-02  8.60515822250527300D-02
25 12  1.35281188471092400D-01 -2.21332770696144300D-01 -1.04599424664312100D-02 -1.85613283872853500D-02 -4.62606033487059200D-02
25 13  1.41638888481661500D-01  1.95580374588208000D-01 -4.48808097410628900D+00  6.10187814282026700D-03 -4.04011660633573300D-01
25 14  4.56010286018248800D-02  2.22735694634448300D-03 -3.52400731510249500D-01  3.97737982722580800D-02  1.19409523054806700D-01
25 15 -7.55251353148306300D-01  6.35841830093498200D-01  2.03364933338954700D-02  3.11072786312367900D-02  1.83664201812173900D-01
25 16  1.41490035026322300D-01  1.95308504284243100D-01 -4.48702005179709000D+00 -5.90782051393786400D-03  4.04236293325161600D-01
25 17 -4.45125886471647400D-02 -1.46172778849442300D-03  3.53080327587614500D-01 -3.91783986255354500D-02  1.19318967184831400D-01
25 18 -7.55770599073992500D-01  6.36451631889159900D-01  2.01089845969331600D-02  3.10460018940435600D-02  1.80189850209483100D-01
25 19 -2.51498649660579600D-01 -4.80819866856729700D-01  2.33968779922880400D+00  3.41313684735227100D-01 -5.30021142967260400D-03
25 20  3.45683804558841600D-01 -3.79102839414810400D-02 -1.44606934888066100D-02  8.79588617450057700D-01 -9.62827393949524700D-02
25 21 -2.17838779720413900D-03  1.35349558527952300D-01 -1.47282037077553000D-02 -1.58641200383398900D-02 -5.42187721257078600D-02
25 22  7.00828921640487000D-02  1.33399642034318600D-03  5.30724610947570400D-03  1.59695555668347900D-02 -1.90675730415555600D-01
25 23  2.56807508760371800D-01 -6.61317783448166800D-02 -7.25711175023915300D-03  8.34558426100820900D-03 -4.08127163357953600D-02
25 24 -2.51520237180355400D-01 -4.80849712551500000D-01  2.33943396353459300D+00  3.41232663253255800D-01  5.40842195951249600D-03
25 25 -3.45528221881748400D-01  3.91125377337646400D-02  1.41996939026741500D-02 -8.79271258690297800D-01  9.96186260370449700D-02
25 26  2.16970932235021300D-03 -1.35269578874984800D-01  1.54154436672792700D-02 -1.58604036921102500D-02 -5.40946015314870800D-02
25 27  6.99550052235981700D-02  1.33917061516582000D-03  5.30752465598777000D-03  1.65454124478455400D-02 -1.90707212645506000D-01
25 28  2.56425125361759800D-01 -6.57179127162535000D-02 -7.11547683004475100D-03  8.33323785090803000D-03 -4.29128051247774200D-02
25 29 -1.96054198648691100D-02  1.27181547901691600D-01  1.33277473967890800D-01 -2.77713369697847600D-01  2.41024245421064300D-02
25 30 -1.97611108897337900D-02  1.27994559440404400D-01  1.24674359059480600D-01  2.80665940314429200D-01 -3.81809488829895700D-02
25 31 -1.98820112027828400D-02  1.28076573404111000D-01 -1.24657764500444600D-01 -2.80554149090834300D-01  3.83402702648620100D-02
25 32 -1.97284364580287900D-02  1.26868036900244800D-01 -1.33074353651586300D-01  2.77754452753527300D-01 -2.39968522398293400D-02
26  1  2.83616850804860600D-01  5.03007743617261300D-01 -4.61492811623750100D+00  3.18416588257219500D-01  4.17519493280758300D-01
26  2 -6.37193443454316800D-02  1.88129805544919100D+00  1.31950389312768200D+00 -2.48289387314028300D-01 -6.47301321670915300D-02
26  3 -3.30734118790105300D-01  3.95464250957196800D-01  8.18078937059849600D-02  1.86173434307057100D-02  9.05311539541585500D-02
26  4 -2.83560694044189300D-01 -5.02887934994373000D-01  4.61424067514205000D+00 -3.31442836510189600D-01  4.11152607211365200D-01
26  5 -2.86343197808691900D-02 -1.92198103256209600D+00  1.28270559878597500D+00 -4.17825356668556400D-02  6.06446008535151500D-02
26  6  3.33011350812773300D-01 -3.93655951666288100D-01  6.58022474123299700D-02 -3.49208479821899800D-02 -9.97675985708793800D-02
26  7  2.83102812729661200D-01  5.02099263278994100D-01 -4.60920050184450100D+00 -3.31362925545365600D-01  4.11175204187487900D-01
26  8 -2.80129282684459300D-02 -1.92005870145577300D+00  1.28275713179708300D+00 -3.93649613621897600D-02 -6.01098345427175700D-02
26  9 -3.32858470260050200D-01  3.92968304802767300D-01 -6.57270283429948100D-02  3.77129458275975200D-02  9.86925718116404700D-02
26 10 -2.83097219097210100D-01 -5.02026269092533500D-01  4.61053579272671200D+00  3.18378257542468000D-01  4.17138056956561500D-01
26 11 -6.43494568866125500D-02  1.87936542937099200D+00  1.31848250527737700D+00 -2.50696591079290200D-01  6.42859675532766600D-02
26 12  3.30274323065342000D-01 -3.94560290618617800D-01 -8.23578636902189000D-02 -2.13109525363131900D-02 -9.13788027586967000D-02
26 13 -1.28404828201830600D-01 -1.49495842051919500D-01  5.36352118271672500D+00 -1.67689799540068000D-03  1.14994178079732500D-01
26 14 -1.28608252308828200D-02  1.08740756617309400D-02 -5.71843107470128800D-01  6.47907058829210600D-02 -6.11127151350080300D-02
26 15  5.56497639091162100D-01 -4.95384923956156100D-01 -1.44530328576021900D-02 -2.63142263688737000D-02 -1.37610816490159500D-01
26 16  1.28395488938058800D-01  1.49442929139729400D-01 -5.36488549821252200D+00 -1.86714697714587900D-03  1.15280063069191000D-01
26 17 -1.27925032094179500D-02  7.53944708234962500D-03 -5.72162117236373900D-01  6.28474587893516100D-02  6.09975043322143800D-02
26 18 -5.56719175491094100D-01  4.95721671158881500D-01  1.44914335738594400D-02  2.63268748271328000D-02  1.37531929971032700D-01
26 19 -1.81054905479416900D-01 -3.44097217840062500D-01  1.70578900690776300D+00  3.22930155451848800D-01 -4.12927052116237600D-03
26 20  2.58235712500866100D-01 -2.83958491550691300D-02 -1.01700765728445500D-02  6.72839782717023700D-01 -7.27402870962809300D-02
26 21 -2.25215943333015100D-03  1.46849231373923000D-01 -1.59102907891870800D-02 -1.37224136927380700D-02 -3.89029858982480900D-02
26 22  5.26253995909885800D-02  9.11133187410878500D-04  4.11229054116127800D-03  1.16720367948935300D-02 -7.14485705952582100D-02
26 23  9.93507100220898200D-02 -2.79021394268302400D-02 -2.62830759400764400D-03  2.90907663431110600D-03 -1.48576635459008600D-02
26 24  1.80985676958501600D-01  3.43957425840553600D-01 -1.70488773405871200D+00 -3.22609059761970600D-01 -4.01985076580009700D-03
26 25  2.58059164330640100D-01 -2.91349257495461000D-02 -1.10537313938430900D-02  6.71874081586949200D-01 -7.71151291275644600D-02
26 26 -2.37719372018564600D-03  1.46618148933719000D-01 -1.67886246762530600D-02  1.37206322990181200D-02  3.87518150893621400D-02
26 27 -5.24724473883795100D-02 -9.55847082483090900D-04 -4.09391203024739600D-03 -1.22737255583303200D-02  7.14060457839967300D-02
26 28 -9.85645471777778600D-02  2.71585013937811800D-02  2.94433325303218500D-03 -2.99620573003110600D-03  1.79834946059213200D-02
26 29 -1.52104505301663200D-01 -6.10778719167136700D-01 -3.54565357648381000D-01  1.57623853737298200D-01  2.39499085609598100D-03
26 30  1.51822656214497100D-01  6.10631534939670800D-01  3.49304634992302000D-01  1.64104185465711400D-01 -3.82443393617864500D-02
26 31 -1.51703531099446700D-01 -6.11238200328133400D-01  3.49658987556695400D-01  1.64386693639383300D-01 -3.62875959061148100D-02
26 32  1.51750500508302900D-01  6.11123169670964700D-01 -3.54672007962402100D-01  1.57377953219806300D-01  4.57458383945202600D-04
27  1 -8.32198899956986700D-04 -1.96887032435201500D-03  2.83605038413341100D-03  3.54088571114114100D-03  6.55785752084553800D-03
27  2  5.18618945360058700D-02  3.91107755345160200D-03  7.83763489201494100D-03  9.21838913897443000D-02  4.04149627922648500D-02
27  3 -1.16401944177403700D-01  7.59869813851394800D-02  1.84793550201258100D-02  4.40131018808283400D-01 -5.87133246662109100D-01
27  4  8.25251902347268900D-04  1.95150420647172900D-03 -3.10709351198408200D-03 -3.51060599211864100D-03 -5.18405740550448300D-03
27  5 -5.21666307157162100D-02 -3.72295438520529100D-03 -1.25687050903017700D-02 -9.17120158493732900D-02 -3.87964727927613300D-02
27  6 -1.15550182182501100D-01  1.54346654975262500D-01 -7.82419405021314000D-02 -4.14242015339375000D-01 -5.90695763326793500D-01
27  7  8.48751268855288200D-04  2.00675095857788700D-03 -2.98070015319162400D-03 -2.06642549015713800D-03 -6.48629772901316000D-03
27  8 -5.20670556230562400D-02 -6.06043840095003000D-03 -7.92049024582967100D-03 -9.21525780503638900D-02  3.95179230902255300D-02
27  9  1.18045559876101400D-01 -1.57563482966327200D-01  8.06645733866763200D-02  4.14224646522882300D-01  5.89947463560173000D-01
27 10 -7.89392126176533500D-04 -1.87178401837987300D-03  2.99444566101195200D-03  2.11254313361403100D-03  5.13520690325856200D-03
27 11  5.21803758405621000D-02  5.94612464097802400D-03  1.27932041964484700D-02  9.16171901780604600D-02 -4.13157089261311100D-02
27 12  1.14069455712531100D-01 -7.27537467863999800D-02 -1.60975419331660000D-02 -4.40525987416266200D-01  5.87753459015901000D-01
27 13  3.80752262182091100D-06  7.28744624315899700D-06  3.00829038417771000D-04  2.56707595263273300D-04  7.27751307972861600D-05
27 14  1.78232221259660100D-05 -1.11396662810518900D-03  1.35399954523496300D-04  1.41421275971994000D-04  6.67831030054258500D-02
27 15  1.43512093046013100D-03 -6.82182239358865000D-02  7.86907971592727100D-02  7.13816070695264300D-01  2.72529533397198200D-03
27 16  1.34622298919420400D-05  3.13966230243280600D-05  4.39447810064135700D-04 -2.35242085636635800D-04 -4.39199285702472000D-05
27 17  1.19169292702769900D-04  1.30323612218572000D-03 -9.01903302223975100D-05 -1.65485159069640600D-04 -6.68014351426462800D-02
27 18 -1.18355157706354100D-03  6.79849867197096500D-02 -8.26755165286420700D-02 -7.13235787198557800D-01 -1.92661006792010500D-03
27 19  3.08210099109080400D-05  5.85688837868707100D-05 -2.91016795276699800D-04 -3.67449578217498800D-05  7.60806767298213900D-05
27 20 -3.38206462727957800D-05  4.39534553275322900D-05 -2.18990936100530000D-03 -1.17588593670312600D-04  3.43907134578615900D-04
27 21 -1.65801296672250900D-04 -1.18205887972729600D-05  1.96295082665880900D-05 -4.80620583886030800D-03 -9.21690994995823900D-05
27 22  4.89837493835992000D-03 -5.45195707284432800D-03 -5.12462518987083400D-02 -2.51984255542763000D-04  1.58389780611050900D-02
27 23  2.79698337136412400D-04 -1.61186763982420000D-02  1.67390102034815400D-02  1.68345299428401600D-01  9.82632235269740100D-04
27 24  3.20047567940793400D-05  6.14547133823182500D-05 -2.89548882119346000D-04 -6.37945762969179300D-05 -7.20238642683342900D-05
27 25  3.53755468726409100D-05 -1.01650879714836500D-05  2.20683231037261400D-03  1.29358712968162700D-04 -2.32247948363560100D-04
27 26  1.64307912130512700D-04  2.31654426270804600D-05 -1.89620360047247100D-05  4.77992732315345500D-03  1.06471391845581700D-04
27 27 -4.88639871499904400D-03  6.13832644177198400D-03  5.11666946223063900D-02  1.33145114135280300D-04 -1.56368273427619600D-02
27 28 -3.76946589230862400D-04  1.60137739319928100D-02 -2.13483774830188600D-02 -1.67822521236726200D-01 -3.39154925465037600D-04
27 29 -2.08126744151590700D-04 -7.60433454660455000D-04  4.66239005486233600D-03  1.01192108140979800D-02  9.28585810492882200D-02
27 30  1.72607818840511400D-04  7.34355207808976700D-04 -4.70844322867863000D-03 -1.08272263803198000D-02 -9.28748529724222800D-02
27 31  2.09973503251256900D-04  7.45076033195804100D-04 -5.30170693624010900D-03 -1.00221383976590400D-02 -9.26627854285953200D-02
27 32 -1.90198220420162600D-04 -7.72108113882273400D-04  5.31138980590099500D-03  1.07068044568733900D-02  9.25598691162053100D-02
28  1 -5.42246678892386700D-05  1.01378549493276800D-04  4.61413267415183800D-03  2.83164096548371500D-03  6.30751314752830700D-03
28  2  6.12943843907624900D-02 -8.16782185555477200D-03 -9.78687601581473000D-03 -9.16262354498302600D-02 -5.02996329572305800D-02
28  3 -5.18861670572391100D-02  1.02185800014469900D-01 -7.62249437207741500D-02 -5.42772370138873300D-01 -2.64109872936409200D-01
28  4  1.18164953700560300D-04  3.58766312078726200D-05 -4.96035058047992200D-03 -2.66981805691527200D-03 -7.50592201707080800D-03
28  5 -6.11392600743810200D-02  8.19784358498289900D-03  1.11835376568034200D-02  9.14717054288263500D-02  5.11732812435650400D-02
28  6 -5.13726982160358800D-02  1.99416972471061300D-04  4.78687097154606700D-02  5.54234362928085000D-01 -2.59738815086238800D-01
28  7 -1.01806997796375000D-04  6.53275936604781800D-06  5.10285558198023100D-03  3.87092965755397200D-03  6.26851543511228400D-03
28  8  6.13282345955437600D-02 -1.53471312716206100D-03 -9.56164204796222500D-03 -9.19265497479681000D-02  5.22838601975368500D-02
28  9 -4.98675943094224500D-02 -2.41626588811466000D-03  4.85113612889998100D-02  5.53571455577490300D-01 -2.60735795707266300D-01
28 10  8.09766587251485800D-05 -4.83793080169028600D-05 -4.83632775170153900D-03 -3.80277004005744300D-03 -7.49598581306281200D-03
28 11 -6.12309586341960900D-02  1.62517553720473200D-03  1.09171735864444500D-02  9.17979158800822600D-02 -5.15439507896608500D-02
28 12 -5.35023341466188500D-02  1.05046284936279900D-01 -7.55360196982989300D-02 -5.42212413091951300D-01 -2.63900262670827400D-01
28 13  2.09267727411231300D-04  1.10881975717919300D-04 -1.59205340052101000D-02 -2.49369079884538800D-04 -1.53412649516187500D-03
28 14 -4.98894809720629900D-03  1.62068074066976500D-02  3.04547868070206500D-02  2.95543563911460700D-01 -9.28950757416717600D-04
28 15  1.25907135132023700D-01 -1.24978184374606800D-01  3.39090575280656900D-02 -1.44282810001038200D-02  6.43057203882928200D-01
28 16 -2.06040827449585500D-04 -9.45819639121471600D-05  1.63927047785392900D-02  2.75953303396905900D-04 -4.52055455087010000D-04
28 17  5.11764893150172800D-03 -1.57099761173962500D-02 -3.62592864297815300D-02 -2.94992265526398100D-01 -1.01538974319408300D-03
28 18  1.27483217972822200D-01 -1.26467828229628400D-01  3.39307418793027300D-02 -1.40137172243773200D-02  6.42706289385276900D-01
28 19  1.00943747725578800D-03  1.93464780692125100D-03 -9.28599763588336100D-03 -2.56667426658498200D-03  2.10025740734806700D-03
28 20  3.18921128432751400D-03  3.87259750501461000D-02  1.90509395607713900D-02  3.56208429707326400D-02  3.53277152591254900D-01
28 21  1.65733450637730800D-03  2.34633643281011900D-03  3.04275269768252400D-02  1.77768226322885800D-04 -1.59142920413679500D-02
28 22  1.57365238150450200D-02 -4.39400842902589300D-03  1.81834131326989400D-03 -8.32383279701560100D-02 -1.23621744431593000D-04
28 23  7.53024083276434400D-02 -7.51787865832117500D-02  2.07093162530126600D-02 -8.67107677293010500D-03  3.92159186272931100D-01
28 24 -9.46155184781750100D-04 -1.81055822255085800D-03  8.72968537524983200D-03  2.46779731283330700D-03 -2.05481085449954600D-03
28 25 -5.41197976546478000D-03 -3.84265214661701300D-02 -1.89908172828945100D-02 -4.34463382150843000D-02 -3.52328002305251300D-01
28 26 -1.61278487854346800D-03 -4.43487412006986800D-03 -3.01822654219787900D-02  7.27537690657765300D-05 -1.68094197463570200D-02
28 27  1.67366659772913200D-02 -4.37963625439754200D-03  1.84766870836171300D-03 -8.29739984776766600D-02 -1.02479273454047900D-03
28 28  7.89703002670133100D-02 -7.79455075324728700D-02  2.06409891395590800D-02 -8.60584722024925400D-03  3.91262664992959300D-01
28 29  2.51431608554148400D-04  2.90273852544678700D-04  2.30238416434783500D-02  4.69010292611907300D-02  4.19734727379213800D-01
28 30 -2.39365595226690500D-04 -2.45439830273203700D-04 -2.29888148839976700D-02 -4.73897817848594100D-02 -4.19759805218956300D-01
28 31  2.28007844522991300D-04  2.33906238550297700D-04  2.22958779766363300D-02  4.69967755018152100D-02  4.20037454253153800D-01
28 32 -2.58123009102491000D-04 -2.54315721583116700D-04 -2.21719831190151000D-02 -4.74714010946090600D-02 -4.19906540764245700D-01
29  1 -2.21491925283985600D-01 -3.51557820861332500D-01  5.49137846153945700D+00  4.49155849507107300D-01 -2.95498098123362800D-01
29  2  9.11842754971676400D-03 -1.51400353638950000D+00 -8.34758561967140700D-01  1.74175969104804100D-01 -4.56050701003320200D-02
29  3  4.96950344482256000D-01 -4.51345274381924000D-01 -2.45887249395069700D-01  1.89237237925191800D-03 -1.11115492429192400D-01
29  4  2.21756930689491200D-01  3.52231983616437300D-01 -5.49080000653632200D+00 -4.39614711429783900D-01 -3.04481188821474800D-01
29  5  5.78096015663043400D-02  1.53974281038346500D+00 -8.05062601323409200D-01  8.59336852086213300D-03  5.87426010839411200D-02
29  6 -5.04866751779765300D-01  4.46124150695825200D-01 -2.19945439193912200D-01  4.96328894974070600D-02  1.37271200266055600D-01
29  7  2.21547728651771800D-01  3.51754781173459500D-01 -5.49178952960645500D+00  4.39337056438904600D-01  3.04713884230659100D-01
29  8 -5.80182562551624000D-02 -1.54000271799658500D+00  8.06193286610262500D-01 -6.41697756937897200D-03  5.82432221253440000D-02
29  9 -5.04491773000346100D-01  4.46248550874998500D-01 -2.19930109622701300D-01  5.00033157186171800D-02  1.37187707998869600D-01
29 10 -2.22010167108747700D-01 -3.52616180427003400D-01  5.49524943199907000D+00 -4.49246453357403300D-01  2.95786944414997100D-01
29 11 -8.91444668626738400D-03  1.51500168133028200D+00  8.34459800809140000D-01 -1.76524095126430400D-01 -4.60248495865391600D-02
29 12  4.97514228976026700D-01 -4.51489379389488000D-01 -2.45758825770721800D-01  1.50522029266634800D-03 -1.11308749616003800D-01
29 13  4.50772250123179500D-05  1.06904246077766900D-04 -5.52800656045595800D-04 -3.83764713187066500D-01 -3.70716553083240000D-03
29 14  2.10935403867796400D-02 -3.22067018985673000D+00 -3.09102681603669400D-02  1.77007511899397400D-01  1.76116626530841400D-02
29 15 -1.06574819922465100D-02 -6.95418066083825500D-03 -6.55550156116952000D-01  7.27613227408849300D-02  3.67108328284465300D-02
29 16 -2.79105333697397900D-05 -3.06777459011622500D-05 -1.87489951616359200D-03  3.83709922182839900D-01  3.67808880407476900D-03
29 17 -2.10894449956425600D-02  3.22289240074649900D+00  2.99066844337785100D-02 -1.77031825876136700D-01  1.77555095819062100D-02
29 18 -1.07777857711667200D-02 -6.97772381073734600D-03 -6.56591235772541700D-01  7.23663212587760400D-02  3.67913269236083200D-02
29 19  1.31349444495672600D-05  1.87601216440638000D-05 -4.57854754329353500D-04 -3.03029458489465300D-04  1.04983794672941000D-01
29 20  9.19952207957885000D-04 -5.75946697286547900D-03 -1.14108152838338100D+00 -1.11184631848700500D-02  6.27462762185968800D-02
29 21 -2.66532939215391300D-01 -2.69445163043037800D-03  1.46639042010402000D-02 -3.77278842030376800D-03  2.32224620913300600D-03
29 22  1.45054221117220100D-03  1.37572734442235200D-01 -1.50840014976090800D-02 -7.71648479575401700D-03  1.96526539084113100D-02
29 23 -1.21180857014956700D-02 -7.53456820691524200D-03 -7.22283329505655000D-01  7.83161917468348400D-02  4.04858909241447600D-02
29 24 -2.06437972435559200D-05 -4.93811697368156400D-05 -1.01006560650651400D-04 -2.22433613341981700D-06 -1.05003331754471100D-01
29 25 -9.23110364035510500D-04  5.76069742845128300D-03  1.13998632451484100D+00  1.10255971710195900D-02 -6.26622808597926800D-02
29 26  2.66345085640533400D-01  2.56031688664906300D-03 -1.46396175306313300D-02 -3.78007628381502600D-03  2.29960686866730400D-03
29 27  1.48046941514720400D-03  1.37359882674145500D-01 -1.53386682263448100D-02 -7.69970250852272400D-03  1.98320686629059200D-02
29 28 -1.20447605154450400D-02 -7.78730814746089600D-03 -7.21145313304080900D-01  8.12748570805047500D-02  4.04350543711782000D-02
29 29  1.93465829569640800D-01 -4.30573105136453400D-02  2.32536939398608200D-01 -2.58596080892075100D-01  1.63280425486132700D-02
29 30 -1.93806683255757200D-01  4.28638359144630400D-02 -2.24891340611373100D-01 -2.62661019064569000D-01  4.18126571547490400D-02
29 31 -1.93915205854330800D-01  4.26606321915471600D-02  2.25045825674457300D-01  2.63135735820869900D-01 -4.14744763559457600D-02
29 32  1.93399325686383400D-01 -4.27927683100421000D-02 -2.32669861503290500D-01  2.58259783159541600D-01 -1.66532048759988100D-02
30  1  4.04736233442050200D-03  1.05992462557395200D-01  1.27497359407636000D+00  2.09552697278484100D-01  4.76348159796447600D-01
30  2 -6.47740826614487000D-02 -2.43522173572089600D-01  2.04147147584140500D-01 -9.94015597042449700D-03 -1.13749477770129500D-02
30  3  3.02900935817723500D-01 -2.91525988040710000D-01  1.61109039005046500D-01 -3.55993565820480300D-02 -8.69805764825246900D-02
30  4  3.78218073149340200D-03  1.05578802088509100D-01  1.27988973339974600D+00  2.25058245735445100D-01 -4.71718674180368300D-01
30  5  4.08633284607137200D-02 -2.38544506593566100D-01 -2.08225567492331800D-01  3.60976910928917200D-02 -2.31653434835183600D-03
30  6  2.97909905389669200D-01 -2.95593371041317800D-01 -1.76405441429923800D-01  1.62970021599870400D-03 -6.82842617795711100D-02
30  7  4.18080108453124600D-03  1.06496405799590800D-01  1.27920264629668200D+00 -2.25258964903489400D-01  4.71929299634375900D-01
30  8 -4.08556418336899800D-02  2.37750263786193100D-01  2.07863296524944300D-01 -3.62932847886348900D-02 -1.69453560200572900D-03
30  9  2.97383706398711600D-01 -2.95689170796706400D-01 -1.76936035698084200D-01  6.39850801119815700D-04 -6.82628125017607400D-02
30 10  4.55006434881498100D-03  1.07140270106632700D-01  1.27341179136596300D+00 -2.10207961577523000D-01 -4.76602603142267700D-01
30 11  6.49007069666426300D-02  2.41974251473222900D-01 -2.04060898654139400D-01  9.75293537826772900D-03 -1.07408933288376700D-02
30 12  3.02416921338282300D-01 -2.91676028009444500D-01  1.61457888562232800D-01 -3.67656120525206400D-02 -8.71882801002304600D-02
30 13  2.14685337654375300D-01  3.98216423977634700D-01 -2.32340076593288500D+00  1.80245804075499800D-03 -1.11720245517082500D-01
30 14  1.24744834734110200D-02 -7.01626027061616400D-03  4.67755189971461000D-01 -5.31547290716219400D-02 -5.25715671113737500D-01
30 15  1.83261436413063400D-01  3.42454234700674300D-01 -6.82551115634781300D-03  5.50500211238295500D-02  2.12990921383169600D-02
30 16  2.14688569098370400D-01  3.98246567191524800D-01 -2.32177725524769100D+00 -1.79484010935433600D-03  1.11513501261442800D-01
30 17 -1.24062937800544900D-02  4.27805976760923000D-03 -4.68108011635780400D-01  5.14240256870208100D-02 -5.25774923621746800D-01
30 18  1.83610794333626400D-01  3.42164129288120200D-01 -5.83467923223825800D-03  5.49824854013888900D-02  2.17780343625780100D-02
30 19 -9.26232061496533300D-02 -1.93513014242785800D-01  3.53686808859328500D-01  1.83498166028427500D-01  1.32313206777929000D-03
30 20 -8.62917234210214700D-02  9.55229941138926100D-03 -2.93940573493614800D-03  2.56936832006913900D-01 -2.80296200394297900D-02
30 21 -1.22530167151735100D-03  8.83091466511866900D-02 -9.56432994476156600D-03 -4.44743345168094000D-02 -1.58136027031695100D-03
30 22  4.60556947871265200D-02 -3.30078478526733700D-04  5.72798758130864800D-03  6.06580690797027600D-03  1.46963501697075800D-02
30 23  6.45196916902375900D-02 -7.92160418599454100D-02 -7.97401649797762800D-04 -5.89340359089948000D-03 -1.81695377426906800D-02
30 24 -9.27216952543728900D-02 -1.93708915321546100D-01  3.54472952192965600D-01  1.83749028153069100D-01 -1.32156452347456400D-03
30 25  8.62235029837805500D-02 -9.68020922015940000D-03  4.00260788875060200D-03 -2.57228718971662200D-01  2.93599866828469200D-02
30 26  1.31021403678318300D-03 -8.83470551960224600D-02  1.01445941734555600D-02 -4.44511931236975900D-02 -1.52487454390123700D-03
30 27  4.59760676675997100D-02 -9.24840539137487000D-05  5.68724495349113300D-03  6.51978261307875500D-03  1.46002040475295300D-02
30 28  6.44422532748353800D-02 -7.90424573223649600D-02 -1.62473716772950500D-03 -5.76697666865419200D-03 -1.95016940228939500D-02
30 29 -4.94551620526672300D-01 -2.54073629976981200D-01 -6.37124768414791200D-01  6.18288177187980400D-02  2.77187560522063600D-02
30 30 -4.94575754992623100D-01 -2.54419072733280200D-01 -6.34960939792021500D-01 -7.39361095666621900D-02  4.28688051798737000D-02
30 31 -4.93411901413351400D-01 -2.53663182760316100D-01  6.34061162765773800D-01  7.30327627722245200D-02 -4.20313710504314800D-02
30 32 -4.93729158525375200D-01 -2.53604757739548700D-01  6.36574365268062000D-01 -6.09074755482812400D-02 -2.71426660293403000D-02
31  1  2.27717075353068000D-01  4.46875861356740400D-01 -1.49068584818060800D+00 -4.79908130790417300D-01 -1.96139357241666500D-01
31  2  4.76095942409366600D-02  1.62601391100991800D-01 -3.84053239583337300D-01  3.46478062037521200D-02  3.10785291423554100D-01
31  3 -4.26480776255376300D-01  1.15695484831822900D-01 -2.82702511221504800D-01  2.04092163013411700D-02  8.65297329257573700D-02
31  4  2.27353421384551600D-01  4.46149211709313600D-01 -1.48813020326585500D+00 -4.85377701226451200D-01  1.86907560528795500D-01
31  5  4.90016943293891800D-03  1.49866360523643000D-01  3.86987227272868100D-01 -5.13080493020493300D-02  2.94731431202198000D-01
31  6 -4.16534673408131200D-01  1.21803242205933600D-01  3.06690530826196200D-01 -4.48199320596765700D-02  5.38467776200490900D-02
31  7 -2.27672136733292900D-01 -4.46589552834401700D-01  1.49419243161291200D+00 -4.85979696627025300D-01  1.86843414974445000D-01
31  8  5.48202039474901500D-03  1.51389841900291400D-01  3.86460694583793300D-01 -5.18526768405237400D-02 -2.94512003866126400D-01
31  9  4.17092352755264500D-01 -1.22580348889137900D-01 -3.06631103143456500D-01  4.51918787672955100D-02 -5.36933699063984400D-02
31 10 -2.27629792394374100D-01 -4.46724497290587400D-01  1.48650463023964100D+00 -4.79632129349543500D-01 -1.96336977413263900D-01
31 11  4.81703083056178700D-02  1.61279357866078100D-01 -3.84966923116844400D-01  3.43392778074895000D-02 -3.10569008744252800D-01
31 12  4.25936929563882500D-01 -1.15367920819630700D-01  2.83118021623617700D-01 -2.00909924854447300D-02 -8.68950246127412100D-02
31 13  5.55227376288184200D-05  6.45978346046490300D-05 -1.86450035292037100D-03 -2.12259435679129600D-01 -2.01711275100779000D-03
31 14  1.16656019729443500D-02  1.73974586680280300D+00  1.72480341261432900D-02 -9.56658413455248500D-02 -2.64541773203400600D-02
31 15  1.59385561993391300D-02  1.05156211210001700D-02  9.58630151422657200D-01 -1.06686748722268300D-01 -5.36707225850374700D-02
31 16 -6.65991214203672000D-06  3.82913447673141200D-05  6.90054860688870300D-04 -2.12448160357162300D-01 -1.87835916502298700D-03
31 17  1.16555153960381700D-02  1.73692497294625200D+00  1.66973966793496200D-02 -9.54908093811116400D-02  2.62609711464851800D-02
31 18 -1.59744312716939500D-02 -1.02865398747910700D-02 -9.58405634414661100D-01  1.05263690896978100D-01  5.37060438879944000D-02
31 19 -6.03297936588011100D-06 -2.08787189306066300D-05 -2.32102333337522000D-04 -2.05870563520278100D-04 -2.82327802575526800D-02
31 20 -3.31143413906615400D-04  1.56018284132053800D-03 -7.06489992421706000D-01 -6.90543447145925700D-03  3.88572648279519000D-02
31 21 -1.47867341343238300D-01 -1.52247308339100500D-03  8.14492994107368500D-03 -4.32199380531583600D-03  2.66538982198462400D-03
31 22  1.65660398333257800D-03  1.59595773899269800D-01 -1.73741455050810700D-02 -8.94951716605445400D-03  1.65784103900053500D-02
31 23 -1.01909624548069000D-02 -6.38744793519579500D-03 -6.09815368312830300D-01  6.63051702236558700D-02  3.41834052299619500D-02
31 24 -4.09824822730920800D-05 -7.83910060661404000D-05  2.81132794548507600D-04  1.55070660323128400D-04 -2.81017080578363800D-02
31 25 -2.76119672039806700D-04  1.54338933563840100D-03 -7.07214442478503100D-01 -7.02879485392914000D-03  3.88862762892028800D-02
31 26 -1.48074208533449400D-01 -1.49412141009298000D-03  8.14280141685195700D-03  4.36445280170366400D-03 -2.67305564964344600D-03
31 27 -1.69139715206054300D-03 -1.59628027932463700D-01  1.79421750150874800D-02  8.94949508861136300D-03 -1.67333795242756700D-02
31 28  1.02241482579462600D-02  6.50923126632940100D-03  6.09996721564035600D-01 -6.85919814219742400D-02 -3.42013220524103900D-02
31 29 -3.22081824729727000D-01 -2.51669744583547200D-01 -4.10237381657862500D-01 -9.51579856233439000D-02  3.31884956798233900D-02
31 30 -3.21601360891832900D-01 -2.51709473346404600D-01 -4.12494266210946400D-01  8.77024941204624700D-02  1.27286913389377000D-02
31 31  3.21544500075150500D-01  2.51596926689355500D-01 -4.12596019912955200D-01  8.75732777484184600D-02  1.20072422784724700D-02
31 32  3.21448127492146200D-01  2.51558853679730900D-01 -4.09710135284624500D-01 -9.57498718966889600D-02  3.24935329900792800D-02
32  1  3.27078408123907100D-01  7.09666118405626000D-01 -6.48044855049497000D-01  4.02743649820031100D-01  1.89546350982532100D-01
32  2 -4.26917023005553100D-02  6.83424857430824800D-01 -1.16450240751474300D-01 -2.31096253323864700D-02  4.12159568054010000D-01
32  3 -2.80020661098503200D-01 -1.32138906955508200D-01  3.29110301037772700D-01 -7.05091977027180900D-02  1.29946202310127100D-03
32  4  3.26748439037714100D-01  7.09076487168587400D-01 -6.42507940705089300D-01  4.08947462458202100D-01 -1.81578351910535900D-01
32  5 -1.38164199917859600D-03  6.77737342119395600D-01  1.30501471099765500D-01 -5.06592144120447500D-02  4.29706994437646300D-01
32  6 -2.90567912937242200D-01 -1.39139081500404800D-01 -3.11104128605862600D-01  5.76175632484584100D-05  3.66987116696162600D-02
32  7 -3.27163930179977900D-01 -7.09708791558924500D-01  6.48766966308827800D-01  4.08514291192271800D-01 -1.80861247632759000D-01
32  8 -1.97825323967861400D-03  6.80484142363293600D-01  1.30004337952813000D-01 -5.18631815455262000D-02 -4.30279647303630700D-01
32  9  2.91872873552130800D-01  1.38406773751498700D-01  3.11560666363988600D-01  5.53129330717333400D-04 -3.73597739779191000D-02
32 10 -3.27328951317809700D-01 -7.10052443339599900D-01  6.48212801609302600D-01  4.03071506583547800D-01  1.88338755666291800D-01
32 11 -4.31789270849298500D-02  6.84030400978959000D-01 -1.16544065796558400D-01 -2.43524876413040400D-02 -4.12493581584784200D-01
32 12  2.80876889314163200D-01  1.31616692270620200D-01 -3.29013394179654200D-01  7.14688668247936600D-02 -9.61695749910681400D-04
32 13  5.12864605607301500D-04  9.37919442189654400D-04 -5.96048490879810600D-04  5.99435038728269300D-02  9.04407136731975500D-04
32 14 -3.32674845460262400D-03  1.43338045076992700D+00  1.55445528944398800D-02 -7.90074052758338300D-02 -1.16968521000072800D-02
32 15  7.23489430114240000D-03  4.46195779886435400D-03  3.94017729332496200D-01 -4.37456609015443300D-02 -2.21916652308300100D-02
32 16  3.87103609794906400D-04  7.07986297448388000D-04 -2.47724335603239300D-03  5.98188054251635200D-02  3.72561714653604800D-04
32 17 -3.27108598910142100D-03  1.43122442462813400D+00  1.10590262456908700D-02 -7.83321387170995600D-02  9.92870237201943400D-03
32 18 -5.98162702601866500D-03 -3.94707534600065000D-03 -3.93618641939978100D-01  4.33170181443424000D-02  2.19431570890862200D-02
32 19  1.99618050627706000D-04  3.88996468917428400D-04 -1.82093482097153700D-03 -6.85123460055529400D-04  2.38288272660001500D-02
32 20  6.41176727664018300D-05 -1.29462448987113300D-03 -5.16832576498690900D-01 -5.67266847864905800D-03  2.84496635153627600D-02
32 21 -1.86524765916618500D-02 -3.91619831346641400D-04  1.04411987975761900D-03 -3.02957312810477000D-03  1.89645818396941300D-03
32 22  1.13311494413610600D-03  1.07368167800233800D-01 -1.16588492110777500D-02 -6.01441694525973400D-03  9.83349100930653800D-03
32 23 -6.20902556471950200D-03 -3.62446544458595200D-03 -3.53528666527305300D-01  3.84503545669552000D-02  1.98155996655145600D-02
32 24  2.63638445472048600D-04  5.20079503768023900D-04 -1.97066552155027200D-03 -5.58459782543302800D-04  2.38844737638514400D-02
32 25  3.59005369704522800D-04 -1.32428279401039600D-03 -5.17490249691325400D-01 -4.00775647717877600D-03  2.83586265569443200D-02
32 26 -1.87966077261273000D-02 -4.01971552046087400D-05  1.02013534159037800D-03  2.80581771249273800D-03 -1.66592151969605200D-03
32 27 -1.13989619279635700D-03 -1.07433281463911800D-01  1.21079262606572400D-02  6.02000221001986600D-03 -9.40653869711264800D-03
32 28  5.43739879554387000D-03  3.96913990156878100D-03  3.53853594590835400D-01 -3.97807217699735300D-02 -1.97877018353011000D-02
32 29  7.24742333212590500D-01  3.82449539786642900D-01  5.88539305116008300D-01 -5.04441684376211100D-01  2.45932938461603200D-02
32 30  7.24803914174310800D-01  3.82661407932546100D-01  5.72768111861501200D-01  5.15449653897470300D-01 -8.91277567009603900D-02
32 31 -7.24913244552402700D-01 -3.82416580709408400D-01  5.73374023387464000D-01  5.15009651608303800D-01 -8.84078759595380700D-02
32 32 -7.25083584716346500D-01 -3.82177150046967500D-01  5.89545045259672300D-01 -5.03988716675303100D-01  2.51978784566912100D-02
33  1 -8.21012387212059600D-02 -3.21140045549656500D-01 -4.92550691369757500D+00 -8.49637407572186300D-02  2.47397258567460400D-01
33  2 -2.31499896562995700D-02  2.21081152272104300D+00  8.96890569064746500D-01 -2.18764286955131200D-01  2.54114367781230700D-01
33  3 -7.61917793105634100D-01  5.07803425324403700D-01 -1.79758627069614200D-01  3.62875074402763500D-02  1.76858107186180600D-01
33  4  8.21301148523021900D-02  3.21197250575553600D-01  4.92349280754515900D+00  7.68774031758461100D-02  2.49145627608872600D-01
33  5 -3.22459281499241600D-02 -2.23812846839084700D+00  8.54500077248684600D-01  2.35351629891529500D-02 -2.43086715919277000D-01
33  6  7.55045048068015600D-01 -5.11958332148739300D-01 -2.19846880791563800D-01  7.89051707770479700D-03 -1.54314910793889200D-01
33  7 -8.21587932556198500D-02 -3.21371441106005500D-01 -4.92601965660875200D+00  7.69478529258404800D-02  2.48840327853216200D-01
33  8 -3.20069876386964200D-02 -2.23719513357764700D+00  8.55618052528061100D-01  2.55316308377568900D-02  2.42153486464385700D-01
33  9 -7.54474862975743300D-01  5.12321376511357700D-01  2.19966759423796800D-01 -6.12593656353713600D-03  1.54433698231696900D-01
33 10  8.18951911744920500D-02  3.20794464883262400D-01  4.92788769315602800D+00 -8.48591178233763100D-02  2.47169939430119000D-01
33 11 -2.32687336592590200D-02  2.21038446001377500D+00  8.97797568816494300D-01 -2.21075451173139100D-01 -2.53586630241918200D-01
33 12  7.61627209219567700D-01 -5.08040578977647900D-01  1.79237025438698100D-01 -3.80024043302767500D-02 -1.76824152505888900D-01
33 13 -4.31102880286225300D-01 -7.71768255312469000D-01  5.93704407177438000D+00 -1.06170686232209600D-03  5.01105678402935900D-02
33 14 -5.52636237016389200D-03  2.75813048568345900D-02 -1.64898690388313200D+00  1.86072595578597800D-01  6.04578674248036400D-01
33 15 -1.62980365432472400D-01 -4.41598308815564000D-01  7.27079363539672200D-03 -6.63248630139913200D-02 -3.72351728469495400D-02
33 16  4.31320486703202200D-01  7.72188131013825900D-01 -5.93562779590451700D+00 -4.83232800391230900D-04  4.98527645557539000D-02
33 17 -5.61056979751833800D-03  2.61783863210706500D-02 -1.65100469679938500D+00  1.81855307334193600D-01 -6.04709173202040800D-01
33 18  1.63294860622681500D-01  4.41414312579359900D-01 -6.36600836949864900D-03  6.62423273886934700D-02  3.74454903764971400D-02
33 19 -7.45203202934916200D-02 -1.49207500791260300D-01  4.12001368504653400D-01  1.93140584490012600D-01  8.12671339006170100D-04
33 20 -4.86901579439378800D-02  5.35063742805119400D-03 -4.81112641967442300D-03  3.03687609745161200D-01 -3.29715230422738500D-02
33 21 -1.83907306466470900D-03  1.15968553993662800D-01 -1.25581550937440000D-02 -1.03497834059362900D-01  1.36759031538165900D-02
33 22  8.98219309055486600D-02 -7.99931520900102500D-04  1.22167815316484700D-02  9.84919781615328300D-03  5.35960906147308400D-02
33 23 -2.44465031934067700D-02 -2.91495874213221400D-02  8.94381944606432400D-04 -5.27503599630898700D-03 -8.99243633458618200D-05
33 24  7.48095272205423900D-02  1.49791744669499600D-01 -4.13864408544293000D-01 -1.93770147804893800D-01  7.24854487753441100D-04
33 25 -4.86635728997872100D-02  5.50738172735083600D-03 -5.31076353679843100D-03  3.04360246627241300D-01 -3.48090602778988400D-02
33 26 -1.92171874133480300D-03  1.16069914196220500D-01 -1.33056047025309400D-02  1.03416853893657200D-01 -1.36829829624321100D-02
33 27 -8.97338709312248400D-02  5.76086965835050700D-04 -1.21783915730457700D-02 -1.03601265839629700D-02 -5.33889541301024900D-02
33 28  2.43212838966257600D-02  2.90676702334766600D-02 -3.72252507032454700D-04  5.18764330018320300D-03  1.28781198401578800D-03
33 29  2.59127161967258500D-01 -2.83584892870918100D-01  5.51333002015555700D-01  7.87042748824332100D-02 -3.86314476887995400D-02
33 30 -2.58876014569255700D-01  2.83752195923198200D-01 -5.53612967326385700D-01  6.85396248144147700D-02  2.22193740207631900D-02
33 31  2.58654189894441300D-01 -2.83866631382208900D-01 -5.53734524941964400D-01  6.88783251111371200D-02  2.20021405559789600D-02
33 32 -2.58255224522463000D-01  2.84125519051948100D-01  5.51085748641111400D-01  7.95166559499438100D-02 -3.85586241415610600D-02
34  1  2.86970825626709600D-01  5.78038070363345200D-01 -6.60864150405289200D-01  3.03857683711885900D-01 -8.11643591117177700D-02
34  2 -7.00344781848307800D-03  8.87277366689000500D-01  3.73863032127426700D-01 -8.92380309044700600D-02  3.60952156278467500D-01
34  3 -3.84027192637564900D-01  2.30750363590968000D-02  2.76701874294164200D-01 -5.17550458517631800D-02  3.83224710097802400D-02
34  4  2.87136028942388900D-01  5.78467942151311400D-01 -6.61965544055368000D-01  3.01289511916911500D-01  8.62994542323182200D-02
34  5 -2.57181865892170900D-02  9.00237215893982600D-01 -3.56663281340644700D-01 -7.98098372561664500D-03  3.76320188986060900D-01
34  6 -3.93449157871222000D-01  1.71289688851605500D-02 -2.54042855116630600D-01  6.78425993307832800D-03  6.75727401525242600D-02
34  7  2.86433038379804600D-01  5.76937548463513100D-01 -6.59845190539145700D-01 -3.00362297040662400D-01 -8.65960234818886100D-02
34  8  2.61475792257065000D-02 -8.98828790811391800D-01  3.55513944867323000D-01  9.02522194637271500D-03  3.75884955951562800D-01
34  9 -3.93323956476359500D-01  1.74390005247969100D-02 -2.53191281712080300D-01  6.36317816941058000D-03  6.80899786914934100D-02
34 10  2.86831756806182200D-01  5.77667492241324000D-01 -6.62965790910069500D-01 -3.03109153236694700D-01  8.16527023272810800D-02
34 11  7.39772827441626200D-03 -8.86736963878682200D-01 -3.75064632262501800D-01  9.04350049452444000D-02  3.60068086895983500D-01
34 12 -3.83582211001003000D-01  2.35141241050198000D-02  2.76407983901515500D-01 -5.21664305253341400D-02  3.78134304176601700D-02
34 13 -4.64445350047977300D-01 -8.45362590100740100D-01 -2.76237408640077700D-01  7.08480982127345600D-03 -4.25546517820704000D-01
34 14  4.81386845133187100D-02  3.47971191165502000D-02 -2.22961471458613600D+00  2.50883444616968400D-01  4.42062782618656900D-01
34 15 -4.40583780001362800D-01 -1.47900261729620900D-03  1.25586140010032700D-02 -2.87245898365060100D-02  5.70372659084870300D-02
34 16 -4.64499309773244300D-01 -8.45374844032357900D-01 -2.77240022536121000D-01 -7.01788580603441300D-03  4.25984189434952700D-01
34 17 -4.67332621798817000D-02 -3.33008324335551900D-02  2.23159197165397100D+00 -2.46530804902004800D-01  4.41912877720823000D-01
34 18 -4.40538849370965200D-01 -1.37402834985738100D-03  1.21197621136881200D-02 -2.87081473212829200D-02  5.66356456395523000D-02
34 19 -4.37901469427976000D-01 -8.82621796167157100D-01  2.67469970194521400D+00  9.58520718862404600D-01  2.76296645353036500D-04
34 20 -1.91081693005806800D-02  2.03902003836710100D-03 -2.23990752289819300D-02  1.38001807415328900D+00 -1.51006191982953500D-01
34 21 -4.73893983593957600D-03  2.97899365037438700D-01 -3.26219320507031400D-02  1.25474047293136400D-01 -1.48929459994232700D-01
34 22  2.34554127010972300D-02  4.49664460816020300D-03 -6.73706951074606800D-03  2.19939370160000500D-02 -3.26387788289512100D-01
34 23  5.98858105106251000D-01 -2.72470316816739400D-01 -1.70781702329294800D-02  4.59807031609103300D-03 -1.11359811010699700D-01
34 24 -4.37709786664340200D-01 -8.82233074656706100D-01  2.67318837854269200D+00  9.57951347786062300D-01 -2.76151998372644700D-04
34 25  1.91023415124974300D-02 -2.21458387513027100D-03  2.20187431133662200D-02 -1.37896637990837800D+00  1.56351507749829600D-01
34 26  4.77042687685598000D-03 -2.97592988696962000D-01  3.37218515687546700D-02  1.25486277119146500D-01 -1.48749980450805400D-01
34 27  2.32637033316591600D-02  4.34846421588304800D-03 -6.73279889303824400D-03  2.26614711784909000D-02 -3.26281613682881400D-01
34 28  5.97945677317166300D-01 -2.71664063634284600D-01 -1.67970812905253900D-02  4.61367256790495900D-03 -1.15311065443976400D-01
34 29 -5.28293590071248400D-01 -4.50637842676245600D-01 -2.33509393138325200D-01  3.99350415464327900D-01 -3.21855606247739800D-02
34 30 -5.27947964409115200D-01 -4.50765562134441600D-01 -2.21197960462071100D-01 -4.02805553023649200D-01  5.72756458507006500D-02
34 31 -5.29078224366614200D-01 -4.51084077619114000D-01  2.21836551895429200D-01  4.03781098901329100D-01 -5.72056407549366100D-02
34 32 -5.29952261901638100D-01 -4.51694118501414400D-01  2.34952920010375400D-01 -3.99896667227234800D-01  3.23315141956171300D-02
35  1  1.00981464007000000D-01  1.36088166723388400D-01 -6.84809259970895600D-01 -2.78228683432282600D-02 -5.10822414551050300D-01
35  2  5.88398060140716500D-02 -8.27577875885987500D-01  1.02265197996453800D+00 -7.12132831246554100D-02 -8.59633462180700200D-01
35  3  5.81741285740524400D-01  2.77892176440176800D-01  2.51615019960268100D-01  4.13039083696976300D-02 -5.30979525641764700D-02
35  4 -1.01560719816794800D-01 -1.37200020521938400D-01  6.87060423414511200D-01  4.39566438774011600D-02 -5.10396888459241200D-01
35  5  5.50004755738505900D-02  7.93510767301006600D-01  1.03891648232544100D+00 -1.58587580823195200D-01  8.44379686939068200D-01
35  6 -5.71928125371603200D-01 -2.72451561567466000D-01  2.87900785058858400D-01 -1.01056640193186500D-01  2.33426232316424700D-02
35  7 -1.02107222650454800D-01 -1.38209683975134900D-01  6.89782673071276600D-01 -4.40210226702411500D-02  5.11628885711761900D-01
35  8 -5.50665268761095600D-02 -7.93162088022119800D-01 -1.03912722595100700D+00  1.60388444463390000D-01  8.45892714205996200D-01
35  9 -5.73512277609072500D-01 -2.72380436596923200D-01  2.87759847181304500D-01 -1.03050191622882100D-01  2.28945446806545200D-02
35 10  1.01549549257951400D-01  1.37116371039681700D-01 -6.87657354305455400D-01  2.80912597732777400D-02  5.12191255354335500D-01
35 11 -5.91049336732248500D-02  8.27401635614294900D-01 -1.02343469945878800D+00  6.94835951218913000D-02 -8.61091770803175800D-01
35 12  5.82952701444670200D-01  2.78139069358504900D-01  2.51804399183356500D-01  4.33914941443284200D-02 -5.38265543717571800D-02
35 13 -4.36184890305374400D-04 -8.67558987861461100D-04 -4.71070426539893000D-03  4.41629896201047900D-01  3.81275658723489800D-03
35 14 -2.42241241014227200D-02 -1.72192454989652100D+00 -1.67643989917800700D-02  9.46728329896604800D-02  2.26954274212664000D-02
35 15 -1.40570403595293600D-02 -8.63838706173732600D-03 -8.29064510432194400D-01  9.22416105513895600D-02  4.65348608467698500D-02
35 16  1.66630794462578200D-03  3.14368737503495500D-03  3.82766631801195100D-03 -4.41426970517188700D-01 -5.15072493396872100D-03
35 17  2.43594713045967700D-02  1.72219628534453900D+00  1.19034691902987700D-02 -9.41318499677259700D-02  2.19375675179326600D-02
35 18 -1.30358580521161200D-02 -8.90170946581790800D-03 -8.29233997101200400D-01  9.12457368109558000D-02  4.63298310431714100D-02
35 19  1.43042873628423200D-03  2.89482314486752600D-03 -7.91309124623162100D-03 -2.58535528554556300D-03 -3.71687411840490200D-02
35 20 -7.13516319342165600D-05  2.01179404042504400D-03 -5.46305593781167200D-01 -9.75162780096352500D-03  3.05119148475534200D-02
35 21 -6.58723852504542600D-02 -1.43093478051067700D-03  3.70828217201058500D-03 -5.55174024215500400D-03  3.66451637130292600D-03
35 22  1.88722387085340500D-03  1.93375929929129600D-01 -2.09109029859058100D-02 -1.09026738017499600D-02  1.42955831586345300D-02
35 23 -1.01388720196625800D-02 -4.15671113897298900D-03 -4.86764273599070900D-01  5.29313230264756900D-02  2.76407651871970600D-02
35 24 -5.53788900334269600D-04 -1.12098154400873000D-03  2.85824946566081500D-03  8.12672970265920800D-04  3.71457194025953700D-02
35 25  5.12447195800177800D-04 -2.05875700246534700D-03  5.46202382340192000D-01  3.41955870348582800D-03 -2.98179299495256600D-02
35 26  6.58706156519197500D-02  3.63938321904966900D-04 -3.59042808916394800D-03 -5.24841316849977000D-03  3.06316931022205900D-03
35 27  2.18524385827717400D-03  1.93275427936918800D-01 -2.18440810345131000D-02 -1.08047433366590700D-02  1.29361612534356400D-02
35 28 -7.28072578732993400D-03 -5.65543546610570500D-03 -4.86553340706370200D-01  5.46832480088523800D-02  2.71169999193713400D-02
35 29 -4.39054886920564400D-01 -1.78610056488757700D-01 -6.60519569390370100D-02  5.14085191397757000D-01 -5.42601513446722100D-02
35 30  4.39710810765866300D-01  1.79331755015446200D-01  5.00428403942572600D-02  5.15725774696147700D-01 -6.05850979769049200D-02
35 31  4.38840808733551700D-01  1.78824040898495700D-01 -4.98035096280144000D-02 -5.14770900359125200D-01  6.05490563387860400D-02
35 32 -4.38484034269978300D-01 -1.78243991559394500D-01  6.60590540833756200D-02 -5.13204745917508400D-01  5.40015455578137600D-02
36  1  3.31673214719580100D-02  8.59612609255450400D-02 -1.21569279201650800D+00  9.20987735358060600D-02  2.60244600876135900D-01
36  2 -3.42892273760142900D-02  4.50984489735781100D-01  9.22602665881304000D-01 -1.28404844151016600D-01  2.58195442851780800D-01
36  3 -1.98092036783710000D-01 -6.01034060680676200D-02  2.65126918848820100D-01 -4.90274607816777500D-02  4.15751218743453800D-03
36  4 -3.29686510318328700D-02 -8.55771954820380800D-02  1.21465470912345100D+00 -1.00261433241677900D-01  2.58490830717080500D-01
36  5 -2.35318175688455000D-02 -4.79087058818647000D-01  9.13448675923524100D-01 -7.62634158745864300D-02 -2.72210423627325400D-01
36  6  2.06819039126784000D-01  6.53913845005412000D-02  2.52586611129723500D-01 -8.27464591265102800D-03 -3.16429553374510800D-02
36  7  3.32775876161619200D-02  8.60304034331878400D-02 -1.21668259514321300D+00 -1.00131101609073000D-01  2.56897654015899000D-01
36  8 -2.35639594546238000D-02 -4.76968354124909400D-01  9.16976979217978600D-01 -7.77948715044937000D-02  2.69640818572918600D-01
36  9 -2.04805491355714500D-01 -6.48353272172023700D-02 -2.53888560674326500D-01  7.25219347217376500D-03  3.30611979275349500D-02
36 10 -3.33068677407722300D-02 -8.61093963913011500D-02  1.21669120336174600D+00  9.21602389500456600D-02  2.58862971617551000D-01
36 11 -3.39560422309597400D-02  4.47808552566972800D-01  9.25636127618953200D-01 -1.27618582317997100D-01 -2.55579007034405600D-01
36 12  1.96474606015475000D-01  5.91044010189318500D-02 -2.66088416598546700D-01  5.03044788428706200D-02 -2.40929927794185300D-03
36 13 -5.46991558057860800D-01 -1.00036964466124100D+00 -2.35792188083126800D+00  8.05962922163562500D-03 -5.53440215170014700D-01
36 14  6.26797040746411200D-02  4.56187346850116300D-02 -2.68683385085611100D+00  3.02208812515518000D-01  1.53946038462351900D-01
36 15 -2.37268727708306400D-01  8.33226892459561800D-02  7.94837476531494300D-03 -5.05152648769277100D-03  4.15280254626857100D-02
36 16  5.46937197196491300D-01  1.00020027979346100D+00  2.35782705128579600D+00  9.46444180629792800D-03 -5.53427620596534300D-01
36 17  6.06641190730162800D-02  3.96949697974725900D-02 -2.68592864556259500D+00  2.96639662182097700D-01 -1.53894234678602700D-01
36 18  2.37050145871059400D-01 -8.31559111924571000D-02 -5.42641867829476300D-03  4.77297174714322600D-03 -4.18864279443210600D-02
36 19  7.12940396209720300D-01  1.44659910817325100D+00 -3.93487653652083800D+00 -1.31510135122208600D+00 -2.74857068442418200D-03
36 20  1.78173588231063900D-01 -1.95012645430083800D-02  3.32087540671166900D-02 -2.05944983134626100D+00  2.25520468351601300D-01
36 21  6.65346245603467100D-03 -4.15968020448395900D-01  4.55149091603029500D-02 -8.44378547599027900D-02  1.88877247961963300D-01
36 22 -1.04439393202061300D-01 -5.42470608206268500D-03 -8.71061787156361200D-04 -3.76632215203411000D-02  4.52268278299983300D-01
36 23 -8.45864685765916400D-01  3.93596407465932800D-01  2.39848250582808800D-02 -5.37134617398087900D-03  1.58498046773270100D-01
36 24 -7.13232550328745300D-01 -1.44720248823150800D+00  3.93625673713667000D+00  1.31559474822436000D+00 -2.87238412213170100D-03
36 25  1.78229105044760900D-01 -2.02035795976798700D-02  3.17081549192899600D-02 -2.05941086753178900D+00  2.33417417466758100D-01
36 26  6.46984025138156900D-03 -4.15956686056318300D-01  4.71814383768718700D-02  8.44551577827012400D-02 -1.88700234218738400D-01
36 27  1.04245076436037000D-01  4.85328034226499200D-03  9.19606468997166100D-04  3.87828073403533600D-02 -4.52440572154197900D-01
36 28  8.45072740174249500D-01 -3.92632168020051600D-01 -2.26606534536631900D-02  5.31439268507692500D-03 -1.64137364294451300D-01
36 29 -3.52934632339768300D-01 -3.94545651614469300D-01 -2.04219154619878500D-01  1.29878071298363100D-01 -3.65591527865844500D-03
36 30  3.53124706371017200D-01  3.94467888049467100D-01  2.00296753395910400D-01  1.33833332027953200D-01 -2.57638061583994400D-02
36 31 -3.54124970525629500D-01 -3.95190854548230300D-01  2.00073644998781400D-01  1.35329287701332800D-01 -2.60269517735004300D-02
36 32  3.54014558847276300D-01  3.94871312027115800D-01 -2.04282359170320800D-01  1.31339675966245700D-01 -3.63921967998634200D-03
37  1 -4.36705808306227100D-01 -6.96098999483578500D-01  1.04159640457294400D+01  1.36544257604071700D-01  2.06019517190701300D-01
37  2 -3.05242452830487300D-02 -3.35390479199823400D+00 -3.56384805331536900D+00  5.79666032852696100D-01  6.99500048573819100D-01
37  3 -7.79278820443072100D-02 -6.21572166529515700D-01 -5.47254346392666700D-01 -1.99074124279255800D-02 -4.17975430571635400D-02
37  4  4.36611910285275000D-01  6.95976352522846100D-01 -1.04135484375696700D+01 -1.42897808558823100D-01  2.03004877042033100D-01
37  5 -1.50352397511917500D-02  3.46377530551550300D+00 -3.49765212754830700D+00  2.07547501451738800D-01 -6.69173730199890200D-01
37  6  5.96124899575844300D-02  6.09561240242307800D-01 -5.56462693260037200D-01  1.42090077769552400D-01  1.03339234198985900D-01
37  7 -4.36754281134442600D-01 -6.96243765362048000D-01  1.04171354047946500D+01 -1.42867264971210900D-01  2.02590416896262400D-01
37  8 -1.51010063667118600D-02  3.46593049178617600D+00 -3.49770664660392900D+00  2.04812383921718200D-01  6.68207813916277000D-01
37  9 -5.88348620886888200D-02 -6.09372951827588400D-01  5.55586044909548100D-01 -1.44053892545449100D-01 -1.03693254454582600D-01
37 10  4.36572572263151200D-01  6.95883436187864700D-01 -1.04179005357341600D+01  1.36457266431521000D-01  2.05387497191357200D-01
37 11 -3.03994336490848300D-02 -3.35460967547366000D+00 -3.56249750997876100D+00  5.82343962175221800D-01 -6.98366983253250400D-01
37 12  7.72086619250029300D-02  6.21158321328244200D-01  5.47155358169607500D-01  2.20420171310665900D-02  4.16106967659488700D-02
37 13  6.41986733431745800D-03 -1.55896217108244900D-01 -6.72635730473342100D+00 -4.52513419206799900D-03  2.60874619539918100D-01
37 14 -2.95381132169582700D-02 -7.62184741828501600D-02  4.88425736775378100D+00 -5.49136241284259300D-01 -5.04060766997918100D-01
37 15  3.58497383158025300D-02  4.68211028682117100D-01 -2.47012344879205800D-03  6.12935101743451500D-02  5.81843642906671900D-02
37 16 -6.05857104063273900D-03  1.56554306225917600D-01  6.72594618895299000D+00 -4.05325272668789900D-03  2.60538876506638400D-01
37 17 -2.86150602531829500D-02 -7.81530072641362200D-02  4.88412564348020700D+00 -5.39999246588142800D-01  5.03941601704187600D-01
37 18 -3.53756901341909700D-02 -4.68565911569998100D-01  3.33191827633502400D-03 -6.13907417135347900D-02 -5.65757471765981100D-02
37 19 -9.44526323643477800D-02 -1.96128252711926700D-01  1.05694543390669200D+00  4.97528707297283500D-01 -8.32747981458951000D-04
37 20  5.34469568502161100D-02 -5.92332915654284400D-03  4.00590676914195600D-03 -2.34672961408824600D-01  2.63597290382243900D-02
37 21 -2.05251725707416800D-03  1.31569269454715700D-01 -1.44823191771835100D-02  9.72664917946005400D-04  3.20215698949817200D-03
37 22 -4.17482190744771500D-03 -1.75655090120038600D-04 -3.09255036717872000D-04 -1.10713824734357900D-03 -1.07498246452028500D-02
37 23 -1.88553131934346000D-01  1.99302956579545400D-01  4.99927890275955700D-03  1.28498982166745700D-02  5.01668789018803200D-02
37 24  9.48250886215184200D-02  1.96880452918643500D-01 -1.05870615231136200D+00 -4.98210177480473100D-01 -8.52451726386889700D-04
37 25  5.32761527304689400D-02 -6.00873055119922100D-03  3.39236699785949600D-03 -2.33323940838410500D-01  2.59504423197381400D-02
37 26 -2.11490259087037600D-03  1.31795931959242400D-01 -1.48392401856858500D-02 -9.99287222231536700D-04 -3.16980319165389000D-03
37 27  4.16909041388569500D-03 -1.65259488794276000D-05  3.27596790759164800D-04  8.00646887001187100D-04  1.10269843553092900D-02
37 28  1.87694787500312400D-01 -1.98721771855621700D-01 -4.55938157326899900D-03 -1.28800984667640600D-02 -5.11918511374068000D-02
37 29 -2.19747984773798800D-01  8.46038779303489800D-01 -1.64833464249537800D-01  5.36589169594213500D-01 -5.14899609938963800D-02
37 30  2.20052289032333500D-01 -8.45785270123819000D-01  1.47996540372478600D-01  5.39773158117178500D-01 -6.85258714547151600D-02
37 31 -2.20425609511660300D-01  8.46001690036224100D-01  1.48019512313026000D-01  5.40331971049299500D-01 -6.87647126788821200D-02
37 32  2.20098415957964100D-01 -8.45660961120385700D-01 -1.64637022072009000D-01  5.37237166428802100D-01 -5.13971735360122700D-02
38  1  4.81262277667596800D-02  7.30657406046160800D-02 -7.73920445474872900D-01 -3.56869123901050500D-01 -1.46822792550575100D-02
38  2  2.04871218807768000D-02  3.70441068193359800D-01  2.07217196390407500D-01 -4.32986078104587000D-02 -3.57287654845354400D-01
38  3  1.87927278370698900D-01  1.69360376474655600D-01 -3.44843439522664300D-01  7.17371471507406200D-02  1.64588935717269500D-02
38  4  4.74937107253288400D-02  7.08945399378199300D-02 -7.90305256637820900D-01 -3.60872350532999300D-01  8.97081376193332100D-03
38  5  1.80657624879832700D-02  3.85027794232272000D-01 -1.89746952874475700D-01  4.66479134213967400D-04 -3.78090860236756200D-01
38  6  1.97606274149822500D-01  1.80484586086933400D-01  3.43509821734320700D-01 -3.94763450029935900D-03 -2.07395426511680400D-02
38  7  4.73910747739343500D-02  7.07587919184185600D-02 -7.86190052918167800D-01  3.60619936059045500D-01 -8.87758672703819200D-03
38  8 -1.88137686621372800D-02 -3.83731848228479500D-01  1.88468126368537600D-01 -5.50538534298348700D-04 -3.77870441884312500D-01
38  9  1.97545441081275200D-01  1.80325000803037100D-01  3.44006610064391800D-01 -4.00308103135482000D-03 -2.14085113293765500D-02
38 10  4.83420825721441800D-02  7.34566394987931600D-02 -7.77699071264622600D-01  3.56581377712826700D-01  1.45122575473596100D-02
38 11 -2.12445114808732200D-02 -3.71966281057859500D-01 -2.08779267398791500D-01  4.33918749492240600D-02 -3.57460005953817300D-01
38 12  1.88132337349098100D-01  1.69327668604719500D-01 -3.44122389869924400D-01  7.17661563191808200D-02  1.70470334172737700D-02
38 13 -4.30907626303995300D-01 -7.76924685123228700D-01 -6.75895142960988800D-01  7.65254628404541500D-03 -3.43029679282456500D-01
38 14  3.86186379774063500D-02  1.90483648004863100D-02 -1.73661390350850300D+00  1.96586926143379200D-01 -4.87377449935373300D-01
38 15  5.52326761939073500D-01 -6.49493120037027300D-02 -1.64965622585582900D-02  2.77298300651890900D-02 -8.07559069953851900D-02
38 16 -4.31141070842160700D-01 -7.77190428176110600D-01 -6.73913813626727900D-01 -7.59862255151665800D-03  3.43321240660115300D-01
38 17 -3.76264157935749100D-02 -1.88215561190071200D-02  1.73924228067942700D+00 -1.91727611284496200D-01 -4.87039340321231000D-01
38 18  5.52572556621770600D-01 -6.55332163005399500D-02 -1.64424188811139300D-02  2.76732090766772000D-02 -7.93489231803048800D-02
38 19 -5.82398284453219300D-01 -1.20068972533768800D+00  2.34329472751482000D+00  8.10552856623160000D-01  5.94614161391940900D-03
38 20 -3.75590984605981400D-01  4.12475893976779500D-02 -2.11921888615281600D-02  1.30526312306284400D+00 -1.43569462582417000D-01
38 21 -3.80745426067071100D-03  2.36233195356004000D-01 -2.59044623171857600D-02 -3.74737434033010700D-02 -7.33902182903283900D-02
38 22  1.10863961693630600D-01  1.26618578805574200D-03  9.25949380388343300D-03  2.41125828500487500D-02 -1.99711286963399700D-01
38 23  5.13375942297592800D-01 -3.13664655334193000D-01 -1.34758528563657100D-02 -6.25391951973591700D-03 -1.06678073689800300D-01
38 24 -5.82170370786390400D-01 -1.20024764350103700D+00  2.34202153316859200D+00  8.10089078174653500D-01 -5.97134230048214100D-03
38 25  3.75440198754640000D-01 -4.24362236718187200D-02  2.12908049273572300D-02 -1.30444185255476700D+00  1.47173815513227300D-01
38 26  3.81996516573320200D-03 -2.36022634291226600D-01  2.67104462150216800D-02 -3.75549951769298200D-02 -7.32304752586872300D-02
38 27  1.10785470435617700D-01  1.29447416686338800D-03  9.25780933485367000D-03  2.42515640197007900D-02 -1.99534370780947800D-01
38 28  5.12668078177192700D-01 -3.13133707396244700D-01 -1.35619365898253100D-02 -6.21000281223562300D-03 -1.08981637719181800D-01
38 29  4.64392395319552500D-01 -1.17019010683252800D-01  2.95623454060674700D-01 -2.48711938552232100D-01  1.17805123348838500D-02
38 30  4.53872040935055600D-01 -1.19666772033984600D-01  2.79213117519291700D-01  2.53838149306443900D-01 -4.38185037559711800D-02
38 31  4.54373426520720400D-01 -1.19136213933263000D-01 -2.79559888291491900D-01 -2.53817115118443100D-01  4.33351344071638900D-02
38 32  4.64592305213943300D-01 -1.17319189211772400D-01 -2.95768358588432800D-01  2.48880277457808900D-01 -1.22434870742464400D-02
39  1  6.22765218200482000D-02  2.03709748226608400D-01  1.18070797566837100D+00  3.29504200092905800D-01  1.29874303916329700D-01
39  2 -3.20610427369495200D-02 -6.19785191339641500D-01  9.80174273236897400D-01 -7.76100038183775800D-02  1.85551364779173400D-01
39  3  1.52880713960914700D-01 -3.38432078740088100D-01  1.04920507580419000D+00 -1.51178638192769100D-01 -1.22291541974205000D-01
39  4 -6.27932241430228800D-02 -2.04462862223804200D-01 -1.17122954938878300D+00 -3.29430095578157700D-01  1.23310523866666700D-01
39  5  3.69356013608346800D-03  5.84257228597812600D-01  9.94017987067727600D-01 -1.42228733584212200D-01 -2.38568095451644500D-01
39  6 -1.19978900778095900D-01  3.58546996229740100D-01  1.05046913508069800D+00 -8.14639957701067300D-02  5.39839659023151400D-03
39  7 -6.26966850896071600D-02 -2.04248632304497100D-01 -1.17010943514419900D+00  3.28952661660171800D-01 -1.23118580055633100D-01
39  8 -4.13562067665149100D-03 -5.84163403180929000D-01 -9.94192991920593600D-01  1.44073366008355500D-01 -2.38321614833382500D-01
39  9 -1.20148007331549400D-01  3.58469622164932100D-01  1.05067823470431800D+00 -8.06537472827354600D-02  4.64010205154092700D-03
39 10  6.22027444744862700D-02  2.03517668299121500D-01  1.17965088906815100D+00 -3.29277552357292100D-01 -1.29559201193913500D-01
39 11  3.25592572379301000D-02  6.19627442000134500D-01 -9.80866742742755100D-01  7.59171500120392900D-02  1.85251277971181600D-01
39 12  1.52764953397213400D-01 -3.38016231368393800D-01  1.04928266986601600D+00 -1.52090622670039500D-01 -1.23116013944329500D-01
39 13  2.37106311848541200D-03  4.24299438616349700D-03  2.37480658047915700D-03  3.78706180765594500D-01  5.51201874430472200D-03
39 14 -2.10290090321744100D-02 -1.45611833855052300D+00 -4.44982204147337600D-03  7.89396935259748500D-02  4.20608999391868800D-03
39 15 -4.06659806354033600D-03 -1.39491930378800000D-04 -5.50083248708927100D-02  6.32908596475554400D-03  3.56548197598895100D-03
39 16  2.68561900414103000D-03  4.85401367436784400D-03  3.34179640524542500D-03 -3.78702089775121800D-01 -5.59660538485998600D-03
39 17  2.10307392717817000D-02  1.45631362487690400D+00  3.97470378907929000D-03 -7.89562913962876700D-02  4.25816409942982600D-03
39 18 -4.10069273454079100D-03 -1.57471364889049600D-04 -5.53799186445941600D-02  5.60177944975914000D-03  3.57996557703189100D-03
39 19  3.38082898922565600D-03  6.96544070437159000D-03 -1.35986017558293300D-02 -4.68544204677865200D-03  7.02583964801808900D-03
39 20  2.24572594132052800D-03 -6.26869449022397400D-04 -9.74502881634346100D-02 -8.58387331872828600D-03  6.21550193128656200D-03
39 21 -1.15954543746955200D-02 -1.46988922843870400D-03  7.91430153289922800D-04  2.69526837813001700D-03 -1.10860025553712800D-03
39 22 -1.58666812259229000D-03 -9.15902590517826500D-02  9.84531972778804900D-03  4.98372087741536600D-03 -9.99266907764554500D-04
39 23 -1.68464419563123800D-03  2.68391110339594400D-03  8.14979841859452300D-02 -8.73835663270244900D-03 -3.91631017277538400D-03
39 24  3.12977130375936700D-03  6.45710467116174500D-03 -1.23900638867511100D-02 -4.27193198023476400D-03 -7.02320689919499300D-03
39 25 -2.12952034464839200D-03  6.20288284900434500D-04  9.72306652401030400D-02  7.81748594735266600D-03 -6.12384597407114900D-03
39 26  1.15532731909048300D-02  1.33823072920382400D-03 -7.73897745162271600D-04  2.71422916101133300D-03 -1.14662829932779000D-03
39 27 -1.56760086168390400D-03 -9.15987374660715300D-02  1.02949837257816800D-02  5.00921196005964200D-03 -1.19650638358055800D-03
39 28 -1.34903364217130300D-03  2.54554002575185900D-03  8.16241178581284300D-02 -9.22426983737454300D-03 -3.99876409533830900D-03
39 29  9.43592653901102900D-01  1.99875893130196800D-01  7.48511035767166700D-01 -5.75931671312496900D-02 -3.44774311439308600D-02
39 30 -9.49011891603020400D-01 -1.98616468723285900D-01 -7.49871584051878700D-01 -7.45635397197372800D-02  4.94289016299710400D-02
39 31 -9.49322098654033300D-01 -1.98687010647590300D-01  7.50091541276008600D-01  7.48800954946790000D-02 -4.81480794410647900D-02
39 32  9.44020673995242100D-01  2.00026307799198400D-01 -7.48865544554082500D-01  5.74819136744642900D-02  3.33495603840689600D-02
40  1  5.97363036607485200D-05  1.05291284150632600D-04 -9.07807073504043200D-04  1.59478065670538700D-04  3.20571033821499400D-04
40  2  2.65137801733701500D-03 -1.18497688366805700D-03 -4.04472488509177200D-03 -3.15983749221274000D-02  7.61527485632444400D-04
40  3 -5.58418674240763000D-03  4.82265925677522500D-03 -5.51988946237447900D-04  8.53274835368206100D-03 -2.79476059341985400D-02
40  4  9.87142994660895400D-06  2.06997367738510000D-05  2.20220448224891000D-05  1.83083497857135800D-04  2.97029693417896400D-04
40  5  2.71085209488430200D-03 -1.94507729329469000D-03 -3.52546369406503500D-03 -3.18171881728208000D-02  6.95280936764370200D-04
40  6  5.50704860235656200D-03 -6.20232953912091700D-03  2.35239671643105000D-03  7.34393253019736900D-03  2.81552161574671500D-02
40  7 -5.24151326039760800D-05 -9.28662863849921700D-05  7.43788483466949000D-04 -1.24244050352462400D-04 -3.21793001337968600D-04
40  8 -2.65407443591468600D-03  2.13243756541884400D-03  4.10872974046026300D-03  3.15251592586323600D-02  7.09913862016293000D-04
40  9  5.61376652639043600D-03 -6.32368038840660500D-03  2.39633383602809000D-03  7.28254042124374500D-03  2.79849433468910000D-02
40 10 -1.76258570302296600D-05 -3.39782960113469500D-05  1.43582732020964300D-04 -1.11291886385424000D-04 -2.97426295565655100D-04
40 11 -2.71349649728418600D-03  1.56393629658760200D-03  3.58080176114067500D-03  3.18176629671560500D-02  8.04553618936536800D-04
40 12 -5.48183806251461800D-03  4.67728444357815100D-03 -6.19856152005600000D-04  8.56677963650554300D-03 -2.80982302210146300D-02
40 13 -1.28528342787079400D-06 -1.54138882069106400D-06  6.09289839909957800D-05  6.51935312192408300D-06 -3.61451599540240100D-07
40 14  1.50392402462869300D-06  1.17605125074193300D-03 -2.98715331609149600D-05 -4.05909568614233200D-05  2.92649269198717900D-05
40 15  1.54117645287797200D-06 -3.08061033724994500D-05 -5.07501478227241800D-06  2.95848160071576300D-04  2.40807543444053000D-06
40 16  1.49022395487539500D-06  1.82781691964596200D-06 -6.01666101729482100D-05 -6.68209735603536200D-06 -1.41748867207041300D-06
40 17 -4.04069737330163800D-06 -1.21384439006726800D-04 -5.07385214080746600D-05  2.28479511398754500D-05  3.29544298520658000D-05
40 18 -2.82759360351759600D-07 -3.26716704916753900D-05  9.42173705054044000D-05  3.64442161192012400D-04  1.43255789718428900D-06
40 19  1.98410368376804400D-06  4.03371881653250600D-06 -1.37864250340187700D-05 -1.02640256073548700D-05 -3.71519906191690400D-06
40 20  7.69494713092804000D-07  3.59511972455199300D-07  4.70623565761320200D-05 -5.56274492676768900D-07 -4.63278958154598200D-06
40 21  4.13691088944428500D-05 -2.68394595000398900D-06 -2.44032241452834100D-06 -7.65335085041794100D-02 -1.51783914649634400D-03
40 22  7.80513476506761200D-02 -9.11545325166821100D-02 -8.17316063322303700D-01 -2.93398603548120200D-03  3.86809307947788400D-02
40 23  7.69208496466272300D-04 -3.94501392912452700D-02  4.61171438430319700D-02  4.13093869823425700D-01  1.47992084953752900D-03
40 24 -1.18139276160132700D-06 -2.42326180809422700D-06  8.96913073620119700D-06  6.92452888279041400D-06  2.88802374232971900D-05
40 25  7.85415810515488700D-07 -5.47792395727134300D-07 -1.88622292493943200D-04 -1.46876835622862000D-06  3.86379821115187900D-06
40 26  1.86216178447230100D-05 -1.92001016582775000D-06 -2.22714828923137000D-06 -7.63015245270968300D-02 -1.55451728122901000D-03
40 27  7.78560418083256600D-02 -9.35949946436003700D-02 -8.15395845439114700D-01 -2.75494837944567600D-03  3.85639684240457800D-02
40 28  7.85317116735225000D-04 -3.93492855407809900D-02  4.73341764681142500D-02  4.12113850324106400D-01  1.39416794238497500D-03
40 29 -6.90557289272471400D-05  8.38076445710716300D-05 -6.03220277829872300D-04 -1.31019110151667700D-03 -1.12419821306103500D-02
40 30 -4.77730972228453100D-05  5.64274273052035200D-05 -5.71830963650407300D-04 -1.24766404760652100D-03 -1.13036892544520900D-02
40 31  7.12747424984253000D-05 -1.09577175567949600D-04  6.06224679564942000D-04  1.30575934921694600D-03  1.12491156044288300D-02
40 32  4.49390288987483000D-05 -2.50418700536888800D-05  6.47249254748089000D-04  1.24203429393510900D-03  1.13025949066704800D-02
41  1 -2.80190258179035900D-04 -4.99706583333248300D-04  4.39829655787231100D-03  1.65901018320274200D-03  3.22831142167526200D-03
41  2  2.83461069296818800D-02 -5.90763718121271800D-03 -1.30949867350117900D-02 -9.75756298225031900D-02  1.92643349762169100D-03
41  3 -1.13062988193510700D-02  9.37986532172940100D-03 -8.88124049418490300D-04  1.95768750995722300D-02 -5.77098403382356700D-02
41  4  2.96274275769279600D-04  5.28058537963444500D-04 -4.67446483547515500D-03 -1.65246653540233500D-03 -3.14036209154399600D-03
41  5 -2.83554323223299900D-02  6.03988042100440100D-03  9.01037517020896400D-03  9.79569613048966000D-02 -1.76120486584363300D-03
41  6 -1.14376118256910900D-02  1.31988166915343900D-02 -5.03737678026505400D-03 -1.70331487599714500D-02 -5.77213711728320800D-02
41  7  2.80291443937625700D-04  4.99497301537184500D-04 -4.40536197233294100D-03 -1.39268531292272400D-03 -3.22774022992446500D-03
41  8 -2.83725743645271400D-02  4.56390879018375500D-03  1.30708242237553300D-02  9.76214157647294900D-02  1.49451845217811000D-03
41  9  1.13818330887772700D-02 -1.28763515409552900D-02  5.21656710018962000D-03  1.70592612599194200D-02  5.78229349273212300D-02
41 10 -2.96506969309782700D-04 -5.28289763540804200D-04  4.67770810525574900D-03  1.40504365815208600D-03  3.13612564846385700D-03
41 11  2.83702856277812700D-02 -4.54789681751708300D-03 -8.99965289664798500D-03 -9.80237581256525300D-02 -1.66888527375675300D-03
41 12  1.13738634023301800D-02 -9.70497812857342100D-03  1.05601574922806200D-03 -1.96101530251071500D-02  5.75963680037606000D-02
41 13 -1.83254231255906900D-06 -3.54844414513195900D-06  4.37268160644412400D-06 -2.07650922765765700D-04 -2.14275418740143100D-06
41 14  1.41985518351682600D-05 -5.61504922833681600D-04 -5.67057751292438600D-06  5.89825148718812700D-05  2.87599905641465900D-03
41 15  6.04756105144314500D-05 -2.93647466692905900D-03  3.47172659440839900D-03  3.07633967124523100D-02  1.02320071681847900D-04
41 16  7.98448847612502800D-07  1.46255348340790000D-06 -1.28861671647004000D-05  2.07453598768228400D-04  2.51328129329347400D-06
41 17 -1.05739350090807200D-06  9.06428178698663800D-04  5.00640586873751800D-06 -6.07275447247393900D-05 -2.87932485409038600D-03
41 18 -6.09381635187025800D-05  2.94026301760907200D-03 -3.48567783821797600D-03 -3.07712047788021100D-02 -1.12327939405787400D-04
41 19  2.60262993887808100D-07  5.67420921296215900D-07  1.09477564004383900D-06 -1.27172413879272300D-07  7.22941748808914900D-05
41 20  1.33074174713422500D-06 -3.58672276759196200D-06 -4.08709056542354600D-04 -3.63056116347101700D-06  2.25890159838735200D-05
41 21 -1.69270440620416900D-04 -1.40386957528966300D-06  1.12631977487128900D-05  7.64849353911979000D-02  1.51047429442672600D-03
41 22 -7.79954096856245300D-02  9.10670943829537000D-02  8.16730423071759200D-01  2.90368338431964800D-03 -3.92785707304466900D-02
41 23 -7.79129526559518900D-04  4.00577002570061600D-02 -4.69565484101499000D-02 -4.19461251364715100D-01 -1.48160177742258700D-03
41 24 -1.61931301188334400D-06 -3.34106086604272100D-06  3.66995913836710900D-06  3.03787341885933100D-06 -6.28522448847299800D-05
41 25  1.12182421325998900D-06  4.33459070046969900D-06  3.42879844119954300D-04 -3.07451546459870600D-07 -2.42565052460660900D-05
41 26  1.66633178022617600D-04  1.98082285375289300D-07 -1.11679307892595000D-05 -7.65506595932578000D-02 -1.56213032634557400D-03
41 27  7.81127899196032700D-02 -9.39351527583198700D-02 -8.18065350420637100D-01 -2.77433011929522800D-03  3.93209513826819300D-02
41 28  8.00932740183220200D-04 -4.01218841228652100D-02  4.80794098074640500D-02  4.20175824735880400D-01  1.43548645123173500D-03
41 29  1.59788561015942000D-04 -1.96563106381479900D-04 -1.23099751498145500D-03 -2.93041520329761000D-03 -2.40875188542544800D-02
41 30 -1.70728372533238300D-04  1.98003003645976600D-04  1.23685081718426900D-03  2.49635048949224300D-03  2.41149283853855300D-02
41 31 -1.48047492849854800D-04  1.96416625126871900D-04  1.35410501445802500D-03  2.93003532829570600D-03  2.40842213070474800D-02
41 32  1.73308923339138500D-04 -1.98008145692896600D-04 -1.36398498490542400D-03 -2.49800442873228900D-03 -2.41094416563798400D-02
42  1 -1.94642641608282200D-04 -2.76430710600772500D-04  2.50328533009069200D-03  3.82047900652680200D-04  1.58248589361745700D-04
42  2 -1.35473852272318800D-03 -4.91144060985123800D-03 -5.00156338164363300D-03 -5.06763421781729800D-02  7.18156959807040600D-03
42  3  3.21985302589688200D-03 -1.04014226239673400D-02  1.01658627654196200D-02  6.89438162355328800D-02  1.67501519262282700D-02
42  4  2.50412897672005200D-05  4.34960926498089100D-07 -1.32791597284844900D-03 -1.44572469989669500D-04 -8.93968099883817400D-05
42  5 -1.27963521535777900D-03 -1.51412218932262100D-03 -4.26037299594556900D-03 -5.09188031196777500D-02  6.03781458008140100D-03
42  6 -2.82412091691767700D-03 -3.21369366316363200D-03  7.97270809085978900D-03  6.98235964898482200D-02 -1.64535284874071700D-02
42  7 -1.93246724680420300D-04 -2.75449697768006600D-04  2.44541206375691000D-03 -5.23957113646587100D-04  1.48986808729242900D-04
42  8 -1.30061859268065300D-03 -6.19644038578749900D-04 -4.95035044509519400D-03 -5.09039974598146200D-02 -5.76190112281143400D-03
42  9  2.90666444130545300D-03  2.85523668150603800D-03 -8.38210631327327700D-03 -6.98021184874907000D-02  1.64129942211997900D-02
42 10  2.49415829284000900D-05  2.44981189771975500D-06 -1.27943745548293600D-03 -6.72320692777479300D-06 -9.39098962672092600D-05
42 11 -1.31553769331447400D-03 -3.95008322421387600D-03 -4.27533451099927700D-03 -5.08274462841457300D-02 -6.92562079701059600D-03
42 12 -3.11304146505994400D-03  1.00386622620706100D-02 -9.74264158538698700D-03 -6.90710276634800600D-02 -1.68070789696047800D-02
42 13  6.66932908479114800D-04  1.24066981887071800D-03 -4.38504763767970400D-03 -8.04030212832708200D-04 -1.42764489179957700D-03
42 14 -1.48745306740513300D-02  1.25630007456743200D-02  2.91647105934052900D-02  2.33994402813721200D-01  9.90294107747744000D-04
42 15 -3.55445632341671700D-02  3.45542691264193500D-02 -9.10331259844122800D-03  3.82331839523127100D-03 -1.72991684323700500D-01
42 16 -4.14141202202525800D-04 -8.00663057154695500D-04  3.79042926637379600D-03 -8.04458241876228300D-04 -1.52661685482631600D-03
42 17 -1.49148763009544400D-02  1.26418950767979100D-02  2.60344573168164500D-02  2.34314683391227400D-01 -8.03319477016358400D-04
42 18  3.43529048614017200D-02 -3.35495853843853100D-02  9.13841555819922300D-03 -3.81307660601119800D-03  1.73386752131854700D-01
42 19 -9.84096945096742700D-05 -2.12519512768463900D-04 -5.98565302618021900D-04  2.02021204002692700D-04  7.96851058498549200D-04
42 20  1.39077895119582500D-03  1.47220093361586700D-02 -3.27183977578800400D-05 -2.13469934039966900D-05 -5.42726032459805700D-04
42 21 -4.88914834791568700D-03 -9.94707498701068200D-03 -9.07585430400218000D-02 -2.32955645184725700D-03  1.60747046559234500D-01
42 22 -1.58417490107387400D-01  4.36325984302694300D-02 -1.79665309002583600D-02  8.26617987847885400D-01  1.29709636832319300D-03
42 23 -8.17800562855926500D-02  8.04829599172693900D-02 -2.22344333668141400D-02  9.13918844023040900D-03 -4.21253175275413700D-01
42 24  4.31814745928740300D-04  8.88478678210591100D-04 -1.07142065564869800D-03 -1.14660875583828000D-03  7.96611244442715100D-04
42 25  1.24254369317675700D-03  1.47273333459249200D-02 -4.05913065809521700D-05  7.04025325538927500D-04 -6.85057057218620000D-04
42 26 -4.89510603991016700D-03 -9.91513002973335900D-03 -9.07606745021237900D-02  2.30308077063011400D-03 -1.65070099357328400D-01
42 27  1.62767018586698300D-01 -4.35295690714056800D-02  1.82038264867428200D-02 -8.25535670182933200D-01 -1.20490834127418900D-03
42 28  8.38210454742791800D-02 -8.26161371330050700D-02  2.21913150711515200D-02 -9.25695860526433400D-03  4.20803369920561800D-01
42 29 -1.26085417612475800D-03  4.17884776228989700D-04 -1.92293555958524200D-03 -1.95443128183386700D-03 -1.94811574020919600D-02
42 30  7.58229697259739800D-04  8.12370766514960400D-05 -5.59884858869693200D-04 -2.20460276695665800D-03 -1.95537709755289900D-02
42 31 -1.27215723657215600D-03  4.40054998588436700D-04 -1.79536983699127100D-04 -1.93730622295623600D-03 -1.96031283553484600D-02
42 32  7.74077307472473800D-04  5.14588884028487700D-05 -1.55527499210658200D-03 -2.20670604900580700D-03 -1.94941907154641400D-02
43  1  6.29914176285132100D-02  7.79438672414656500D-02 -1.21779309055693700D+00 -1.29114597688687200D-01 -8.77370672508948500D-02
43  2  1.62948529259787500D-02  1.07234462205096900D+00 -5.84160840659597500D-01  7.64380512291105200D-03 -3.02650977559248400D-01
43  3  1.10175102729240700D-01  1.92475874830007100D-01 -6.17500843451620700D-01  1.01419865424426000D-01  4.54596604649559000D-02
43  4 -6.31011410571196400D-02 -7.81348586835526200D-02  1.21835265029180500D+00  1.31630878092506100D-01 -8.52206076642723100D-02
43  5  2.94851116047157200D-03 -1.05384157894726600D+00 -6.05067167553337200D-01  1.24778584632711600D-01  3.35995318605308200D-01
43  6 -1.30292745719211600D-01 -2.05702572886097500D-01 -6.08790969016094500D-01  3.44493107980053300D-02  2.38150769043913500D-02
43  7  6.30893095894059200D-02  7.81440181488596400D-02 -1.21709401096493100D+00  1.31541124837931900D-01 -8.52679928121822500D-02
43  8  1.99496488159459700D-03 -1.05326087633222700D+00 -6.04169026328347700D-01  1.24427636528884400D-01 -3.36168920527296400D-01
43  9  1.30636606107586600D-01  2.05532314419710000D-01  6.08874898032206700D-01 -3.56365894419911400D-02 -2.32971558865138400D-02
43 10 -6.31473699927012800D-02 -7.82325436534451600D-02  1.21857054661634500D+00 -1.28769323147422100D-01 -8.77056505395170100D-02
43 11  1.72915750073379800D-02  1.07245554524065000D+00 -5.84365555303354400D-01  7.87980284008520100D-03  3.02774766718758400D-01
43 12 -1.10067935357967700D-01 -1.92706831360790600D-01  6.17546900373047900D-01 -1.00327024499871400D-01 -4.49051029864449800D-02
43 13 -3.03349159266504200D-01 -5.66686927996755200D-01  2.58229177122431000D+00  1.49126854735169700D-03 -9.70170806533650200D-02
43 14  1.06543712262063600D-02  1.34628971612052500D-02 -8.12045078298396300D-01  9.48213462571283100D-02 -3.03725774906256000D-01
43 15  4.19959176662902600D-01 -1.16233401756647100D-01 -1.20277132883705800D-02  1.26396991558357300D-02 -7.21376859853196200D-02
43 16  3.03638814435589700D-01  5.67156268451065600D-01 -2.58447608012536200D+00  1.47064025272642400D-03 -9.69342092061481900D-02
43 17  1.09109217844803500D-02  1.23700902016781800D-02 -8.13036146320457800D-01  8.72071898192067800D-02  3.03538900640874600D-01
43 18 -4.20831957406375600D-01  1.17293056765501800D-01  1.17921269004489800D-02 -1.25181138014514700D-02  6.81701608594224400D-02
43 19  1.31962090217133100D-01  2.74899252639159800D-01 -8.17510911115465100D-02 -3.91982954254338800D-01 -2.74690136999896200D-03
43 20  1.73956913761621200D-01 -1.92601443960655900D-02  3.02089318109622100D-03 -1.90549076134277900D-01  2.13417646278925200D-02
43 21  2.39281665539958600D-03 -1.51428755348703800D-01  1.73421589678122900D-02  6.51997191004889600D-01 -1.09892055091971200D-01
43 22 -5.42105135912917300D-01  5.15685889902394800D-03 -7.54332048388459500D-02 -6.25795753438193200D-02 -3.80446338353543900D-01
43 23 -5.13512559514345300D-02  4.31797594304978400D-01 -1.10771643984539000D-04  5.10808653460045600D-02  6.62185550307916500D-02
43 24 -1.31975289874932500D-01 -2.74929764873312100D-01  8.23345844065681800D-02  3.91772877381071600D-01 -2.73776442092503200D-03
43 25  1.73862418317013900D-01 -1.94409454693730400D-02  2.96842364484594900D-03 -1.90599790463635300D-01  2.11320848626653800D-02
43 26  2.35121111773132400D-03 -1.51450712192975000D-01  1.60920595430180800D-02 -6.50876502754571800D-01  1.07545322758140300D-01
43 27  5.43331179996431200D-01 -5.66850346821247400D-03  7.55402682698780600D-02  4.99050613444642600D-02  3.79857077873087300D-01
43 28  5.23549732160438300D-02 -4.32212051089130900D-01  3.30461044920201900D-04 -5.11137262532195400D-02 -5.99869608606164300D-02
43 29  5.31152942544862900D-01 -1.28500246945225900D-01  3.67977790883481200D-01 -5.22814826223436000D-02 -1.45846193281640600D-02
43 30 -5.31335260963112900D-01  1.28565477873754100D-01 -3.66303192881281100D-01 -5.90402820101500500D-02  2.69512081900379100D-02
43 31  5.31439540007353200D-01 -1.28552873878266800D-01 -3.66457759302581200D-01 -5.92868246974813500D-02  2.57457016221851200D-02
43 32 -5.31368935853860800D-01  1.28588220117349000D-01  3.68139359810955300D-01 -5.19153800317221600D-02 -1.34746586190520100D-02
44  1 -7.90767681385598500D-02 -1.38374694356519800D-01  6.05510235278105400D-01 -8.27584478148588500D-02  4.23670458338659400D-02
44  2 -3.76129449813964900D-04 -2.28827259087469900D-01  3.06536522731264900D-01 -2.23341847750531200D-02 -4.16903360496790100D-02
44  3  1.02070346329707700D-01 -6.03800102800281700D-02 -8.57571801097232600D-02  8.46232280255976800D-03 -1.68024901292582800D-02
44  4 -7.90399348697424900D-02 -1.38357726912448400D-01  6.04211137292530500D-01 -8.16009673107608900D-02 -4.38066433567851600D-02
44  5  9.20952901859624400D-03 -2.17870498796855800D-01 -3.09818649414273100D-01  4.62012246572437000D-02 -4.66968994723762900D-02
44  6  1.05110972630988000D-01 -5.84140731586117200D-02  8.12671475903534900D-02 -9.87020882494857800D-03 -2.58525252758611000D-02
44  7 -7.91218376264965500D-02 -1.38454613523090700D-01  6.05477902923540600D-01  8.13301129258910300D-02  4.39526217821436900D-02
44  8 -9.39230515795571800D-03  2.19153447322360000D-01  3.10836896308870400D-01 -4.69568947368199700D-02 -4.61653559707315800D-02
44  9  1.04807255892238400D-01 -5.86418999215070200D-02  8.01970862292880600D-02 -1.00402085049919400D-02 -2.61128612937468200D-02
44 10 -7.89975142258492100D-02 -1.38281204315871200D-01  6.04003597135623700D-01  8.29190154825086000D-02 -4.22261002065885000D-02
44 11  1.62528668977289600D-04  2.27296951952055700D-01 -3.05466917600383200D-01  2.17249700203745700D-02 -4.22504347292436000D-02
44 12  1.02394095195879500D-01 -6.01436604666357100D-02 -8.67849638689580800D-02  8.38987263368833600D-03 -1.64536407844206700D-02
44 13  8.26505158884966600D-02  1.37836079067945600D-01 -1.36219417735654500D+00 -6.53039674624479400D-05  5.25046501284828800D-03
44 14 -5.80615439889059900D-04  1.10484334021167800D-03 -7.48054977287203600D-02  8.08909889841973600D-03 -1.54152626167404700D-01
44 15  5.86261508663720800D-02  9.55264753010323800D-02 -2.09059204171718600D-03  1.58431559882606900D-02  5.17942488421498800D-03
44 16  8.21782608134753300D-02  1.36947403164311800D-01 -1.35868299742086700D+00  8.76762012475543000D-05 -5.07120836166759500D-03
44 17  5.50805986404287200D-04 -1.39601460719396700D-03  7.57628577787473100D-02 -8.30862899623358700D-03 -1.54705029595857700D-01
44 18  5.93237259129862800D-02  9.53813036828710100D-02 -2.17193666926808600D-03  1.58842066556248500D-02  5.03656487661862300D-03
44 19 -8.51436496434284900D-02 -1.70369788655009400D-01  5.22909869246555700D-01 -7.83423079445321100D-02  2.40168795858190800D-04
44 20 -1.52718355088125500D-02  1.67850804780981500D-03 -2.20329047916388500D-03  1.40427376934827700D-01 -1.53588493442125600D-02
44 21  9.91425561208001900D-04 -6.43620288570361100D-02  7.02561552711691800D-03  7.17456817935194800D-01 -1.67220334248271400D-02
44 22 -7.00734784510366200D-01  3.36146147018553100D-03 -8.94395931016216900D-02 -8.87977925314406700D-02 -4.11418019144039900D-01
44 23 -8.31116250564511800D-04  4.12249135394603400D-01 -1.67980595067771300D-03  5.19262694527220200D-02  5.36877331598176500D-02
44 24 -8.49051046632494200D-02 -1.69876010686126100D-01  5.22696105200932500D-01 -7.89665245897444900D-02 -2.37512199337191200D-04
44 25  1.49675312850895300D-02 -1.71565035051899400D-03  2.22407968215175700D-03 -1.39990012993958000D-01  1.59189171934626300D-02
44 26 -1.00846258637108500D-03  6.45792926735240200D-02 -7.23521813859902200D-03  7.18519135243339800D-01 -1.74157689552009900D-02
44 27 -7.01103366288137500D-01  3.27434147571728200D-03 -8.94945217823545900D-02 -9.13306522042315500D-02 -4.12039492293329300D-01
44 28 -6.39864894559131000D-04  4.12679357187887800D-01 -1.60595533234277400D-03  5.19710572834998400D-02  5.51579183475240300D-02
44 29 -8.32056285283099000D-03  3.98264157054960500D-02  1.41121438093780700D-02 -9.41166020485583000D-02  9.82276698300899200D-03
44 30 -7.41790316108495700D-03  3.96624837694154200D-02  1.17216750343189500D-02  9.44972815910471600D-02 -1.12779790715511400D-02
44 31 -8.28363586307780500D-03  3.98219326049967300D-02 -1.11614205063176700D-02 -9.44062078662583100D-02  1.12131693577169600D-02
44 32 -7.38410945802176500D-03  3.97216569127213600D-02 -1.47296551976112800D-02  9.42356340289945700D-02 -9.81692867266941600D-03
45  1  7.02792211793697800D-05 -1.81866294224454300D-04 -2.77478415170486000D-03  1.31933400603004200D-03  3.76103120063002600D-03
45  2  3.63129613844255800D-02  1.12782212511317700D-02  2.05313500558897300D-03  8.98515075941284400D-02 -1.01035213693952300D-02
45  3 -1.39801104432802900D-02  2.40836318126756200D-02 -1.80969610537355700D-02 -9.06759777510856700D-02 -7.11594266164059400D-02
45  4  8.49201244006890000D-08  3.04714755730142200D-04  2.27057111915508400D-03 -1.22304303799899100D-03 -4.33326152751259500D-03
45  5 -3.62463250980839200D-02 -1.09341117989880500D-02 -1.77260920161850700D-02 -8.80805463881319100D-02  1.06112599222241900D-02
45  6 -1.43269376746503600D-02  3.71567775242634600D-03  2.84688524970647300D-03  9.46439908306293700D-02 -7.07664924729991500D-02
45  7  7.34459634105178000D-05 -1.75243738906182500D-04 -2.78128610719532400D-03  2.58876218396115800D-03  3.77767086447496800D-03
45  8  3.62432197365769600D-02 -1.41502280286027100D-03  1.93848306346310800D-03  9.05643851911203100D-02  7.07325274955815900D-03
45  9 -1.35035725726020400D-02  6.43031982304391000D-03  1.05576594318240400D-02  9.41769958532315300D-02 -7.09212503831887100D-02
45 10  9.42666271066205800D-07  3.09253741012504900D-04  2.32583499620628700D-03 -2.69103714979802300D-03 -4.35716917893939800D-03
45 11 -3.61917303740580700D-02  1.56631166856675000D-03 -1.76282999206962500D-02 -8.88265334199543500D-02 -6.98018185678195100D-03
45 12 -1.45401482925230400D-02  2.15203301493050700D-02 -1.03166848877223700D-02 -9.19522889694022600D-02 -7.18192147383535900D-02
45 13 -2.24909900480158200D-03 -4.15991328879843400D-03  1.85193263087410400D-02  1.10783372029993500D-03  1.92856090036277600D-03
45 14  2.04973893775175100D-02 -1.56638216378304700D-02 -3.61229830982586900D-02 -2.91236754237131600D-01 -1.70589753934884600D-03
45 15  3.90741892093889900D-02 -3.73682916700402200D-02  9.61496879013174800D-03 -4.04405824920918500D-03  1.83147628043662700D-01
45 16  2.18285295008514900D-03  4.04865842069781200D-03 -1.72767821210543700D-02 -1.10166072620452400D-03 -2.65474765077950600D-03
45 17 -2.04730759029806600D-02  1.57926405586523400D-02  2.89488367673885300D-02  2.92041303304134600D-01  1.33713301822673500D-03
45 18  3.32200721179461700D-02 -3.45572051361730500D-02  9.77881579560708000D-03 -4.11894732594988100D-03  1.84391877702460600D-01
45 19  6.55621790783568700D-04  1.38461798714211400D-03  8.93705085173631600D-04 -3.06348417943309800D-03  1.19929783742916200D-03
45 20  3.63276197683922800D-03  2.24486711397957900D-02 -9.56335081843074800D-04 -3.17000353065416300D-03 -1.79078319542327000D-02
45 21 -5.50020141152900800D-03 -1.26711722458339700D-02 -1.02317238195438200D-01  4.36929054595931600D-03  1.60315178830108400D-01
45 22 -1.64684469376067700D-01  4.37205510689628400D-02 -1.87808777076089900D-02  8.26759198798907500D-01 -2.70317627287510600D-03
45 23 -8.50610619167939100D-02  8.77642381896692200D-02 -2.29708146278973600D-02  9.97789537326672500D-03 -4.34484512433924600D-01
45 24 -5.38643568525822900D-04 -1.14977653739819600D-03 -1.60224105386586100D-03  3.04924361626171300D-03 -1.23230797225525500D-03
45 25 -1.46333640898701100D-03 -2.26740840309728500D-02  9.91263547340184100D-04  1.06552884636554400D-03  1.81900673977810500D-02
45 26  5.53908510927137100D-03  1.02983718558745600D-02  1.02561059768798900D-01 -7.60232714134408100D-03  1.65410767104316000D-01
45 27 -1.57808439962971700D-01  4.35383034551926000D-02 -1.75926910654783500D-02  8.26918834615890800D-01  4.43618355023058700D-03
45 28 -8.62073575955879900D-02  8.17711740453574700D-02 -2.29160005760156900D-02  9.15063330921582700D-03 -4.35138358373003300D-01
45 29  3.48898012693802800D-03 -3.89604772868876100D-04  4.38911135710780900D-03  4.11227257947492700D-03  3.55980563755894400D-02
45 30 -3.52201568330244300D-03  4.04620995102468600D-04 -4.43527204377028100D-03 -4.09277783125389500D-03 -3.56140264760581000D-02
45 31  3.50116336374414000D-03 -3.86668496841308700D-04 -5.46168345142668000D-04  4.06147690108162600D-03  3.58901411858583200D-02
45 32 -3.48781694800217200D-03  4.01580138458401600D-04  5.59020916897999400D-04 -4.03332265027809500D-03 -3.58908545549820000D-02
46  1 -8.19942106936280000D-02 -1.45422648819603800D-01  1.70573293603158800D+00  1.76518490678277100D-01  1.99834819426469800D-01
46  2 -3.18302783858406300D-02 -1.42137303927627000D-01 -9.10320569438152100D-01  1.10329634516794700D-01  4.12228070768141900D-01
46  3 -3.41920147437411800D-01 -7.03079233307325900D-02  8.42497302450323300D-01 -1.24882850445609500D-01 -1.00439167115737200D-02
46  4  8.18640405679560700D-02  1.45173634318611800D-01 -1.70544177987133500D+00 -1.82621375347313000D-01  1.96422156222130200D-01
46  5 -1.23008046172060000D-02  1.70404743754296100D-01 -9.07151254440697900D-01  9.23057346507934800D-02 -4.57604857483574400D-01
46  6  3.70049840646375900D-01  8.75550168371999900D-02  8.20868238837637000D-01 -5.91411347281672300D-02 -8.12931853753555800D-02
46  7 -8.21058195590082100D-02 -1.45615715018072100D-01  1.70678742297841500D+00 -1.82392850638913200D-01  1.96678879804356600D-01
46  8 -1.21600392319249700D-02  1.70789583556373300D-01 -9.07932334444527900D-01  9.32051767164798500D-02  4.57752219499239200D-01
46  9 -3.69877094398414500D-01 -8.78751251008256900D-02 -8.20983879709858900D-01  5.87462133094488200D-02  8.32150644033391300D-02
46 10  8.20706841082005400D-02  1.45556130345128700D-01 -1.70689034538795000D+00  1.76299607812112700D-01  1.99986654502157500D-01
46 11 -3.20785243759015100D-02 -1.42017255523251500D-01 -9.10855615776819100D-01  1.09561471276140000D-01 -4.12535192125283400D-01
46 12  3.42682463255122300D-01  6.98527288701596300D-02 -8.42539453846603300D-01  1.25312188178854400D-01  1.19161571659542300D-02
46 13  2.00437133856932200D-01  4.45204175779158000D-01  9.06228972592907700D-01 -3.50696021887419200D-03  2.25938631549826200D-01
46 14 -2.54533579979998800D-02 -2.78021155465409500D-02  1.76592674828662300D+00 -1.98402287416895300D-01  5.41092420684089800D-01
46 15 -4.28035237000232200D-01 -1.13057183683857500D-01  1.27767318089138700D-02 -4.20089636946291800D-02  4.00901468285622900D-02
46 16 -2.00587367017010100D-01 -4.45384889151991400D-01 -9.06253737313532800D-01 -3.41236934366992800D-03  2.25801416007046900D-01
46 17 -2.48858280080841900D-02 -2.78378903685497800D-02  1.76560342632824300D+00 -1.95317236036331500D-01 -5.41282275570706100D-01
46 18  4.28286419744575900D-01  1.12995855826129900D-01 -1.30685899052371400D-02  4.20623826788080100D-02 -4.08560301969595800D-02
46 19 -3.76412660810240900D-01 -7.50039820997049400D-01  1.86944315194850700D+00  4.70925335176361300D-01  2.50486802052174000D-03
46 20 -1.59448100637488600D-01  1.73776266755758100D-02 -1.16853955496365000D-02  7.43166162260814200D-01 -8.16231786256808300D-02
46 21 -1.10841751583309500D-03  7.22930093853889900D-02 -7.64308990718545900D-03  2.11271270431604100D-01  3.46950630427639900D-01
46 22 -5.58221900859243700D-01 -8.07400463235744300D-03 -4.78309879160201500D-02 -1.18811214375259500D-01 -2.06754787873710000D-01
46 23 -3.36312061309196800D-02  2.40385994004629300D-01  9.27262215796681800D-05  2.81102840622713700D-02  3.64801879714381400D-02
46 24  3.76346131530405400D-01  7.49901666617319400D-01 -1.86975645562217400D+00 -4.70970159530420000D-01  2.56288376577434700D-03
46 25 -1.59212724735039200D-01  1.81084830715365800D-02 -1.17657903124634500D-02  7.42985117276485800D-01 -8.39696470080401300D-02
46 26 -1.26450915904254300D-03  7.21948699906884800D-02 -8.41275981753142000D-03 -2.11076532763960400D-01 -3.47418614673209000D-01
46 27  5.58495147437169700D-01  7.51815273101429100D-03  4.78936879595638000D-02  1.19015031669463600D-01  2.06659942546663100D-01
46 28  3.40338481854775600D-02 -2.40693790732140400D-01  2.19651138061566800D-04 -2.81597039907519900D-02 -3.60743991747734600D-02
46 29 -6.20476017343429400D-01  1.22397480705822200D-01 -3.45986457872506400D-01  2.04109200053383200D-01 -4.16272485300802300D-03
46 30  6.20713438487097800D-01 -1.22331480581652700D-01  3.39553882457575500D-01  2.10637501804054800D-01 -4.20995569866839700D-02
46 31 -6.20631930705421400D-01  1.22445085171735600D-01  3.39565885772421200D-01  2.10500461384996800D-01 -4.17848710953715000D-02
46 32  6.20625777227332500D-01 -1.22277178846868900D-01 -3.46037279121880500D-01  2.03925523129023400D-01 -4.34146998902747600D-03
47  1 -1.31222870647901700D-01 -2.63777448425342600D-01  5.86458232206075600D-02  9.24023199991780400D-02 -1.40650525075142700D-02
47  2 -3.39550339284914800D-03  3.02963377032315600D-03  7.55715323811112500D-02 -8.73066657356308400D-03 -1.70221589638427500D-01
47  3  1.90164963348626900D-01 -1.99433737101995500D-02 -3.36784166111561900D-03  9.49942842164018700D-03 -2.75287713346018000D-02
47  4 -1.31191860185512800D-01 -2.63727824466069100D-01  5.95034503097877400D-02  9.19494872601540500D-02  1.57187967454861400D-02
47  5 -6.71534415408609200D-03  5.37711741581118400D-03 -7.50469021046143300D-02  8.04605545009355400D-03 -1.69876563372333500D-01
47  6  1.89930591439395600D-01 -2.00540280670620400D-02 -8.11139478914500400D-03  1.00419912724995900D-02 -2.68874106016031400D-02
47  7  1.31216193104146000D-01  2.63757487646859400D-01 -5.94536540483210600D-02  9.20524046836190100D-02  1.57210652527867700D-02
47  8 -6.73159863198656800D-03  5.40827231497077600D-03 -7.49333213651639900D-02  8.20490207522754000D-03  1.69761569246956100D-01
47  9 -1.89807366348061300D-01  2.00457971011053900D-02  8.05299044298996000D-03 -1.01724373471460400D-02  2.72355098414067900D-02
47 10  1.31230676930004900D-01  2.63788124195213200D-01 -5.87822743344409400D-02  9.25072916910542700D-02 -1.41138625069039600D-02
47 11 -3.40202547485682700D-03  2.99668843861845700D-03  7.55438059296639100D-02 -8.55301030133579300D-03  1.70161562651983200D-01
47 12 -1.90204011823356100D-01  2.00424491713731900D-02  3.12811142678115800D-03 -9.61789715438564300D-03  2.71984496794755600D-02
47 13 -2.90109905611863900D-05 -7.51297208837746400D-05 -3.97395122408879400D-04  3.14988523009317600D-02  1.96072261817919400D-04
47 14 -1.71967630838179500D-03  2.37618337377286300D-01  1.62504103211953000D-03 -1.29870641410816400D-02  1.21015246750516800D-02
47 15 -7.33711090011766200D-03 -4.76441377493371600D-03 -4.46670528781783900D-01  4.99263840332022100D-02  2.50286948186316700D-02
47 16  4.86711634560471400D-05  1.02304774749722700D-04  1.52864855995593400D-04  3.14821754710306500D-02  1.74546157817064800D-04
47 17 -1.71533074367244600D-03  2.37429132004941000D-01  1.82675269875303600D-03 -1.29982941115746500D-02 -1.20843286048259800D-02
47 18  7.37372824715630100D-03  4.71060035766941400D-03  4.46918541603079100D-01 -4.89097291829778900D-02 -2.50290030315303400D-02
47 19  1.05251447210454500D-04  2.10136150760979400D-04 -4.99495450093005500D-04 -8.60054130937931000D-05  6.69198345313459100D-02
47 20  6.94716702670746700D-04 -3.68385997184061600D-03  2.87982573973703100D-02  8.72970616141079700D-05 -1.56128885356700700D-03
47 21 -1.56126461019606000D-01 -1.50099205920527800D-03  8.58076894318688000D-03 -2.30697691562366100D-02  1.40840555740446200D-02
47 22  8.98571358219215100D-03  8.47364032187946500D-01 -9.23543742716576200D-02 -4.74559939128527100D-02  1.12722346274800400D-02
47 23 -6.89517754063079000D-03 -4.37705708684978400D-03 -4.13326115105529700D-01  4.50768739761009500D-02  2.31531776568909000D-02
47 24 -1.19742375825697600D-04 -2.36671868972955700D-04  6.77239654989832200D-04  1.51607055418559700D-04  6.69028052008798400D-02
47 25  6.76445638877264300D-04 -3.68108675750651200D-03  2.86744299664802800D-02  4.21795947532394500D-05 -1.54939519496647500D-03
47 26 -1.56131725840453500D-01 -1.51609558198543800D-03  8.58366329192403000D-03  2.32877515038482400D-02 -1.39662362497000000D-02
47 27 -9.32151525414822600D-03 -8.47051671548806900D-01  9.50350226570076800D-02  4.74396473995833700D-02 -1.13940997600042500D-02
47 28  6.83495833162083500D-03  4.55914142838339600D-03  4.13279392400340600D-01 -4.63431404826640800D-02 -2.31466827989238500D-02
47 29 -2.39351454635473100D-02 -1.59764469985002400D-02  4.77524905461040500D-03  9.95160375297285500D-02 -1.14854450371932400D-02
47 30 -2.41875960085080600D-02 -1.59268630835734500D-02  7.78767755947833500D-03 -9.95456390968868500D-02  1.07177147312692200D-02
47 31  2.43328488037144900D-02  1.59257366681736500D-02  7.70997530354437700D-03 -9.95910744623476500D-02  1.08190837271255000D-02
47 32  2.40203174934258900D-02  1.59715074585517700D-02  4.75041967784274200D-03  9.96223287018417800D-02 -1.13984351545927200D-02
48  1  4.73983142692923500D-03 -1.18341287166482100D-02 -6.15897202528585300D-01  7.70888941523504400D-02 -2.51937477186135600D-01
48  2  2.42740297875183400D-02 -7.90508972512004700D-02  2.86400221029635800D-01 -2.81390314724293200D-02 -3.24988269669495400D-01
48  3  2.93675817360981600D-01  3.13124523085141600D-02 -1.37859847158535000D-01  3.74259479825611100D-02 -2.71985723971832900D-02
48  4 -4.80774708971591800D-03  1.17149571172049100D-02  6.15659738940309300D-01 -6.90937329817374700D-02 -2.53356432773925400D-01
48  5  3.20557399787485700D-02  7.02010381893314300D-02  2.87765026108860800D-01 -3.58854598118590800D-02  3.31940007087749400D-01
48  6 -2.98072953208586600D-01 -3.38670538791632700D-02 -1.20150211586390700D-01 -8.89708238727611300D-03  4.07272028405433800D-02
48  7 -4.82344078161290200D-03  1.16828205384330000D-02  6.15332029923609900D-01  6.92842040561578700D-02  2.53237164890391100D-01
48  8 -3.23130983231370400D-02 -7.01632981315114700D-02 -2.87429186891171900D-01  3.62922234098857300D-02  3.31618516337987600D-01
48  9 -2.97662816999454700D-01 -3.39556993385321000D-02 -1.19662593973144500D-01 -9.25255442834638900D-03  4.15942358452188000D-02
48 10  4.74717460227568300D-03 -1.18284680455817000D-02 -6.15271060498184900D-01 -7.72686523569997000D-02  2.51898278485162200D-01
48 11 -2.40150261907397000D-02  7.91176708245059800D-02 -2.86235036448615600D-01  2.76579224785039000D-02 -3.24688045168547800D-01
48 12  2.93625279103000700D-01  3.10627660655464900D-02 -1.37215527041567200D-01  3.76578663285584100D-02 -2.62828272427830100D-02
48 13 -7.21412246272596500D-05 -1.97964333891060900D-04 -5.87733633805753500D-04  3.12692940084973300D-02  4.24614206105096800D-06
48 14 -1.68537871426031600D-03  2.38311581974607200D-01  1.31161034496605500D-03 -1.29835614575417900D-02  1.36377575018487700D-02
48 15 -8.35793846368098000D-03 -5.27981903816764200D-03 -5.01114446042246500D-01  5.60410561342247800D-02  2.81060712515175500D-02
48 16  4.86788089378502200D-05  1.20673493529459600D-04  4.59858482725484800D-04 -3.11860168743353400D-02 -2.81742979301889000D-04
48 17  1.71093671038714100D-03 -2.38042368823519300D-01 -2.58484501099331000D-03  1.31225120541035200D-02  1.37687243226754800D-02
48 18 -8.42117382891736800D-03 -5.34755049375860000D-03 -5.01326931824834000D-01  5.48358136688019600D-02  2.80842360409003500D-02
48 19  6.23395994327224300D-05  1.20659732357580500D-04 -4.01371829432406500D-04 -1.62833259733799300D-04 -8.08098194826161600D-02
48 20 -7.76775949326443600D-04  4.44203822801436900D-03 -2.60294727076604400D-02 -4.38507183349044100D-04  1.44733538375468800D-03
48 21  1.75521057028824100D-01  1.64475160376695300D-03 -9.64337165635656900D-03  2.27495424890843300D-02 -1.41097379411100300D-02
48 22 -8.63980454797382300D-03 -8.36388966533973200D-01  9.11330887550430800D-02  4.68977696529125700D-02 -1.09180553072718000D-02
48 23  6.74866379873903600D-03  4.16939150853280600D-03  4.02404050499198500D-01 -4.38571497578350600D-02 -2.25602787057225600D-02
48 24 -1.82814971766085800D-04 -3.52144349784132400D-04  1.19061469670012500D-03  2.67838390308307400D-04  8.07948445973631800D-02
48 25  7.73290714366147200D-04 -4.44001386277357000D-03  2.59109984692200300D-02 -2.45623885153183400D-04 -1.37004179563594100D-03
48 26 -1.75525088482520000D-01 -1.69834721904487600D-03  9.64795962591956000D-03  2.28138503735667400D-02 -1.34812350057072400D-02
48 27 -9.33261536786002800D-03 -8.36085125656738900D-01  9.38318178832488600D-02  4.67660832370670500D-02 -1.10369022296433700D-02
48 28  6.56555485853989100D-03  4.47134737110348100D-03  4.02346627644333400D-01 -4.51494254701928500D-02 -2.25161920909332400D-02
48 29 -2.01809510933177100D-01 -8.06404553216693600D-02 -6.97593891888818600D-02  1.54915712024576700D-01 -1.36564692222880600D-02
48 30  2.01866724659714800D-01  8.05777249200404500D-02  6.49104947677309600D-02  1.56229788118231300D-01 -2.10426441824665800D-02
48 31  2.02330940429137700D-01  8.05293425935639900D-02 -6.51469572742656600D-02 -1.56358048623711400D-01  2.10753374607165000D-02
48 32 -2.02296340909143600D-01 -8.06057965530726900D-02  7.00178201046391400D-02 -1.55026586175026300D-01  1.36169322148169400D-02
49  1 -3.82300265437680700D-02 -7.23812258431069900D-02  1.76154793909986500D-01 -4.38515745713776200D-02  3.99853869093260800D-02
49  2 -2.16810849590372700D-03 -3.41671600143827900D-01 -2.27923607535138000D-01  4.39754507882290400D-02 -5.62967671576446200D-02
49  3  5.52238487725841900D-02  1.07291838506061900D-03 -5.47285643623172000D-02  9.70391560927172900D-03 -4.07632019949032900D-03
49  4 -3.83881393561665800D-02 -7.26254500320666600D-02  1.78384887369695300D-01 -4.23740341250350100D-02 -4.11389514230938600D-02
49  5  6.86565462561972100D-03 -3.49024030112002200D-01  2.21915159359876300D-01 -6.11130465809506300D-03 -5.83130383286659900D-02
49  6  5.63891480311649300D-02  1.92389029750113500D-03  5.01855431446923300D-02 -1.95091512768803600D-03 -9.90212834687695200D-03
49  7 -3.82541894077242000D-02 -7.24020053730731600D-02  1.76415023442227000D-01  4.25913370740227500D-02  4.09660138010457200D-02
49  8 -6.93540567700543400D-03  3.48690819430929400D-01 -2.21422110451128500D-01  6.05965131697600500D-03 -5.89524441372824900D-02
49  9  5.68191757220280000D-02  2.13326841525481300D-03  5.13411845634385700D-02 -2.02189233399551000D-03 -1.00092776753616700D-02
49 10 -3.83784110661864700D-02 -7.26329318605051100D-02  1.78165608794660000D-01  4.35643937776618900D-02 -4.02026515568204900D-02
49 11  2.12939445452166300D-03  3.41934770378433200D-01  2.28576752888791100D-01 -4.41124116346231700D-02 -5.57839373813264800D-02
49 12  5.48904297228257600D-02  8.93507658500576500D-04 -5.35355460506649800D-02  9.54822759972256400D-03 -4.11168697849926400D-03
49 13  1.21247165756475100D-01  3.47762871476271700D-01  7.28723839319870900D-01 -8.41845464360760900D-03  5.32217201770877400D-01
49 14 -6.01562721969028200D-02 -2.23051410849231900D-02  1.41017659588713400D+00 -1.58992928832992700D-01 -3.06230207776359200D-01
49 15  5.13887457974465800D-01 -2.07657250198105500D-01 -1.44960547161671300D-02  7.21685934207345800D-03 -9.51306288534412000D-02
49 16  1.21575501364024700D-01  3.48319877151647600D-01  7.28237613164873600D-01  8.36908822821490200D-03 -5.32363121541989200D-01
49 17  5.84865681426581000D-02  2.21167070922145600D-02 -1.41121125814227000D+00  1.55471899810559100D-01 -3.05260499657348000D-01
49 18  5.13266905924655200D-01 -2.08006406267306600D-01 -1.44395106895208600D-02  7.12205701140866800D-03 -9.26689949417558200D-02
49 19  2.01617269435281800D-01  3.68904933368627800D-01 -1.87464500796929000D+00 -4.05524484287244100D-01  2.39449980374262700D-03
49 20 -1.53385552938888100D-01  1.68717590965052100D-02  1.33539012469105300D-02 -8.49970589569484800D-01  9.32727901014127500D-02
49 21 -8.47510807704399800D-05  7.26646190098044300D-03 -8.69373275226771200D-04  4.36980828226547300D-01 -8.83622064035845100D-01
49 22  4.46641235809297400D-01  2.39987561006687000D-02 -1.03976554873172500D-03  1.70936897907692800D-01 -1.04644505353555800D-01
49 23  2.54089704090347900D-01 -1.49445198736792400D-01 -6.80834929995808400D-03 -2.35067143907683000D-03 -5.20101547040040200D-02
49 24  2.01429033035241200D-01  3.68503401551836600D-01 -1.87433608364632300D+00 -4.05245902096318100D-01 -2.41306642902061100D-03
49 25  1.53607461213511700D-01 -1.73459089581351900D-02 -1.34264108659764000D-02  8.49584394143875100D-01 -9.61173894752097600D-02
49 26  8.08850429345151400D-05 -7.41310197643287000D-03  7.80009296568327100D-04  4.37425133586561700D-01 -8.83203899079967100D-01
49 27  4.45778765493404600D-01  2.41428718491799200D-02 -1.15480220950942000D-03  1.75652191270474500D-01 -1.04867454427795700D-01
49 28  2.54151760400317700D-01 -1.49284305972522200D-01 -6.84395825495023300D-03 -2.31767418788232600D-03 -5.32628779033382700D-02
49 29  1.01106214223052800D-01  1.82141310497741500D-01  1.23755601410834500D-02 -5.60600242659436300D-02  5.56981577576111100D-03
49 30  1.00382016049441600D-01  1.82248173441637000D-01  1.01842701496875500D-02  5.61043302636955000D-02 -6.92510127089605300D-03
49 31  1.01280758616038800D-01  1.82217983712285200D-01 -1.06740280372297400D-02 -5.63771804205708500D-02  6.84160843874194100D-03
49 32  1.00232180752201700D-01  1.82237170959273500D-01 -1.19074447721092500D-02  5.57862774184788200D-02 -5.68683111478357700D-03
50  1 -7.24254626217491900D-02 -1.18763224435751900D-01  5.81103952213053300D-01  1.36786033837525100D-01  1.21233038803603100D-01
50  2 -2.08346847507169600D-02  1.58746448372082500D-01 -8.23821729395730300D-02  6.66967489317638100D-04  3.38165432541752500D-01
50  3 -2.24800262037926900D-01 -1.13365170503825800D-01  6.69051568682285100D-01 -1.03608370518900400D-01 -2.18670168989267000D-02
50  4  7.23765672761721600D-02  1.18686290034455500D-01 -5.80910446218071800D-01 -1.40498697588569900D-01  1.18580496596940500D-01
50  5 -5.87241313335874000D-03 -1.56408129810269400D-01 -8.52024750536885700D-02  1.80668758198506100D-02 -3.74100710476712200D-01
50  6  2.46988317750028900D-01  1.27112392726684000D-01  6.54167706252260500D-01 -4.27827983377271300D-02 -5.10990783479366200D-02
50  7 -7.25744254054070400D-02 -1.19060389101552500D-01  5.81003708246695000D-01 -1.40392328700992400D-01  1.18580340211239100D-01
50  8 -5.61662217899782700D-03 -1.55970885859092000D-01 -8.53703855020613400D-02  1.79545995323758700D-02  3.74007758289172900D-01
50  9 -2.46666373154379400D-01 -1.27341385134793200D-01 -6.54205076489006300D-01  4.26646777861187800D-02  5.22709583230003900D-02
50 10  7.24181355782589900D-02  1.18751594264006500D-01 -5.80621134484999700D-01  1.36614214773205200D-01  1.21110194176305800D-01
50 11 -2.11131769094673300D-02  1.58997624172677000D-01 -8.21486692037639300D-02  7.10505933865063800D-04 -3.38183785867943600D-01
50 12  2.25122781021985600D-01  1.13061004845958200D-01 -6.68999806246414200D-01  1.03745224263604900D-01  2.30561307556160300D-02
50 13 -2.98097683723273500D-02 -1.54741893387584700D-01 -8.79597926888884100D-01  7.72289057127027100D-03 -4.85894811828659700D-01
50 14  5.50054663991325100D-02  1.36544984037475100D-02 -8.64618409459418100D-01  9.74504593405844900D-02  6.91198271494250400D-01
50 15 -8.72839570431952300D-01  1.81641298937702300D-01  2.51860549762239100D-02 -3.38065209726985700D-02  1.38404100307632900D-01
50 16  3.00333528256109400D-02  1.55271519277222800D-01  8.80479120860900700D-01  7.76955164771730100D-03 -4.86817436831276100D-01
50 17  5.33926477842769400D-02  1.37671112231195600D-02 -8.66248941458860900D-01  9.54452462827341800D-02 -6.91411599342077300D-01
50 18  8.73841635033162500D-01 -1.82430035691085900D-01 -2.49325520162285800D-02  3.37353208061488800D-02 -1.35678673994949200D-01
50 19  6.89276860397734100D-02  9.95090265825264400D-02 -1.46699796664225900D+00 -2.84272117367439000D-01  4.19138157831337900D-03
50 20 -2.65133136821241600D-01  2.91417322811543400D-02  1.09203380133202400D-02 -6.96074934482633700D-01  7.62128315126271000D-02
50 21 -5.31688496266972700D-04  3.16338630870625200D-02 -3.56575506431592000D-03  5.02688444579016700D-01 -8.06156358873572300D-01
50 22  3.03467914294554900D-01  2.25650849655038500D-02 -1.40900796716171400D-02  1.42242640694208600D-01 -1.50808834385352600D-01
50 23  2.48187596819785400D-01 -9.73787624344335200D-02 -6.97143040068148500D-03  3.84463748664561900D-03 -4.45738047309217000D-02
50 24 -6.87978354242869800D-02 -9.92779906107742700D-02  1.46502998218910800D+00  2.83756410162467800D-01  4.16826724572192800D-03
50 25 -2.64810025835626200D-01  2.99125576208952900D-02  1.09827660408025000D-02 -6.94923245157718100D-01  7.87799378110094500D-02
50 26 -4.62701225925280900D-04  3.16882201550736900D-02 -3.49504133811566600D-03 -5.02286330259285500D-01  8.04575045950717900D-01
50 27 -3.02288715691432100D-01 -2.23699725316638300D-02  1.41305107586863100D-02 -1.46160882605234700D-01  1.50721020596093100D-01
50 28 -2.47835896198266500D-01  9.71148756021729800D-02  6.85040598775093200D-03 -3.84444234495273200D-03  4.53075138041491700D-02
50 29 -5.34558828780758900D-01 -1.11847529255971000D-01 -2.62639856903247800D-01  1.60763825685580300D-01 -3.65852223165805300D-03
50 30  5.34752419654119900D-01  1.12012743686965600D-01  2.57541422610896200D-01  1.65755262497560300D-01 -3.27724002893100600D-02
50 31 -5.34858315026786000D-01 -1.11930260109776300D-01  2.57626601997986700D-01  1.65804746740548400D-01 -3.22253400508242000D-02
50 32  5.34784705417245000D-01  1.12095572400984800D-01 -2.62705426630686500D-01  1.60713531865415800D-01 -4.11457634493664600D-03
51  1  0.00000000000000000D+00  0.00000000000000000D+00  0.00000000000000000D+00  0.00000000000000000D+00  0.00000000000000000D+00
51  2  0.00000000000000000D+00  0.00000000000000000D+00  0.00000000000000000D+00  0.00000000000000000D+00  0.00000000000000000D+00
51  3  0.00000000000000000D+00  0.00000000000000000D+00  0.00000000000000000D+00  0.00000000000000000D+00  0.00000000000000000D+00
51  4  0.00000000000000000D+00  0.00000000000000000D+00  0.00000000000000000D+00  0.00000000000000000D+00  0.00000000000000000D+00
51  5  0.00000000000000000D+00  0.00000000000000000D+00  0.00000000000000000D+00  0.00000000000000000D+00  0.00000000000000000D+00
51  6  0.00000000000000000D+00  0.00000000000000000D+00  0.00000000000000000D+00  0.00000000000000000D+00  0.00000000000000000D+00
51  7  0.00000000000000000D+00  0.00000000000000000D+00  0.00000000000000000D+00  0.00000000000000000D+00  0.00000000000000000D+00
51  8  0.00000000000000000D+00  0.00000000000000000D+00  0.00000000000000000D+00  0.00000000000000000D+00  0.00000000000000000D+00
51  9  0.00000000000000000D+00  0.00000000000000000D+00  0.00000000000000000D+00  0.00000000000000000D+00  0.00000000000000000D+00
51 10  0.00000000000000000D+00  0.00000000000000000D+00  0.00000000000000000D+00  0.00000000000000000D+00  0.00000000000000000D+00
51 11  0.00000000000000000D+00  0.00000000000000000D+00  0.00000000000000000D+00  0.00000000000000000D+00  0.00000000000000000D+00
51 12  0.00000000000000000D+00  0.00000000000000000D+00  0.00000000000000000D+00  0.00000000000000000D+00  0.00000000000000000D+00
51 13  0.00000000000000000D+00  0.00000000000000000D+00  0.00000000000000000D+00  0.00000000000000000D+00  0.00000000000000000D+00
51 14  0.00000000000000000D+00  0.00000000000000000D+00  0.00000000000000000D+00  0.00000000000000000D+00  0.00000000000000000D+00
51 15  0.00000000000000000D+00  0.00000000000000000D+00  0.00000000000000000D+00  0.00000000000000000D+00  0.00000000000000000D+00
51 16  0.00000000000000000D+00  0.00000000000000000D+00  0.00000000000000000D+00  0.00000000000000000D+00  0.00000000000000000D+00
51 17  0.00000000000000000D+00  0.00000000000000000D+00  0.00000000000000000D+00  0.00000000000000000D+00  0.00000000000000000D+00
51 18  0.00000000000000000D+00  0.00000000000000000D+00  0.00000000000000000D+00  0.00000000000000000D+00  0.00000000000000000D+00
51 19  0.00000000000000000D+00  0.00000000000000000D+00  0.00000000000000000D+00  0.00000000000000000D+00  0.00000000000000000D+00
51 20  0.00000000000000000D+00  0.00000000000000000D+00  0.00000000000000000D+00  0.00000000000000000D+00  0.00000000000000000D+00
51 21  0.00000000000000000D+00  0.00000000000000000D+00  0.00000000000000000D+00  0.00000000000000000D+00  0.00000000000000000D+00
51 22  0.00000000000000000D+00  0.00000000000000000D+00  0.00000000000000000D+00  0.00000000000000000D+00  0.00000000000000000D+00
51 23  0.00000000000000000D+00  0.00000000000000000D+00  0.00000000000000000D+00  0.00000000000000000D+00  0.00000000000000000D+00
51 24  0.00000000000000000D+00  0.00000000000000000D+00  0.00000000000000000D+00  0.00000000000000000D+00  0.00000000000000000D+00
51 25  0.00000000000000000D+00  0.00000000000000000D+00  0.00000000000000000D+00  0.00000000000000000D+00  0.00000000000000000D+00
51 26  0.00000000000000000D+00  0.00000000000000000D+00  0.00000000000000000D+00  0.00000000000000000D+00  0.00000000000000000D+00
51 27  0.00000000000000000D+00  0.00000000000000000D+00  0.00000000000000000D+00  0.00000000000000000D+00  4.47213595499956600D-01
51 28  4.47213595499956800D-01  4.47213595499956500D-01  0.00000000000000000D+00  0.00000000000000000D+00  0.00000000000000000D+00
51 29  0.00000000000000000D+00  0.00000000000000000D+00  0.00000000000000000D+00  0.00000000000000000D+00  0.00000000000000000D+00
51 30  0.00000000000000000D+00  0.00000000000000000D+00  0.00000000000000000D+00  0.00000000000000000D+00  0.00000000000000000D+00
51 31  0.00000000000000000D+00  0.00000000000000000D+00  0.00000000000000000D+00  0.00000000000000000D+00  0.00000000000000000D+00
51 32  0.00000000000000000D+00  0.00000000000000000D+00  0.00000000000000000D+00  0.00000000000000000D+00  0.00000000000000000D+00
52  1  0.00000000000000000D+00  0.00000000000000000D+00  0.00000000000000000D+00  0.00000000000000000D+00  0.00000000000000000D+00
52  2  0.00000000000000000D+00  0.00000000000000000D+00  0.00000000000000000D+00  0.00000000000000000D+00  0.00000000000000000D+00
52  3  0.00000000000000000D+00  0.00000000000000000D+00  0.00000000000000000D+00  0.00000000000000000D+00  0.00000000000000000D+00
52  4  0.00000000000000000D+00  0.00000000000000000D+00  0.00000000000000000D+00  0.00000000000000000D+00  0.00000000000000000D+00
52  5  0.00000000000000000D+00  0.00000000000000000D+00  0.00000000000000000D+00  0.00000000000000000D+00  0.00000000000000000D+00
52  6  0.00000000000000000D+00  0.00000000000000000D+00  0.00000000000000000D+00  0.00000000000000000D+00  0.00000000000000000D+00
52  7  0.00000000000000000D+00  0.00000000000000000D+00  0.00000000000000000D+00  0.00000000000000000D+00  0.00000000000000000D+00
52  8  0.00000000000000000D+00  0.00000000000000000D+00  0.00000000000000000D+00  0.00000000000000000D+00  0.00000000000000000D+00
52  9  0.00000000000000000D+00  0.00000000000000000D+00  0.00000000000000000D+00  0.00000000000000000D+00  0.00000000000000000D+00
52 10  0.00000000000000000D+00  0.00000000000000000D+00  0.00000000000000000D+00  0.00000000000000000D+00  0.00000000000000000D+00
52 11  0.00000000000000000D+00  0.00000000000000000D+00  0.00000000000000000D+00  0.00000000000000000D+00  0.00000000000000000D+00
52 12  0.00000000000000000D+00  0.00000000000000000D+00  0.00000000000000000D+00  0.00000000000000000D+00  0.00000000000000000D+00
52 13  0.00000000000000000D+00  0.00000000000000000D+00  0.00000000000000000D+00  0.00000000000000000D+00  0.00000000000000000D+00
52 14  0.00000000000000000D+00  0.00000000000000000D+00  0.00000000000000000D+00  0.00000000000000000D+00  0.00000000000000000D+00
52 15  0.00000000000000000D+00  0.00000000000000000D+00  0.00000000000000000D+00  0.00000000000000000D+00  0.00000000000000000D+00
52 16  0.00000000000000000D+00  0.00000000000000000D+00  0.00000000000000000D+00  0.00000000000000000D+00  0.00000000000000000D+00
52 17  0.00000000000000000D+00  0.00000000000000000D+00  0.00000000000000000D+00  0.00000000000000000D+00  0.00000000000000000D+00
52 18  0.00000000000000000D+00  0.00000000000000000D+00  0.00000000000000000D+00  0.00000000000000000D+00  0.00000000000000000D+00
52 19  0.00000000000000000D+00  0.00000000000000000D+00  0.00000000000000000D+00  0.00000000000000000D+00  0.00000000000000000D+00
52 20  0.00000000000000000D+00  0.00000000000000000D+00  0.00000000000000000D+00  0.00000000000000000D+00  0.00000000000000000D+00
52 21  0.00000000000000000D+00  0.00000000000000000D+00  0.00000000000000000D+00  0.00000000000000000D+00  0.00000000000000000D+00
52 22  0.00000000000000000D+00  0.00000000000000000D+00  0.00000000000000000D+00  0.00000000000000000D+00  4.47213595499956700D-01
52 23  4.47213595499956900D-01  4.47213595499956700D-01  0.00000000000000000D+00  0.00000000000000000D+00  0.00000000000000000D+00
52 24  0.00000000000000000D+00  0.00000000000000000D+00  0.00000000000000000D+00  0.00000000000000000D+00  0.00000000000000000D+00
52 25  0.00000000000000000D+00  0.00000000000000000D+00  0.00000000000000000D+00  0.00000000000000000D+00  0.00000000000000000D+00
52 26  0.00000000000000000D+00  0.00000000000000000D+00  0.00000000000000000D+00  0.00000000000000000D+00  0.00000000000000000D+00
52 27  0.00000000000000000D+00  0.00000000000000000D+00  0.00000000000000000D+00  0.00000000000000000D+00  0.00000000000000000D+00
52 28  0.00000000000000000D+00  0.00000000000000000D+00  0.00000000000000000D+00  0.00000000000000000D+00  0.00000000000000000D+00
52 29  0.00000000000000000D+00  0.00000000000000000D+00  0.00000000000000000D+00  0.00000000000000000D+00  0.00000000000000000D+00
52 30  0.00000000000000000D+00  0.00000000000000000D+00  0.00000000000000000D+00  0.00000000000000000D+00  0.00000000000000000D+00
52 31  0.00000000000000000D+00  0.00000000000000000D+00  0.00000000000000000D+00  0.00000000000000000D+00  0.00000000000000000D+00
52 32  0.00000000000000000D+00  0.00000000000000000D+00  0.00000000000000000D+00  0.00000000000000000D+00  0.00000000000000000D+00
53  1  0.00000000000000000D+00  0.00000000000000000D+00  0.00000000000000000D+00  0.00000000000000000D+00  0.00000000000000000D+00
53  2  0.00000000000000000D+00  0.00000000000000000D+00  0.00000000000000000D+00  0.00000000000000000D+00  1.72522618463929700D-11
53  3  1.72516350135587400D-11  1.72523552019335900D-11  0.00000000000000000D+00  0.00000000000000000D+00  0.00000000000000000D+00
53  4  0.00000000000000000D+00  0.00000000000000000D+00  0.00000000000000000D+00  0.00000000000000000D+00  0.00000000000000000D+00
53  5  0.00000000000000000D+00  0.00000000000000000D+00  0.00000000000000000D+00  0.00000000000000000D+00 -4.47213595499956300D-01
53  6 -4.47213595499956700D-01 -4.47213595499956700D-01  0.00000000000000000D+00  0.00000000000000000D+00  0.00000000000000000D+00
53  7  0.00000000000000000D+00  0.00000000000000000D+00  0.00000000000000000D+00  0.00000000000000000D+00  0.00000000000000000D+00
53  8  0.00000000000000000D+00  0.00000000000000000D+00  0.00000000000000000D+00  0.00000000000000000D+00  0.00000000000000000D+00
53  9  0.00000000000000000D+00  0.00000000000000000D+00  0.00000000000000000D+00  0.00000000000000000D+00  0.00000000000000000D+00
53 10  0.00000000000000000D+00  0.00000000000000000D+00  0.00000000000000000D+00  0.00000000000000000D+00  0.00000000000000000D+00
53 11  0.00000000000000000D+00  0.00000000000000000D+00  0.00000000000000000D+00  0.00000000000000000D+00  0.00000000000000000D+00
53 12  0.00000000000000000D+00  0.00000000000000000D+00  0.00000000000000000D+00  0.00000000000000000D+00  0.00000000000000000D+00
53 13  0.00000000000000000D+00  0.00000000000000000D+00  0.00000000000000000D+00  0.00000000000000000D+00  0.00000000000000000D+00
53 14  0.00000000000000000D+00  0.00000000000000000D+00  0.00000000000000000D+00  0.00000000000000000D+00  0.00000000000000000D+00
53 15  0.00000000000000000D+00  0.00000000000000000D+00  0.00000000000000000D+00  0.00000000000000000D+00  0.00000000000000000D+00
53 16  0.00000000000000000D+00  0.00000000000000000D+00  0.00000000000000000D+00  0.00000000000000000D+00  0.00000000000000000D+00
53 17  0.00000000000000000D+00  0.00000000000000000D+00  0.00000000000000000D+00  0.00000000000000000D+00  0.00000000000000000D+00
53 18  0.00000000000000000D+00  0.00000000000000000D+00  0.00000000000000000D+00  0.00000000000000000D+00  0.00000000000000000D+00
53 19  0.00000000000000000D+00  0.00000000000000000D+00  0.00000000000000000D+00  0.00000000000000000D+00  0.00000000000000000D+00
53 20  0.00000000000000000D+00  0.00000000000000000D+00  0.00000000000000000D+00  0.00000000000000000D+00  0.00000000000000000D+00
53 21  0.00000000000000000D+00  0.00000000000000000D+00  0.00000000000000000D+00  0.00000000000000000D+00  0.00000000000000000D+00
53 22  0.00000000000000000D+00  0.00000000000000000D+00  0.00000000000000000D+00  0.00000000000000000D+00  0.00000000000000000D+00
53 23  0.00000000000000000D+00  0.00000000000000000D+00  0.00000000000000000D+00  0.00000000000000000D+00  0.00000000000000000D+00
53 24  0.00000000000000000D+00  0.00000000000000000D+00  0.00000000000000000D+00  0.00000000000000000D+00  0.00000000000000000D+00
53 25  0.00000000000000000D+00  0.00000000000000000D+00  0.00000000000000000D+00  0.00000000000000000D+00  0.00000000000000000D+00
53 26  0.00000000000000000D+00  0.00000000000000000D+00  0.00000000000000000D+00  0.00000000000000000D+00  0.00000000000000000D+00
53 27  0.00000000000000000D+00  0.00000000000000000D+00  0.00000000000000000D+00  0.00000000000000000D+00  0.00000000000000000D+00
53 28  0.00000000000000000D+00  0.00000000000000000D+00  0.00000000000000000D+00  0.00000000000000000D+00  0.00000000000000000D+00
53 29  0.00000000000000000D+00  0.00000000000000000D+00  0.00000000000000000D+00  0.00000000000000000D+00  0.00000000000000000D+00
53 30  0.00000000000000000D+00  0.00000000000000000D+00  0.00000000000000000D+00  0.00000000000000000D+00  0.00000000000000000D+00
53 31  0.00000000000000000D+00  0.00000000000000000D+00  0.00000000000000000D+00  0.00000000000000000D+00  0.00000000000000000D+00
53 32  0.00000000000000000D+00  0.00000000000000000D+00  0.00000000000000000D+00  0.00000000000000000D+00  0.00000000000000000D+00
54  1  0.00000000000000000D+00  0.00000000000000000D+00  0.00000000000000000D+00  0.00000000000000000D+00  0.00000000000000000D+00
54  2  0.00000000000000000D+00  0.00000000000000000D+00  0.00000000000000000D+00  0.00000000000000000D+00  4.47213595499956600D-01
54  3  4.47213595499956800D-01  4.47213595499956300D-01  0.00000000000000000D+00  0.00000000000000000D+00  0.00000000000000000D+00
54  4  0.00000000000000000D+00  0.00000000000000000D+00  0.00000000000000000D+00  0.00000000000000000D+00  0.00000000000000000D+00
54  5  0.00000000000000000D+00  0.00000000000000000D+00  0.00000000000000000D+00  0.00000000000000000D+00  1.72527937640473400D-11
54  6  1.72525371812352300D-11  1.72526419622908700D-11  0.00000000000000000D+00  0.00000000000000000D+00  0.00000000000000000D+00
54  7  0.00000000000000000D+00  0.00000000000000000D+00  0.00000000000000000D+00  0.00000000000000000D+00  0.00000000000000000D+00
54  8  0.00000000000000000D+00  0.00000000000000000D+00  0.00000000000000000D+00  0.00000000000000000D+00 -5.83462990260341400D-10
54  9 -5.83463348078928600D-10 -5.83462918809827300D-10  0.00000000000000000D+00  0.00000000000000000D+00  0.00000000000000000D+00
54 10  0.00000000000000000D+00  0.00000000000000000D+00  0.00000000000000000D+00  0.00000000000000000D+00  0.00000000000000000D+00
54 11  0.00000000000000000D+00  0.00000000000000000D+00  0.00000000000000000D+00  0.00000000000000000D+00  1.51751541698988300D-11
54 12  1.51750095780581200D-11  1.51751836328245300D-11  0.00000000000000000D+00  0.00000000000000000D+00  0.00000000000000000D+00
54 13  0.00000000000000000D+00  0.00000000000000000D+00  0.00000000000000000D+00  0.00000000000000000D+00  0.00000000000000000D+00
54 14  0.00000000000000000D+00  0.00000000000000000D+00  0.00000000000000000D+00  0.00000000000000000D+00  0.00000000000000000D+00
54 15  0.00000000000000000D+00  0.00000000000000000D+00  0.00000000000000000D+00  0.00000000000000000D+00  0.00000000000000000D+00
54 16  0.00000000000000000D+00  0.00000000000000000D+00  0.00000000000000000D+00  0.00000000000000000D+00  0.00000000000000000D+00
54 17  0.00000000000000000D+00  0.00000000000000000D+00  0.00000000000000000D+00  0.00000000000000000D+00  0.00000000000000000D+00
54 18  0.00000000000000000D+00  0.00000000000000000D+00  0.00000000000000000D+00  0.00000000000000000D+00  0.00000000000000000D+00
54 19  0.00000000000000000D+00  0.00000000000000000D+00  0.00000000000000000D+00  0.00000000000000000D+00  0.00000000000000000D+00
54 20  0.00000000000000000D+00  0.00000000000000000D+00  0.00000000000000000D+00  0.00000000000000000D+00  0.00000000000000000D+00
54 21  0.00000000000000000D+00  0.00000000000000000D+00  0.00000000000000000D+00  0.00000000000000000D+00  0.00000000000000000D+00
54 22  0.00000000000000000D+00  0.00000000000000000D+00  0.00000000000000000D+00  0.00000000000000000D+00  0.00000000000000000D+00
54 23  0.00000000000000000D+00  0.00000000000000000D+00  0.00000000000000000D+00  0.00000000000000000D+00  0.00000000000000000D+00
54 24  0.00000000000000000D+00  0.00000000000000000D+00  0.00000000000000000D+00  0.00000000000000000D+00  0.00000000000000000D+00
54 25  0.00000000000000000D+00  0.00000000000000000D+00  0.00000000000000000D+00  0.00000000000000000D+00  0.00000000000000000D+00
54 26  0.00000000000000000D+00  0.00000000000000000D+00  0.00000000000000000D+00  0.00000000000000000D+00  0.00000000000000000D+00
54 27  0.00000000000000000D+00  0.00000000000000000D+00  0.00000000000000000D+00  0.00000000000000000D+00  0.00000000000000000D+00
54 28  0.00000000000000000D+00  0.00000000000000000D+00  0.00000000000000000D+00  0.00000000000000000D+00  0.00000000000000000D+00
54 29  0.00000000000000000D+00  0.00000000000000000D+00  0.00000000000000000D+00  0.00000000000000000D+00  0.00000000000000000D+00
54 30  0.00000000000000000D+00  0.00000000000000000D+00  0.00000000000000000D+00  0.00000000000000000D+00  0.00000000000000000D+00
54 31  0.00000000000000000D+00  0.00000000000000000D+00  0.00000000000000000D+00  0.00000000000000000D+00  0.00000000000000000D+00
54 32  0.00000000000000000D+00  0.00000000000000000D+00  0.00000000000000000D+00  0.00000000000000000D+00  0.00000000000000000D+00
55  1  0.00000000000000000D+00  0.00000000000000000D+00  0.00000000000000000D+00  0.00000000000000000D+00  0.00000000000000000D+00
55  2  0.00000000000000000D+00  0.00000000000000000D+00  0.00000000000000000D+00  0.00000000000000000D+00 -5.83463307564700400D-10
55  3 -5.83463383634709300D-10 -5.83463440250321200D-10  0.00000000000000000D+00  0.00000000000000000D+00  0.00000000000000000D+00
55  4  0.00000000000000000D+00  0.00000000000000000D+00  0.00000000000000000D+00  0.00000000000000000D+00  0.00000000000000000D+00
55  5  0.00000000000000000D+00  0.00000000000000000D+00  0.00000000000000000D+00  0.00000000000000000D+00  0.00000000000000000D+00
55  6  0.00000000000000000D+00  0.00000000000000000D+00  0.00000000000000000D+00  0.00000000000000000D+00  0.00000000000000000D+00
55  7  0.00000000000000000D+00  0.00000000000000000D+00  0.00000000000000000D+00  0.00000000000000000D+00  0.00000000000000000D+00
55  8  0.00000000000000000D+00  0.00000000000000000D+00  0.00000000000000000D+00  0.00000000000000000D+00 -4.47213595499956900D-01
55  9 -4.47213595499957300D-01 -4.47213595499957200D-01  0.00000000000000000D+00  0.00000000000000000D+00  0.00000000000000000D+00
55 10  0.00000000000000000D+00  0.00000000000000000D+00  0.00000000000000000D+00  0.00000000000000000D+00  0.00000000000000000D+00
55 11  0.00000000000000000D+00  0.00000000000000000D+00  0.00000000000000000D+00  0.00000000000000000D+00 -1.20554687824661000D-11
55 12 -1.20555474331910400D-11 -1.20555118900173200D-11  0.00000000000000000D+00  0.00000000000000000D+00  0.00000000000000000D+00
55 13  0.00000000000000000D+00  0.00000000000000000D+00  0.00000000000000000D+00  0.00000000000000000D+00  0.00000000000000000D+00
55 14  0.00000000000000000D+00  0.00000000000000000D+00  0.00000000000000000D+00  0.00000000000000000D+00  0.00000000000000000D+00
55 15  0.00000000000000000D+00  0.00000000000000000D+00  0.00000000000000000D+00  0.00000000000000000D+00  0.00000000000000000D+00
55 16  0.00000000000000000D+00  0.00000000000000000D+00  0.00000000000000000D+00  0.00000000000000000D+00  0.00000000000000000D+00
55 17  0.00000000000000000D+00  0.00000000000000000D+00  0.00000000000000000D+00  0.00000000000000000D+00  0.00000000000000000D+00
55 18  0.00000000000000000D+00  0.00000000000000000D+00  0.00000000000000000D+00  0.00000000000000000D+00  0.00000000000000000D+00
55 19  0.00000000000000000D+00  0.00000000000000000D+00  0.00000000000000000D+00  0.00000000000000000D+00  0.00000000000000000D+00
55 20  0.00000000000000000D+00  0.00000000000000000D+00  0.00000000000000000D+00  0.00000000000000000D+00  0.00000000000000000D+00
55 21  0.00000000000000000D+00  0.00000000000000000D+00  0.00000000000000000D+00  0.00000000000000000D+00  0.00000000000000000D+00
55 22  0.00000000000000000D+00  0.00000000000000000D+00  0.00000000000000000D+00  0.00000000000000000D+00  0.00000000000000000D+00
55 23  0.00000000000000000D+00  0.00000000000000000D+00  0.00000000000000000D+00  0.00000000000000000D+00  0.00000000000000000D+00
55 24  0.00000000000000000D+00  0.00000000000000000D+00  0.00000000000000000D+00  0.00000000000000000D+00  0.00000000000000000D+00
55 25  0.00000000000000000D+00  0.00000000000000000D+00  0.00000000000000000D+00  0.00000000000000000D+00  0.00000000000000000D+00
55 26  0.00000000000000000D+00  0.00000000000000000D+00  0.00000000000000000D+00  0.00000000000000000D+00  0.00000000000000000D+00
55 27  0.00000000000000000D+00  0.00000000000000000D+00  0.00000000000000000D+00  0.00000000000000000D+00  0.00000000000000000D+00
55 28  0.00000000000000000D+00  0.00000000000000000D+00  0.00000000000000000D+00  0.00000000000000000D+00  0.00000000000000000D+00
55 29  0.00000000000000000D+00  0.00000000000000000D+00  0.00000000000000000D+00  0.00000000000000000D+00  0.00000000000000000D+00
55 30  0.00000000000000000D+00  0.00000000000000000D+00  0.00000000000000000D+00  0.00000000000000000D+00  0.00000000000000000D+00
55 31  0.00000000000000000D+00  0.00000000000000000D+00  0.00000000000000000D+00  0.00000000000000000D+00  0.00000000000000000D+00
55 32  0.00000000000000000D+00  0.00000000000000000D+00  0.00000000000000000D+00  0.00000000000000000D+00  0.00000000000000000D+00
56  1  0.00000000000000000D+00  0.00000000000000000D+00  0.00000000000000000D+00  0.00000000000000000D+00  0.00000000000000000D+00
56  2  0.00000000000000000D+00  0.00000000000000000D+00  0.00000000000000000D+00  0.00000000000000000D+00 -1.51754198538366700D-11
56  3 -1.51753885144239300D-11 -1.51751357573966600D-11  0.00000000000000000D+00  0.00000000000000000D+00  0.00000000000000000D+00
56  4  0.00000000000000000D+00  0.00000000000000000D+00  0.00000000000000000D+00  0.00000000000000000D+00  0.00000000000000000D+00
56  5  0.00000000000000000D+00  0.00000000000000000D+00  0.00000000000000000D+00  0.00000000000000000D+00  0.00000000000000000D+00
56  6  0.00000000000000000D+00  0.00000000000000000D+00  0.00000000000000000D+00  0.00000000000000000D+00  0.00000000000000000D+00
56  7  0.00000000000000000D+00  0.00000000000000000D+00  0.00000000000000000D+00  0.00000000000000000D+00  0.00000000000000000D+00
56  8  0.00000000000000000D+00  0.00000000000000000D+00  0.00000000000000000D+00  0.00000000000000000D+00 -1.20556249814539200D-11
56  9 -1.20556441052590700D-11 -1.20558627027310900D-11  0.00000000000000000D+00  0.00000000000000000D+00  0.00000000000000000D+00
56 10  0.00000000000000000D+00  0.00000000000000000D+00  0.00000000000000000D+00  0.00000000000000000D+00  0.00000000000000000D+00
56 11  0.00000000000000000D+00  0.00000000000000000D+00  0.00000000000000000D+00  0.00000000000000000D+00  4.47213595499956700D-01
56 12  4.47213595499956900D-01  4.47213595499956700D-01  0.00000000000000000D+00  0.00000000000000000D+00  0.00000000000000000D+00
56 13  0.00000000000000000D+00  0.00000000000000000D+00  0.00000000000000000D+00  0.00000000000000000D+00  0.00000000000000000D+00
56 14  0.00000000000000000D+00  0.00000000000000000D+00  0.00000000000000000D+00  0.00000000000000000D+00  0.00000000000000000D+00
56 15  0.00000000000000000D+00  0.00000000000000000D+00  0.00000000000000000D+00  0.00000000000000000D+00  0.00000000000000000D+00
56 16  0.00000000000000000D+00  0.00000000000000000D+00  0.00000000000000000D+00  0.00000000000000000D+00  0.00000000000000000D+00
56 17  0.00000000000000000D+00  0.00000000000000000D+00  0.00000000000000000D+00  0.00000000000000000D+00  0.00000000000000000D+00
56 18  0.00000000000000000D+00  0.00000000000000000D+00  0.00000000000000000D+00  0.00000000000000000D+00  0.00000000000000000D+00
56 19  0.00000000000000000D+00  0.00000000000000000D+00  0.00000000000000000D+00  0.00000000000000000D+00  0.00000000000000000D+00
56 20  0.00000000000000000D+00  0.00000000000000000D+00  0.00000000000000000D+00  0.00000000000000000D+00  0.00000000000000000D+00
56 21  0.00000000000000000D+00  0.00000000000000000D+00  0.00000000000000000D+00  0.00000000000000000D+00  0.00000000000000000D+00
56 22  0.00000000000000000D+00  0.00000000000000000D+00  0.00000000000000000D+00  0.00000000000000000D+00  0.00000000000000000D+00
56 23  0.00000000000000000D+00  0.00000000000000000D+00  0.00000000000000000D+00  0.00000000000000000D+00  0.00000000000000000D+00
56 24  0.00000000000000000D+00  0.00000000000000000D+00  0.00000000000000000D+00  0.00000000000000000D+00  0.00000000000000000D+00
56 25  0.00000000000000000D+00  0.00000000000000000D+00  0.00000000000000000D+00  0.00000000000000000D+00  0.00000000000000000D+00
56 26  0.00000000000000000D+00  0.00000000000000000D+00  0.00000000000000000D+00  0.00000000000000000D+00  0.00000000000000000D+00
56 27  0.00000000000000000D+00  0.00000000000000000D+00  0.00000000000000000D+00  0.00000000000000000D+00  0.00000000000000000D+00
56 28  0.00000000000000000D+00  0.00000000000000000D+00  0.00000000000000000D+00  0.00000000000000000D+00  0.00000000000000000D+00
56 29  0.00000000000000000D+00  0.00000000000000000D+00  0.00000000000000000D+00  0.00000000000000000D+00  0.00000000000000000D+00
56 30  0.00000000000000000D+00  0.00000000000000000D+00  0.00000000000000000D+00  0.00000000000000000D+00  0.00000000000000000D+00
56 31  0.00000000000000000D+00  0.00000000000000000D+00  0.00000000000000000D+00  0.00000000000000000D+00  0.00000000000000000D+00
56 32  0.00000000000000000D+00  0.00000000000000000D+00  0.00000000000000000D+00  0.00000000000000000D+00  0.00000000000000000D+00
57  1  0.00000000000000000D+00  0.00000000000000000D+00  0.00000000000000000D+00  0.00000000000000000D+00  0.00000000000000000D+00
57  2  0.00000000000000000D+00  0.00000000000000000D+00  0.00000000000000000D+00  0.00000000000000000D+00  0.00000000000000000D+00
57  3  0.00000000000000000D+00  0.00000000000000000D+00  0.00000000000000000D+00  0.00000000000000000D+00  0.00000000000000000D+00
57  4  0.00000000000000000D+00  0.00000000000000000D+00  0.00000000000000000D+00  0.00000000000000000D+00  0.00000000000000000D+00
57  5  0.00000000000000000D+00  0.00000000000000000D+00  0.00000000000000000D+00  0.00000000000000000D+00  0.00000000000000000D+00
57  6  0.00000000000000000D+00  0.00000000000000000D+00  0.00000000000000000D+00  0.00000000000000000D+00  0.00000000000000000D+00
57  7  0.00000000000000000D+00  0.00000000000000000D+00  0.00000000000000000D+00  0.00000000000000000D+00  0.00000000000000000D+00
57  8  0.00000000000000000D+00  0.00000000000000000D+00  0.00000000000000000D+00  0.00000000000000000D+00  0.00000000000000000D+00
57  9  0.00000000000000000D+00  0.00000000000000000D+00  0.00000000000000000D+00  0.00000000000000000D+00  0.00000000000000000D+00
57 10  0.00000000000000000D+00  0.00000000000000000D+00  0.00000000000000000D+00  0.00000000000000000D+00  0.00000000000000000D+00
57 11  0.00000000000000000D+00  0.00000000000000000D+00  0.00000000000000000D+00  0.00000000000000000D+00  0.00000000000000000D+00
57 12  0.00000000000000000D+00  0.00000000000000000D+00  0.00000000000000000D+00  0.00000000000000000D+00  0.00000000000000000D+00
57 13  0.00000000000000000D+00  0.00000000000000000D+00  0.00000000000000000D+00  0.00000000000000000D+00  0.00000000000000000D+00
57 14  0.00000000000000000D+00  0.00000000000000000D+00  0.00000000000000000D+00  0.00000000000000000D+00 -2.15537092779278600D-11
57 15 -2.15497920556683900D-11 -2.15431751163193800D-11  0.00000000000000000D+00  0.00000000000000000D+00  0.00000000000000000D+00
57 16  0.00000000000000000D+00  0.00000000000000000D+00  0.00000000000000000D+00  0.00000000000000000D+00  0.00000000000000000D+00
57 17  0.00000000000000000D+00  0.00000000000000000D+00  0.00000000000000000D+00  0.00000000000000000D+00  0.00000000000000000D+00
57 18  0.00000000000000000D+00  0.00000000000000000D+00  0.00000000000000000D+00  0.00000000000000000D+00  0.00000000000000000D+00
57 19  0.00000000000000000D+00  0.00000000000000000D+00  0.00000000000000000D+00  0.00000000000000000D+00  0.00000000000000000D+00
57 20  0.00000000000000000D+00  0.00000000000000000D+00  0.00000000000000000D+00  0.00000000000000000D+00  0.00000000000000000D+00
57 21  0.00000000000000000D+00  0.00000000000000000D+00  0.00000000000000000D+00  0.00000000000000000D+00  0.00000000000000000D+00
57 22  0.00000000000000000D+00  0.00000000000000000D+00  0.00000000000000000D+00  0.00000000000000000D+00  0.00000000000000000D+00
57 23  0.00000000000000000D+00  0.00000000000000000D+00  0.00000000000000000D+00  0.00000000000000000D+00  0.00000000000000000D+00
57 24  0.00000000000000000D+00  0.00000000000000000D+00  0.00000000000000000D+00  0.00000000000000000D+00  0.00000000000000000D+00
57 25  0.00000000000000000D+00  0.00000000000000000D+00  0.00000000000000000D+00  0.00000000000000000D+00  0.00000000000000000D+00
57 26  0.00000000000000000D+00  0.00000000000000000D+00  0.00000000000000000D+00 -4.47213595499956700D-01 -4.47213595499957300D-01
57 27 -4.47213595499956500D-01  0.00000000000000000D+00  0.00000000000000000D+00  0.00000000000000000D+00  0.00000000000000000D+00
57 28  0.00000000000000000D+00  0.00000000000000000D+00  0.00000000000000000D+00  0.00000000000000000D+00  0.00000000000000000D+00
57 29  0.00000000000000000D+00  0.00000000000000000D+00  0.00000000000000000D+00  0.00000000000000000D+00  0.00000000000000000D+00
57 30  0.00000000000000000D+00  0.00000000000000000D+00  0.00000000000000000D+00  0.00000000000000000D+00  0.00000000000000000D+00
57 31  0.00000000000000000D+00  0.00000000000000000D+00  0.00000000000000000D+00  0.00000000000000000D+00  0.00000000000000000D+00
57 32  0.00000000000000000D+00  0.00000000000000000D+00  0.00000000000000000D+00  0.00000000000000000D+00  0.00000000000000000D+00
58  1  0.00000000000000000D+00  0.00000000000000000D+00  0.00000000000000000D+00  0.00000000000000000D+00  0.00000000000000000D+00
58  2  0.00000000000000000D+00  0.00000000000000000D+00  0.00000000000000000D+00  0.00000000000000000D+00  0.00000000000000000D+00
58  3  0.00000000000000000D+00  0.00000000000000000D+00  0.00000000000000000D+00  0.00000000000000000D+00  0.00000000000000000D+00
58  4  0.00000000000000000D+00  0.00000000000000000D+00  0.00000000000000000D+00  0.00000000000000000D+00  0.00000000000000000D+00
58  5  0.00000000000000000D+00  0.00000000000000000D+00  0.00000000000000000D+00  0.00000000000000000D+00  0.00000000000000000D+00
58  6  0.00000000000000000D+00  0.00000000000000000D+00  0.00000000000000000D+00  0.00000000000000000D+00  0.00000000000000000D+00
58  7  0.00000000000000000D+00  0.00000000000000000D+00  0.00000000000000000D+00  0.00000000000000000D+00  0.00000000000000000D+00
58  8  0.00000000000000000D+00  0.00000000000000000D+00  0.00000000000000000D+00  0.00000000000000000D+00  0.00000000000000000D+00
58  9  0.00000000000000000D+00  0.00000000000000000D+00  0.00000000000000000D+00  0.00000000000000000D+00  0.00000000000000000D+00
58 10  0.00000000000000000D+00  0.00000000000000000D+00  0.00000000000000000D+00  0.00000000000000000D+00  0.00000000000000000D+00
58 11  0.00000000000000000D+00  0.00000000000000000D+00  0.00000000000000000D+00  0.00000000000000000D+00  0.00000000000000000D+00
58 12  0.00000000000000000D+00  0.00000000000000000D+00  0.00000000000000000D+00  0.00000000000000000D+00  0.00000000000000000D+00
58 13  0.00000000000000000D+00  0.00000000000000000D+00  0.00000000000000000D+00  0.00000000000000000D+00  0.00000000000000000D+00
58 14  0.00000000000000000D+00  0.00000000000000000D+00  0.00000000000000000D+00  0.00000000000000000D+00  0.00000000000000000D+00
58 15  0.00000000000000000D+00  0.00000000000000000D+00  0.00000000000000000D+00  0.00000000000000000D+00  0.00000000000000000D+00
58 16  0.00000000000000000D+00  0.00000000000000000D+00  0.00000000000000000D+00  0.00000000000000000D+00  0.00000000000000000D+00
58 17  0.00000000000000000D+00  0.00000000000000000D+00  0.00000000000000000D+00  0.00000000000000000D+00  0.00000000000000000D+00
58 18  0.00000000000000000D+00  0.00000000000000000D+00  0.00000000000000000D+00  0.00000000000000000D+00  0.00000000000000000D+00
58 19  0.00000000000000000D+00  0.00000000000000000D+00  0.00000000000000000D+00  0.00000000000000000D+00  0.00000000000000000D+00
58 20  0.00000000000000000D+00  0.00000000000000000D+00  0.00000000000000000D+00  0.00000000000000000D+00  0.00000000000000000D+00
58 21  0.00000000000000000D+00  0.00000000000000000D+00  0.00000000000000000D+00 -4.47213595499956900D-01 -4.47213595499957000D-01
58 22 -4.47213595499957200D-01  0.00000000000000000D+00  0.00000000000000000D+00  0.00000000000000000D+00  0.00000000000000000D+00
58 23  0.00000000000000000D+00  0.00000000000000000D+00  0.00000000000000000D+00  0.00000000000000000D+00  0.00000000000000000D+00
58 24  0.00000000000000000D+00  0.00000000000000000D+00  0.00000000000000000D+00  0.00000000000000000D+00  0.00000000000000000D+00
58 25  0.00000000000000000D+00  0.00000000000000000D+00  0.00000000000000000D+00  0.00000000000000000D+00  0.00000000000000000D+00
58 26  0.00000000000000000D+00  0.00000000000000000D+00  0.00000000000000000D+00  0.00000000000000000D+00  0.00000000000000000D+00
58 27  0.00000000000000000D+00  0.00000000000000000D+00  0.00000000000000000D+00  0.00000000000000000D+00  0.00000000000000000D+00
58 28  0.00000000000000000D+00  0.00000000000000000D+00  0.00000000000000000D+00  0.00000000000000000D+00  0.00000000000000000D+00
58 29  0.00000000000000000D+00  0.00000000000000000D+00  0.00000000000000000D+00  0.00000000000000000D+00  0.00000000000000000D+00
58 30  0.00000000000000000D+00  0.00000000000000000D+00  0.00000000000000000D+00  0.00000000000000000D+00  0.00000000000000000D+00
58 31  0.00000000000000000D+00  0.00000000000000000D+00  0.00000000000000000D+00  0.00000000000000000D+00  0.00000000000000000D+00
58 32  0.00000000000000000D+00  0.00000000000000000D+00  0.00000000000000000D+00  0.00000000000000000D+00  0.00000000000000000D+00
59  1  0.00000000000000000D+00  0.00000000000000000D+00  0.00000000000000000D+00  0.00000000000000000D+00  0.00000000000000000D+00
59  2  0.00000000000000000D+00  0.00000000000000000D+00  0.00000000000000000D+00  0.00000000000000000D+00  0.00000000000000000D+00
59  3  0.00000000000000000D+00  0.00000000000000000D+00  0.00000000000000000D+00  0.00000000000000000D+00  0.00000000000000000D+00
59  4  0.00000000000000000D+00  0.00000000000000000D+00  0.00000000000000000D+00  0.00000000000000000D+00  0.00000000000000000D+00
59  5  0.00000000000000000D+00  0.00000000000000000D+00  0.00000000000000000D+00  0.00000000000000000D+00  0.00000000000000000D+00
59  6  0.00000000000000000D+00  0.00000000000000000D+00  0.00000000000000000D+00  0.00000000000000000D+00  0.00000000000000000D+00
59  7  0.00000000000000000D+00  0.00000000000000000D+00  0.00000000000000000D+00  0.00000000000000000D+00  0.00000000000000000D+00
59  8  0.00000000000000000D+00  0.00000000000000000D+00  0.00000000000000000D+00  0.00000000000000000D+00  0.00000000000000000D+00
59  9  0.00000000000000000D+00  0.00000000000000000D+00  0.00000000000000000D+00  0.00000000000000000D+00  0.00000000000000000D+00
59 10  0.00000000000000000D+00  0.00000000000000000D+00  0.00000000000000000D+00  0.00000000000000000D+00  0.00000000000000000D+00
59 11  0.00000000000000000D+00  0.00000000000000000D+00  0.00000000000000000D+00  0.00000000000000000D+00  0.00000000000000000D+00
59 12  0.00000000000000000D+00  0.00000000000000000D+00  0.00000000000000000D+00  0.00000000000000000D+00  0.00000000000000000D+00
59 13  0.00000000000000000D+00  0.00000000000000000D+00  0.00000000000000000D+00  0.00000000000000000D+00  0.00000000000000000D+00
59 14  0.00000000000000000D+00  0.00000000000000000D+00  0.00000000000000000D+00  0.00000000000000000D+00 -9.64677903931239300D-11
59 15 -9.64678507335518200D-11 -9.64678600369007200D-11  0.00000000000000000D+00  0.00000000000000000D+00  0.00000000000000000D+00
59 16  0.00000000000000000D+00  0.00000000000000000D+00  0.00000000000000000D+00  0.00000000000000000D+00  0.00000000000000000D+00
59 17  0.00000000000000000D+00  0.00000000000000000D+00  0.00000000000000000D+00  0.00000000000000000D+00  4.47213595499957300D-01
59 18  4.47213595499957700D-01  4.47213595499957300D-01  0.00000000000000000D+00  0.00000000000000000D+00  0.00000000000000000D+00
59 19  0.00000000000000000D+00  0.00000000000000000D+00  0.00000000000000000D+00  0.00000000000000000D+00  0.00000000000000000D+00
59 20  0.00000000000000000D+00  0.00000000000000000D+00  0.00000000000000000D+00  0.00000000000000000D+00  0.00000000000000000D+00
59 21  0.00000000000000000D+00  0.00000000000000000D+00  0.00000000000000000D+00  0.00000000000000000D+00  0.00000000000000000D+00
59 22  0.00000000000000000D+00  0.00000000000000000D+00  0.00000000000000000D+00  0.00000000000000000D+00  0.00000000000000000D+00
59 23  0.00000000000000000D+00  0.00000000000000000D+00  0.00000000000000000D+00  0.00000000000000000D+00  0.00000000000000000D+00
59 24  0.00000000000000000D+00  0.00000000000000000D+00  0.00000000000000000D+00  0.00000000000000000D+00  0.00000000000000000D+00
59 25  0.00000000000000000D+00  0.00000000000000000D+00  0.00000000000000000D+00  0.00000000000000000D+00  0.00000000000000000D+00
59 26  0.00000000000000000D+00  0.00000000000000000D+00  0.00000000000000000D+00  0.00000000000000000D+00  0.00000000000000000D+00
59 27  0.00000000000000000D+00  0.00000000000000000D+00  0.00000000000000000D+00  0.00000000000000000D+00  0.00000000000000000D+00
59 28  0.00000000000000000D+00  0.00000000000000000D+00  0.00000000000000000D+00  0.00000000000000000D+00  0.00000000000000000D+00
59 29  0.00000000000000000D+00  0.00000000000000000D+00  0.00000000000000000D+00  0.00000000000000000D+00  0.00000000000000000D+00
59 30  0.00000000000000000D+00  0.00000000000000000D+00  0.00000000000000000D+00  0.00000000000000000D+00  0.00000000000000000D+00
59 31  0.00000000000000000D+00  0.00000000000000000D+00  0.00000000000000000D+00  0.00000000000000000D+00  0.00000000000000000D+00
59 32  0.00000000000000000D+00  0.00000000000000000D+00  0.00000000000000000D+00  0.00000000000000000D+00  0.00000000000000000D+00
60  1  0.00000000000000000D+00  0.00000000000000000D+00  0.00000000000000000D+00  0.00000000000000000D+00  0.00000000000000000D+00
60  2  0.00000000000000000D+00  0.00000000000000000D+00  0.00000000000000000D+00  0.00000000000000000D+00  0.00000000000000000D+00
60  3  0.00000000000000000D+00  0.00000000000000000D+00  0.00000000000000000D+00  0.00000000000000000D+00  0.00000000000000000D+00
60  4  0.00000000000000000D+00  0.00000000000000000D+00  0.00000000000000000D+00  0.00000000000000000D+00  0.00000000000000000D+00
60  5  0.00000000000000000D+00  0.00000000000000000D+00  0.00000000000000000D+00  0.00000000000000000D+00  0.00000000000000000D+00
60  6  0.00000000000000000D+00  0.00000000000000000D+00  0.00000000000000000D+00  0.00000000000000000D+00  0.00000000000000000D+00
60  7  0.00000000000000000D+00  0.00000000000000000D+00  0.00000000000000000D+00  0.00000000000000000D+00  0.00000000000000000D+00
60  8  0.00000000000000000D+00  0.00000000000000000D+00  0.00000000000000000D+00  0.00000000000000000D+00  0.00000000000000000D+00
60  9  0.00000000000000000D+00  0.00000000000000000D+00  0.00000000000000000D+00  0.00000000000000000D+00  0.00000000000000000D+00
60 10  0.00000000000000000D+00  0.00000000000000000D+00  0.00000000000000000D+00  0.00000000000000000D+00  0.00000000000000000D+00
60 11  0.00000000000000000D+00  0.00000000000000000D+00  0.00000000000000000D+00  0.00000000000000000D+00  0.00000000000000000D+00
60 12  0.00000000000000000D+00  0.00000000000000000D+00  0.00000000000000000D+00  0.00000000000000000D+00  0.00000000000000000D+00
60 13  0.00000000000000000D+00  0.00000000000000000D+00  0.00000000000000000D+00  0.00000000000000000D+00  0.00000000000000000D+00
60 14  0.00000000000000000D+00  0.00000000000000000D+00  0.00000000000000000D+00  0.00000000000000000D+00  4.47213595499956500D-01
60 15  4.47213595499956600D-01  4.47213595499956600D-01  0.00000000000000000D+00  0.00000000000000000D+00  0.00000000000000000D+00
60 16  0.00000000000000000D+00  0.00000000000000000D+00  0.00000000000000000D+00  0.00000000000000000D+00  0.00000000000000000D+00
60 17  0.00000000000000000D+00  0.00000000000000000D+00  0.00000000000000000D+00  0.00000000000000000D+00  9.64682674300841600D-11
60 18  9.64681149070645300D-11  9.64679819114877200D-11  0.00000000000000000D+00  0.00000000000000000D+00  0.00000000000000000D+00
60 19  0.00000000000000000D+00  0.00000000000000000D+00  0.00000000000000000D+00  0.00000000000000000D+00  0.00000000000000000D+00
60 20  0.00000000000000000D+00  0.00000000000000000D+00  0.00000000000000000D+00  0.00000000000000000D+00  0.00000000000000000D+00
60 21  0.00000000000000000D+00  0.00000000000000000D+00  0.00000000000000000D+00  0.00000000000000000D+00  0.00000000000000000D+00
60 22  0.00000000000000000D+00  0.00000000000000000D+00  0.00000000000000000D+00  0.00000000000000000D+00  0.00000000000000000D+00
60 23  0.00000000000000000D+00  0.00000000000000000D+00  0.00000000000000000D+00  0.00000000000000000D+00  0.00000000000000000D+00
60 24  0.00000000000000000D+00  0.00000000000000000D+00  0.00000000000000000D+00  0.00000000000000000D+00  0.00000000000000000D+00
60 25  0.00000000000000000D+00  0.00000000000000000D+00  0.00000000000000000D+00  0.00000000000000000D+00  0.00000000000000000D+00
60 26  0.00000000000000000D+00  0.00000000000000000D+00  0.00000000000000000D+00 -2.29478909856336900D-11 -2.29478588921553000D-11
60 27 -2.29479671149375800D-11  0.00000000000000000D+00  0.00000000000000000D+00  0.00000000000000000D+00  0.00000000000000000D+00
60 28  0.00000000000000000D+00  0.00000000000000000D+00  0.00000000000000000D+00  0.00000000000000000D+00  0.00000000000000000D+00
60 29  0.00000000000000000D+00  0.00000000000000000D+00  0.00000000000000000D+00  0.00000000000000000D+00  0.00000000000000000D+00
60 30  0.00000000000000000D+00  0.00000000000000000D+00  0.00000000000000000D+00  0.00000000000000000D+00  0.00000000000000000D+00
60 31  0.00000000000000000D+00  0.00000000000000000D+00  0.00000000000000000D+00  0.00000000000000000D+00  0.00000000000000000D+00
60 32  0.00000000000000000D+00  0.00000000000000000D+00  0.00000000000000000D+00  0.00000000000000000D+00  0.00000000000000000D+00
 $END