 $CONTRL SCFTYP=RHF RUNTYP=ENERGY ICHARG=0 MULT=1 CITYP=CIS EXETYP=RUN
      INTTYP=HONDO ICUT=13 ITOL=30 D5=.T. MAXIT=100 GENCON=.F. WIDE=1 FSTINT=.T.
 $END
 $SYSTEM TIMLIM=60000 MWORDS=200 MASMEM=200000000 MXBCST=-1 KDIAG=0 NOJAC=1 $END
 $MOORTH NOSTF=.T. NOZERO=.T. SYMS=.T. SYMDEN=.T. SYMVEC=.T. SYMVX=.T.
      TOLE=0.0D0 TOLZ=0.0D0 $END
 $GUESS GUESS=HUCKEL $END
 $SCF DIRSCF=.T. FDIFF=.F. DIIS=.T. DAMP=.T. SHIFT=.T. SOSCF=.F. $END
 $CIS ISTATE=1 MULT=1 NSTATE=4 $END
 $DATA
o_bq CIS on starting geometry
C1
C      6.0     0.0000000000     1.4000000000     0.0000000000
S   8
  1    6665.0000000       0.0006920
  2    1000.0000000       0.0053290
  3     228.0000000       0.0270770
  4      64.7100000       0.1017180
  5      21.0600000       0.2747400
  6       7.4950000       0.4485640
  7       2.7970000       0.2850740
  8       0.5215000       0.0152040
S   8
  1    6665.0000000      -0.0001460
  2    1000.0000000      -0.0011540
  3     228.0000000      -0.0057250
  4      64.7100000      -0.0233120
  5      21.0600000      -0.0639550
  6       7.4950000      -0.1499810
  7       2.7970000      -0.1272620
  8       0.5215000       0.5445290
S   1
  1       0.1596000       1.0000000
P   3
  1       9.4390000       0.0381090
  2       2.0020000       0.2094800
  3       0.5456000       0.5085570
P   1
  1       0.1517000       1.0000000
D   1
  1       0.5500000       1.0000000

C      6.0     1.2124355650     0.7000000000     0.0000000000
S   8
  1    6665.0000000       0.0006920
  2    1000.0000000       0.0053290
  3     228.0000000       0.0270770
  4      64.7100000       0.1017180
  5      21.0600000       0.2747400
  6       7.4950000       0.4485640
  7       2.7970000       0.2850740
  8       0.5215000       0.0152040
S   8
  1    6665.0000000      -0.0001460
  2    1000.0000000      -0.0011540
  3     228.0000000      -0.0057250
  4      64.7100000      -0.0233120
  5      21.0600000      -0.0639550
  6       7.4950000      -0.1499810
  7       2.7970000      -0.1272620
  8       0.5215000       0.5445290
S   1
  1       0.1596000       1.0000000
P   3
  1       9.4390000       0.0381090
  2       2.0020000       0.2094800
  3       0.5456000       0.5085570
P   1
  1       0.1517000       1.0000000
D   1
  1       0.5500000       1.0000000

C      6.0     1.2124355650    -0.7000000000     0.0000000000
S   8
  1    6665.0000000       0.0006920
  2    1000.0000000       0.0053290
  3     228.0000000       0.0270770
  4      64.7100000       0.1017180
  5      21.0600000       0.2747400
  6       7.4950000       0.4485640
  7       2.7970000       0.2850740
  8       0.5215000       0.0152040
S   8
  1    6665.0000000      -0.0001460
  2    1000.0000000      -0.0011540
  3     228.0000000      -0.0057250
  4      64.7100000      -0.0233120
  5      21.0600000      -0.0639550
  6       7.4950000      -0.1499810
  7       2.7970000      -0.1272620
  8       0.5215000       0.5445290
S   1
  1       0.1596000       1.0000000
P   3
  1       9.4390000       0.0381090
  2       2.0020000       0.2094800
  3       0.5456000       0.5085570
P   1
  1       0.1517000       1.0000000
D   1
  1       0.5500000       1.0000000

C      6.0     0.0000000000    -1.4000000000     0.0000000000
S   8
  1    6665.0000000       0.0006920
  2    1000.0000000       0.0053290
  3     228.0000000       0.0270770
  4      64.7100000       0.1017180
  5      21.0600000       0.2747400
  6       7.4950000       0.4485640
  7       2.7970000       0.2850740
  8       0.5215000       0.0152040
S   8
  1    6665.0000000      -0.0001460
  2    1000.0000000      -0.0011540
  3     228.0000000      -0.0057250
  4      64.7100000      -0.0233120
  5      21.0600000      -0.0639550
  6       7.4950000      -0.1499810
  7       2.7970000      -0.1272620
  8       0.5215000       0.5445290
S   1
  1       0.1596000       1.0000000
P   3
  1       9.4390000       0.0381090
  2       2.0020000       0.2094800
  3       0.5456000       0.5085570
P   1
  1       0.1517000       1.0000000
D   1
  1       0.5500000       1.0000000

C      6.0    -1.2124355650    -0.7000000000     0.0000000000
S   8
  1    6665.0000000       0.0006920
  2    1000.0000000       0.0053290
  3     228.0000000       0.0270770
  4      64.7100000       0.1017180
  5      21.0600000       0.2747400
  6       7.4950000       0.4485640
  7       2.7970000       0.2850740
  8       0.5215000       0.0152040
S   8
  1    6665.0000000      -0.0001460
  2    1000.0000000      -0.0011540
  3     228.0000000      -0.0057250
  4      64.7100000      -0.0233120
  5      21.0600000      -0.0639550
  6       7.4950000      -0.1499810
  7       2.7970000      -0.1272620
  8       0.5215000       0.5445290
S   1
  1       0.1596000       1.0000000
P   3
  1       9.4390000       0.0381090
  2       2.0020000       0.2094800
  3       0.5456000       0.5085570
P   1
  1       0.1517000       1.0000000
D   1
  1       0.5500000       1.0000000

C      6.0    -1.2124355650     0.7000000000     0.0000000000
S   8
  1    6665.0000000       0.0006920
  2    1000.0000000       0.0053290
  3     228.0000000       0.0270770
  4      64.7100000       0.1017180
  5      21.0600000       0.2747400
  6       7.4950000       0.4485640
  7       2.7970000       0.2850740
  8       0.5215000       0.0152040
S   8
  1    6665.0000000      -0.0001460
  2    1000.0000000      -0.0011540
  3     228.0000000      -0.0057250
  4      64.7100000      -0.0233120
  5      21.0600000      -0.0639550
  6       7.4950000      -0.1499810
  7       2.7970000      -0.1272620
  8       0.5215000       0.5445290
S   1
  1       0.1596000       1.0000000
P   3
  1       9.4390000       0.0381090
  2       2.0020000       0.2094800
  3       0.5456000       0.5085570
P   1
  1       0.1517000       1.0000000
D   1
  1       0.5500000       1.0000000

O      8.0     0.0000000000     2.6200000000     0.0000000000
S   8
  1   11720.0000000       0.0007100
  2    1759.0000000       0.0054700
  3     400.8000000       0.0278370
  4     113.7000000       0.1048000
  5      37.0300000       0.2830620
  6      13.2700000       0.4487190
  7       5.0250000       0.2709520
  8       1.0130000       0.0154580
S   8
  1   11720.0000000      -0.0001600
  2    1759.0000000      -0.0012630
  3     400.8000000      -0.0062670
  4     113.7000000      -0.0257160
  5      37.0300000      -0.0709240
  6      13.2700000      -0.1654110
  7       5.0250000      -0.1169550
  8       1.0130000       0.5573680
S   1
  1       0.3023000       1.0000000
S   1
  1       0.0789600       1.0000000
P   3
  1      17.7000000       0.0430180
  2       3.8540000       0.2289130
  3       1.0460000       0.5087280
P   1
  1       0.2753000       1.0000000
P   1
  1       0.0685600       1.0000000
D   1
  1       1.1850000       1.0000000
D   1
  1       0.3320000       1.0000000

O      8.0     2.2685000000     1.3100000000     0.0000000000
S   8
  1   11720.0000000       0.0007100
  2    1759.0000000       0.0054700
  3     400.8000000       0.0278370
  4     113.7000000       0.1048000
  5      37.0300000       0.2830620
  6      13.2700000       0.4487190
  7       5.0250000       0.2709520
  8       1.0130000       0.0154580
S   8
  1   11720.0000000      -0.0001600
  2    1759.0000000      -0.0012630
  3     400.8000000      -0.0062670
  4     113.7000000      -0.0257160
  5      37.0300000      -0.0709240
  6      13.2700000      -0.1654110
  7       5.0250000      -0.1169550
  8       1.0130000       0.5573680
S   1
  1       0.3023000       1.0000000
S   1
  1       0.0789600       1.0000000
P   3
  1      17.7000000       0.0430180
  2       3.8540000       0.2289130
  3       1.0460000       0.5087280
P   1
  1       0.2753000       1.0000000
P   1
  1       0.0685600       1.0000000
D   1
  1       1.1850000       1.0000000
D   1
  1       0.3320000       1.0000000

H      1.0     2.1500000000    -1.2410000000     0.0000000000
S   3
  1      13.0100000       0.0196850
  2       1.9620000       0.1379770
  3       0.4446000       0.4781480
S   1
  1       0.1220000       1.0000000
P   1
  1       0.7270000       1.0000000

H      1.0     0.0000000000    -2.4800000000     0.0000000000
S   3
  1      13.0100000       0.0196850
  2       1.9620000       0.1379770
  3       0.4446000       0.4781480
S   1
  1       0.1220000       1.0000000
P   1
  1       0.7270000       1.0000000

H      1.0    -2.1500000000    -1.2410000000     0.0000000000
S   3
  1      13.0100000       0.0196850
  2       1.9620000       0.1379770
  3       0.4446000       0.4781480
S   1
  1       0.1220000       1.0000000
P   1
  1       0.7270000       1.0000000

H      1.0    -2.1500000000     1.2410000000     0.0000000000
S   3
  1      13.0100000       0.0196850
  2       1.9620000       0.1379770
  3       0.4446000       0.4781480
S   1
  1       0.1220000       1.0000000
P   1
  1       0.7270000       1.0000000

 $END
